
    -----------------------------------------------------------------------
          Psi4: An Open-Source Ab Initio Electronic Structure Package
                               Psi4 1.10 release

                         Git: Rev {} zzzzzzz 


    D. G. A. Smith, L. A. Burns, A. C. Simmonett, R. M. Parrish,
    M. C. Schieber, R. Galvelis, P. Kraus, H. Kruse, R. Di Remigio,
    A. Alenaizan, A. M. James, S. Lehtola, J. P. Misiewicz, M. Scheurer,
    R. A. Shaw, J. B. Schriber, Y. Xie, Z. L. Glick, D. A. Sirianni,
    J. S. O'Brien, J. M. Waldrop, A. Kumar, E. G. Hohenstein,
    B. P. Pritchard, B. R. Brooks, H. F. Schaefer III, A. Yu. Sokolov,
    K. Patkowski, A. E. DePrince III, U. Bozkaya, R. A. King,
    F. A. Evangelista, J. M. Turney, T. D. Crawford, C. D. Sherrill,
    J. Chem. Phys. 152(18) 184108 (2020). https://doi.org/10.1063/5.0006002

                            Additional Code Authors
    E. T. Seidl, C. L. Janssen, E. F. Valeev, M. L. Leininger,
    J. F. Gonthier, R. M. Richard, H. R. McAlexander, M. Saitow, X. Wang,
    P. Verma, M. H. Lechner, A. Jiang, S. Behnle, A. G. Heide,
    M. F. Herbst, D. L. Poole, T. Győri, E. C. Mitchell, J. P. Pederson,
    and A. M. Wallace

             Previous Authors, Complete List of Code Contributors,
                       and Citations for Specific Modules
    https://github.com/psi4/psi4/blob/master/codemeta.json
    https://github.com/psi4/psi4/graphs/contributors
    https://psicode.org/psi4manual/master/introduction.html#citing-psifour

    -----------------------------------------------------------------------


    Psi4 started on: Tuesday, 23 December 2025 11:50AM

    Process ID: 423046
    Host:       cics-quant-001
    PSIDATADIR: /home/jrodriguesro/psi4conda/share/psi4
    Memory:     500.0 MiB
    Threads:    5
    Addons:     adcc, a̶m̶b̶i̶t̶, b̶s̶e̶, c̶c̶t̶3̶, c̶f̶o̶u̶r̶, c̶h̶e̶m̶p̶s̶2̶, c̶p̶p̶e̶, ddx, dftd3, dftd4,
                dkh, ecpint, einsums, f̶o̶r̶t̶e̶, g̶a̶u̶x̶c̶, gcp, g̶d̶m̶a̶, geometric,
                g̶p̶u̶_̶d̶f̶c̶c̶, i̶n̶t̶e̶g̶r̶a̶t̶o̶r̶x̶x̶, i̶p̶i̶, libefp, m̶d̶i̶, m̶p̶2̶d̶,
                m̶r̶c̶c̶, ooo, o̶p̶e̶n̶f̶e̶r̶m̶i̶o̶n̶p̶s̶i̶4̶, pcmsolver, p̶s̶i̶4̶f̶o̶c̶k̶c̶i̶,
                p̶s̶i̶x̶a̶s̶, r̶e̶s̶p̶, s̶i̶m̶i̶n̶t̶, s̶n̶s̶m̶p̶2̶, v̶2̶r̶d̶m̶_̶c̶a̶s̶s̶c̶f̶

  ==> Input File <==

--------------------------------------------------------------------------
memory 8 Gb

molecule { 
1 4
Si   0.00000        0.60000        0.00000
Ar   0.00000       -0.60000        0.00000
}

set { 
basis              cc-pvdz
reference          uks
maxiter            500
geom_maxiter       500
DAMPING_PERCENTAGE 1
guess              SAP
}

optimize('b3lyp')
--------------------------------------------------------------------------

  Memory set to   7.451 GiB by Python driver.

Scratch directory: /tmp/
gradient() will perform analytic gradient computation.
   => Libint2 <=

    Primary   basis highest AM E, G, H:  6, 6, 3
    Auxiliary basis highest AM E, G, H:  7, 7, 4
    Onebody   basis highest AM E, G, H:  -, -, -
    Solid Harmonics ordering:            Gaussian

*** tstart() called on cics-quant-001
*** at Tue Dec 23 11:50:50 2025

   => Loading Basis Set <=

    Name: CC-PVDZ
    Role: ORBITAL
    Keyword: BASIS
    atoms 1 entry SI         line   478 file /home/jrodriguesro/psi4conda/share/psi4/basis/cc-pvdz.gbs 
    atoms 2 entry AR         line   718 file /home/jrodriguesro/psi4conda/share/psi4/basis/cc-pvdz.gbs 


         ---------------------------------------------------------
                                   SCF
               by Justin Turney, Rob Parrish, Andy Simmonett
                          and Daniel G. A. Smith
                              UKS Reference
                        5 Threads,   7629 MiB Core
         ---------------------------------------------------------

  ==> Geometry <==

    Molecular point group: c2v
    Full point group: C_inf_v

    Geometry (in Angstrom), charge = 1, multiplicity = 4:

       Center              X                  Y                   Z               Mass       
    ------------   -----------------  -----------------  -----------------  -----------------
         SI           0.000000000000     0.000000000000     0.705848499044    27.976926534650
         AR           0.000000000000     0.000000000000    -0.494151500956    39.962383123700

  Running in c2v symmetry.

  Rotational constants: A = ************  B =      0.71138  C =      0.71138 [cm^-1]
  Rotational constants: A = ************  B =  21326.73906  C =  21326.73906 [MHz]
  Nuclear repulsion =  111.127214240700013

  Charge       = 1
  Multiplicity = 4
  Electrons    = 31
  Nalpha       = 17
  Nbeta        = 14

  ==> Algorithm <==

  SCF Algorithm Type is DF.
  DIIS enabled.
  MOM disabled.
  Fractional occupation disabled.
  Guess Type is SAP.
  Energy threshold   = 1.00e-08
  Density threshold  = 1.00e-08
  Integral threshold = 1.00e-12

  ==> Primary Basis <==

  Basis Set: CC-PVDZ
    Blend: CC-PVDZ
    Number of shells: 16
    Number of basis functions: 36
    Number of Cartesian functions: 38
    Spherical Harmonics?: true
    Max angular momentum: 2

  ==> DFT Potential <==

   => LibXC <=

    Version 7.0.0
    S. Lehtola, C. Steigemann, M. J.T. Oliveira, and M. A.L. Marques.,  SoftwareX 7, 1–5 (2018) (10.1016/j.softx.2017.11.002)

   => Composite Functional: B3LYP <= 

    B3LYP Hyb-GGA Exchange-Correlation Functional

    P. J. Stephens, F. J. Devlin, C. F. Chabalowski, and M. J. Frisch.,  J. Phys. Chem. 98, 11623 (1994) (10.1021/j100096a001)

    Deriv               =              1
    GGA                 =           TRUE
    Meta                =          FALSE

    Exchange Hybrid     =           TRUE
    MP2 Hybrid          =          FALSE

   => Exchange Functionals <=

    0.0800   Slater exchange
    0.7200         Becke 88

   => Exact (HF) Exchange <=

    0.2000               HF 

   => Correlation Functionals <=

    0.1900   Vosko, Wilk & Nusair (VWN5_RPA)
    0.8100   Lee, Yang & Parr

   => LibXC Density Thresholds  <==

    XC_HYB_GGA_XC_B3LYP:  1.00E-15 

   => Molecular Quadrature <=

    Radial Scheme          =       TREUTLER
    Pruning Scheme         =           NONE
    Nuclear Scheme         =       TREUTLER

    Blocking Scheme        =         OCTREE
    BS radius alpha        =              1
    Pruning alpha          =              1
    Radial Points          =             75
    Spherical Points       =            302
    Total Points           =          41465
    Total Blocks           =            389
    Max Points             =            249
    Max Functions          =             36
    Weights Tolerance      =       1.00E-15

   => Loading Basis Set <=

    Name: (CC-PVDZ AUX)
    Role: JKFIT
    Keyword: DF_BASIS_SCF
    atoms 1 entry SI         line   445 file /home/jrodriguesro/psi4conda/share/psi4/basis/cc-pvdz-jkfit.gbs 
    atoms 2 entry AR         line   741 file /home/jrodriguesro/psi4conda/share/psi4/basis/cc-pvdz-jkfit.gbs 

  ==> Integral Setup <==

  DFHelper Memory: AOs need 0.003 GiB; user supplied 5.546 GiB. 
  SCF_SUBTYPE=INCORE selected. In-core MEM_DF algorithm will be used.
  Using in-core AOs.

  ==> MemDFJK: Density-Fitted J/K Matrices <==

    J tasked:                   Yes
    K tasked:                   Yes
    wK tasked:                   No
    OpenMP threads:               5
    Memory [MiB]:              5679
    Algorithm:                 Core
    Schwarz Cutoff:           1E-12
    Mask sparsity (%):       0.0000
    Fitting Condition:        1E-10

   => Auxiliary Basis Set <=

  Basis Set: (CC-PVDZ AUX)
    Blend: CC-PVDZ-JKFIT
    Number of shells: 72
    Number of basis functions: 224
    Number of Cartesian functions: 260
    Spherical Harmonics?: true
    Max angular momentum: 3

  Cached 100.0% of DFT collocation blocks in 0.042 [GiB].

  Minimum eigenvalue in the overlap matrix is 8.1091865484E-03.
  Reciprocal condition number of the overlap matrix is 2.6288320976E-03.
    Using symmetric orthogonalization.

  ==> Pre-Iterations <==

  SCF Guess: Superposition of Atomic Potentials (doi:10.1021/acs.jctc.8b01089).

  ==> SAP guess <==

   => Molecular Quadrature <=

    Radial Scheme          =       TREUTLER
    Pruning Scheme         =           NONE
    Nuclear Scheme         =       TREUTLER

    Blocking Scheme        =         OCTREE
    BS radius alpha        =              1
    Pruning alpha          =              1
    Radial Points          =             75
    Spherical Points       =            302
    Total Points           =          41465
    Total Blocks           =            389
    Max Points             =            249
    Max Functions          =             36
    Weights Tolerance      =       1.00E-15

   -------------------------------------------------------
    Irrep   Nso     Nmo     Nalpha   Nbeta   Ndocc  Nsocc
   -------------------------------------------------------
     A1        18      18       9       8       8       1
     A2         2       2       0       0       0       0
     B1         8       8       4       3       3       1
     B2         8       8       4       3       3       1
   -------------------------------------------------------
    Total      36      36      17      14      14       3
   -------------------------------------------------------

  ==> Iterations <==

                           Total Energy        Delta E     RMS |[F,P]|

   @DF-UKS iter   1:  -815.05389417699928   -8.15054e+02   2.20666e-02 ADIIS/DIIS
   @DF-UKS iter   2:  -815.11777055859591   -6.38764e-02   1.56754e-02 ADIIS/DIIS/DAMP=1%
   @DF-UKS iter   3:  -815.15263380763997   -3.48632e-02   8.99302e-04 ADIIS/DIIS/DAMP=1%
   @DF-UKS iter   4:  -815.17441872907204   -2.17849e-02   1.25295e-04 ADIIS/DIIS/DAMP=1%
   @DF-UKS iter   5:  -815.17327036958181    1.14836e-03   5.47881e-05 DIIS/DAMP=1%
   @DF-UKS iter   6:  -815.17326237718544    7.99240e-06   6.79131e-06 DIIS/DAMP=1%
   @DF-UKS iter   7:  -815.17332255326869   -6.01761e-05   5.78012e-07 DIIS/DAMP=1%
   @DF-UKS iter   8:  -815.17331439973577    8.15353e-06   7.55087e-08 DIIS/DAMP=1%
   @DF-UKS iter   9:  -815.17331446768014   -6.79444e-08   7.10255e-09 DIIS/DAMP=1%
   @DF-UKS iter  10:  -815.17331442141062    4.62695e-08   8.44108e-10 DIIS/DAMP=1%
   @DF-UKS iter  11:  -815.17331442998295   -8.57233e-09   7.28500e-11 DIIS/DAMP=1%
  Energy and wave function converged.


  ==> Post-Iterations <==

   Electrons on quadrature grid:
      Nalpha   =   16.9999994527 ; deviation = -5.473e-07
      Nbeta    =   13.9999994590 ; deviation = -5.410e-07
      Ntotal   =   30.9999989117 ; deviation = -1.088e-06 

   @Spin Contamination Metric:   1.111711176E-03
   @S^2 Expected:                3.750000000E+00
   @S^2 Observed:                3.751111711E+00
   @S   Expected:                1.500000000E+00
   @S   Observed:                1.500000000E+00

    Orbital Energies [Eh]
    ---------------------

    Alpha Occupied:                                                       

       1A1  -115.512563     2A1   -66.435451     3A1   -11.622119  
       4A1    -9.179956     1B1    -9.155616     1B2    -9.155616  
       5A1    -5.703162     6A1    -4.092365     2B1    -4.028181  
       2B2    -4.028181     7A1    -1.551071     3B2    -0.980458  
       3B1    -0.980458     8A1    -0.978391     9A1    -0.619633  
       4B1    -0.412246     4B2    -0.412246  

    Alpha Virtual:                                                        

      10A1    -0.203355     5B1    -0.087603     5B2    -0.087603  
      11A1    -0.051338     1A2    -0.051337    12A1     0.020032  
      13A1     0.042056     6B1     0.118801     6B2     0.118801  
      14A1     0.133795     7B2     0.313271     7B1     0.313271  
      15A1     0.468685     2A2     0.468687    16A1     0.548449  
       8B1     0.840501     8B2     0.840501    17A1     0.949901  
      18A1     1.308945  

    Beta Occupied:                                                        

       1A1  -115.509098     2A1   -66.423004     3A1   -11.618578  
       4A1    -9.175971     1B1    -9.150539     1B2    -9.150539  
       5A1    -5.688912     6A1    -4.075323     2B1    -4.008164  
       2B2    -4.008164     7A1    -1.532177     3B2    -0.958300  
       3B1    -0.958300     8A1    -0.944927  

    Beta Virtual:                                                         

       9A1    -0.427718     4B1    -0.261011     4B2    -0.261011  
      10A1    -0.174925     5B1    -0.059326     5B2    -0.059326  
      11A1     0.023194     1A2     0.023195    12A1     0.053007  
      13A1     0.075493    14A1     0.195085     6B1     0.202487  
       6B2     0.202487     7B2     0.338634     7B1     0.338634  
      15A1     0.515952     2A2     0.515954    16A1     0.561042  
       8B1     0.886314     8B2     0.886314    17A1     0.981854  
      18A1     1.337822  

    Final Occupation by Irrep:
             A1    A2    B1    B2 
    DOCC [     8,    0,    3,    3 ]
    SOCC [     1,    0,    1,    1 ]
    NA   [     9,    0,    4,    4 ]
    NB   [     8,    0,    3,    3 ]

  @DF-UKS Final Energy:  -815.17331442998295

   => Energetics <=

    Nuclear Repulsion Energy =            111.1272142407000132
    One-Electron Energy =               -1334.7051215492083429
    Two-Electron Energy =                 450.4146820858653655
    DFT Exchange-Correlation Energy =     -42.0100892073399024
    Empirical Dispersion Energy =           0.0000000000000000
    VV10 Nonlocal Energy =                  0.0000000000000000
    Total Energy =                       -815.1733144299829519

  UHF NO Occupations:
  HONO-2 :    4 B1 1.0000000
  HONO-1 :    9 A1 1.0000000
  HONO-0 :    4 B2 1.0000000
  LUNO+0 :    5 B1 0.0002296
  LUNO+1 :    5 B2 0.0002296
  LUNO+2 :   10 A1 0.0000878
  LUNO+3 :   11 A1 0.0000086


Computation Completed


Properties will be evaluated at   0.000000,   0.000000,   0.000000 [a0]

Properties computed using the SCF density matrix


 Multipole Moments:

 ------------------------------------------------------------------------------------
     Multipole            Electronic (a.u.)      Nuclear  (a.u.)        Total (a.u.)
 ------------------------------------------------------------------------------------

 L = 1.  Multiply by 2.5417464519 to convert [e a0] to [Debye]
 Dipole X            :          0.0000000            0.0000000            0.0000000
 Dipole Y            :          0.0000000            0.0000000            0.0000000
 Dipole Z            :         -2.5192147            1.8654469           -0.6537679
 Magnitude           :                                                    0.6537679

 ------------------------------------------------------------------------------------

*** tstop() called on cics-quant-001 at Tue Dec 23 11:50:51 2025
Module time:
	user time   =       0.83 seconds =       0.01 minutes
	system time =       0.10 seconds =       0.00 minutes
	total time  =          1 seconds =       0.02 minutes
Total time:
	user time   =       0.83 seconds =       0.01 minutes
	system time =       0.10 seconds =       0.00 minutes
	total time  =          1 seconds =       0.02 minutes

*** tstart() called on cics-quant-001
*** at Tue Dec 23 11:50:51 2025


         ------------------------------------------------------------
                                   SCF GRAD                          
                          Rob Parrish, Justin Turney,                
                       Andy Simmonett, and Alex Sokolov              
         ------------------------------------------------------------

  ==> Geometry <==

    Molecular point group: c2v
    Full point group: C_inf_v

    Geometry (in Angstrom), charge = 1, multiplicity = 4:

       Center              X                  Y                   Z               Mass       
    ------------   -----------------  -----------------  -----------------  -----------------
         SI           0.000000000000     0.000000000000     0.705848499044    27.976926534650
         AR           0.000000000000     0.000000000000    -0.494151500956    39.962383123700

  Nuclear repulsion =  111.127214240700013

  ==> Basis Set <==

  Basis Set: CC-PVDZ
    Blend: CC-PVDZ
    Number of shells: 16
    Number of basis functions: 36
    Number of Cartesian functions: 38
    Spherical Harmonics?: true
    Max angular momentum: 2

  ==> DFJKGrad: Density-Fitted SCF Gradients <==

    Gradient:                    1
    J tasked:                  Yes
    K tasked:                  Yes
    wK tasked:                  No
    OpenMP threads:              5
    Integrals threads:           5
    Memory [MiB]:             5722
    Schwarz Cutoff:          1E-12
    Fitting Condition:       1E-10

   => Auxiliary Basis Set <=

  Basis Set: (CC-PVDZ AUX)
    Blend: CC-PVDZ-JKFIT
    Number of shells: 72
    Number of basis functions: 224
    Number of Cartesian functions: 260
    Spherical Harmonics?: true
    Max angular momentum: 3

  ==> DFT Potential <==

   => LibXC <=

    Version 7.0.0
    S. Lehtola, C. Steigemann, M. J.T. Oliveira, and M. A.L. Marques.,  SoftwareX 7, 1–5 (2018) (10.1016/j.softx.2017.11.002)

   => Composite Functional: B3LYP <= 

    B3LYP Hyb-GGA Exchange-Correlation Functional

    P. J. Stephens, F. J. Devlin, C. F. Chabalowski, and M. J. Frisch.,  J. Phys. Chem. 98, 11623 (1994) (10.1021/j100096a001)

    Deriv               =              1
    GGA                 =           TRUE
    Meta                =          FALSE

    Exchange Hybrid     =           TRUE
    MP2 Hybrid          =          FALSE

   => Exchange Functionals <=

    0.0800   Slater exchange
    0.7200         Becke 88

   => Exact (HF) Exchange <=

    0.2000               HF 

   => Correlation Functionals <=

    0.1900   Vosko, Wilk & Nusair (VWN5_RPA)
    0.8100   Lee, Yang & Parr

   => LibXC Density Thresholds  <==

    XC_HYB_GGA_XC_B3LYP:  1.00E-15 

   => Molecular Quadrature <=

    Radial Scheme          =       TREUTLER
    Pruning Scheme         =           NONE
    Nuclear Scheme         =       TREUTLER

    Blocking Scheme        =         OCTREE
    BS radius alpha        =              1
    Pruning alpha          =              1
    Radial Points          =             75
    Spherical Points       =            302
    Total Points           =          41465
    Total Blocks           =            389
    Max Points             =            249
    Max Functions          =             36
    Weights Tolerance      =       1.00E-15


  -Total Gradient:
     Atom            X                  Y                   Z
    ------   -----------------  -----------------  -----------------
       1        0.000000000000    -0.000000000000    -3.002133421089
       2        0.000000000000    -0.000000000000     3.002109308745


*** tstop() called on cics-quant-001 at Tue Dec 23 11:50:51 2025
Module time:
	user time   =       0.26 seconds =       0.00 minutes
	system time =       0.11 seconds =       0.00 minutes
	total time  =          0 seconds =       0.00 minutes
Total time:
	user time   =       1.10 seconds =       0.02 minutes
	system time =       0.21 seconds =       0.00 minutes
	total time  =          1 seconds =       0.02 minutes

    			-----------------------------------------

    			 OPTKING 3.0: for geometry optimizations 

    			     By R.A. King, Bethel University     

    			        with contributions from          

    			    A.V. Copan, J. Cayton, A. Heide      

    			-----------------------------------------

    
	                            ===> Fragment 1 <== 

	 Z (Atomic Numbers)          Masses                          Geom                  
	      14.000000            27.976927          0.00000000  0.00000000  1.33386035   
	      18.000000            39.962383          0.00000000  0.00000000 -0.93381100   

	 - Coordinate -           - BOHR/RAD -       - ANG/DEG -
	 R(1,2)           =         2.267671           1.200000


	        --- Internal Coordinate Step in ANG or DEG, aJ/ANG or AJ/DEG ---
	-------------------------------------------------------------------------------
	           Coordinate      Previous         Force          Change          New 
	           ----------      --------        ------          ------        ------
	               R(1,2)       1.20000       24.73365        0.00729       1.20729
	-------------------------------------------------------------------------------

	                                 ==> Convergence Check <==                                  
    
	Measures of convergence in internal coordinates in au.
    
	Criteria marked as inactive (o), active & met (*), and active & unmet ( ).

	----------------------------------------------------------------------------------------------~
	   Step    Total Energy     Delta E     Max Force     RMS Force      Max Disp      RMS Disp   ~
	----------------------------------------------------------------------------------------------~
	  Convergence Criteria     1.00e-06 *    3.00e-04 *             o    1.20e-03 *             o~
	----------------------------------------------------------------------------------------------~
	     1    -815.17331443   -8.15e+02      3.00e+00      3.00e+00 o    1.38e-02      1.38e-02 o  ~
	----------------------------------------------------------------------------------------------

Next Geometry in Ang 
	Fragment 1 (Ang)

	   Si   0.0000000000   0.0000000000   0.7094944858
	   Ar   0.0000000000   0.0000000000  -0.4977974877


    Structure for next step:
    Molecular point group: c2v
    Full point group: C_inf_v

    Geometry (in Angstrom), charge = 1, multiplicity = 4:

    SI           0.000000000000     0.000000000000     0.710137689465
    AR           0.000000000000     0.000000000000    -0.497154283971


Scratch directory: /tmp/
gradient() will perform analytic gradient computation.
   => Libint2 <=

    Primary   basis highest AM E, G, H:  6, 6, 3
    Auxiliary basis highest AM E, G, H:  7, 7, 4
    Onebody   basis highest AM E, G, H:  -, -, -
    Solid Harmonics ordering:            Gaussian

*** tstart() called on cics-quant-001
*** at Tue Dec 23 11:50:51 2025

   => Loading Basis Set <=

    Name: CC-PVDZ
    Role: ORBITAL
    Keyword: BASIS
    atoms 1 entry SI         line   478 file /home/jrodriguesro/psi4conda/share/psi4/basis/cc-pvdz.gbs 
    atoms 2 entry AR         line   718 file /home/jrodriguesro/psi4conda/share/psi4/basis/cc-pvdz.gbs 


         ---------------------------------------------------------
                                   SCF
               by Justin Turney, Rob Parrish, Andy Simmonett
                          and Daniel G. A. Smith
                              UKS Reference
                        5 Threads,   7629 MiB Core
         ---------------------------------------------------------

  ==> Geometry <==

    Molecular point group: c2v
    Full point group: C_inf_v

    Geometry (in Angstrom), charge = 1, multiplicity = 4:

       Center              X                  Y                   Z               Mass       
    ------------   -----------------  -----------------  -----------------  -----------------
         SI           0.000000000000     0.000000000000     0.710137689465    27.976926534650
         AR           0.000000000000     0.000000000000    -0.497154283971    39.962383123700

  Running in c2v symmetry.

  Rotational constants: A = ************  B =      0.70282  C =      0.70282 [cm^-1]
  Rotational constants: A = ************  B =  21069.89255  C =  21069.89255 [MHz]
  Nuclear repulsion =  110.456012317642788

  Charge       = 1
  Multiplicity = 4
  Electrons    = 31
  Nalpha       = 17
  Nbeta        = 14

  ==> Algorithm <==

  SCF Algorithm Type is DF.
  DIIS enabled.
  MOM disabled.
  Fractional occupation disabled.
  Guess Type is READ.
  Energy threshold   = 1.00e-08
  Density threshold  = 1.00e-08
  Integral threshold = 1.00e-12

  ==> Primary Basis <==

  Basis Set: CC-PVDZ
    Blend: CC-PVDZ
    Number of shells: 16
    Number of basis functions: 36
    Number of Cartesian functions: 38
    Spherical Harmonics?: true
    Max angular momentum: 2

  ==> DFT Potential <==

   => LibXC <=

    Version 7.0.0
    S. Lehtola, C. Steigemann, M. J.T. Oliveira, and M. A.L. Marques.,  SoftwareX 7, 1–5 (2018) (10.1016/j.softx.2017.11.002)

   => Composite Functional: B3LYP <= 

    B3LYP Hyb-GGA Exchange-Correlation Functional

    P. J. Stephens, F. J. Devlin, C. F. Chabalowski, and M. J. Frisch.,  J. Phys. Chem. 98, 11623 (1994) (10.1021/j100096a001)

    Deriv               =              1
    GGA                 =           TRUE
    Meta                =          FALSE

    Exchange Hybrid     =           TRUE
    MP2 Hybrid          =          FALSE

   => Exchange Functionals <=

    0.0800   Slater exchange
    0.7200         Becke 88

   => Exact (HF) Exchange <=

    0.2000               HF 

   => Correlation Functionals <=

    0.1900   Vosko, Wilk & Nusair (VWN5_RPA)
    0.8100   Lee, Yang & Parr

   => LibXC Density Thresholds  <==

    XC_HYB_GGA_XC_B3LYP:  1.00E-15 

   => Molecular Quadrature <=

    Radial Scheme          =       TREUTLER
    Pruning Scheme         =           NONE
    Nuclear Scheme         =       TREUTLER

    Blocking Scheme        =         OCTREE
    BS radius alpha        =              1
    Pruning alpha          =              1
    Radial Points          =             75
    Spherical Points       =            302
    Total Points           =          41466
    Total Blocks           =            389
    Max Points             =            250
    Max Functions          =             36
    Weights Tolerance      =       1.00E-15

   => Loading Basis Set <=

    Name: (CC-PVDZ AUX)
    Role: JKFIT
    Keyword: DF_BASIS_SCF
    atoms 1 entry SI         line   445 file /home/jrodriguesro/psi4conda/share/psi4/basis/cc-pvdz-jkfit.gbs 
    atoms 2 entry AR         line   741 file /home/jrodriguesro/psi4conda/share/psi4/basis/cc-pvdz-jkfit.gbs 

   => Loading Basis Set <=

    Name: CC-PVDZ
    Role: ORBITAL
    Keyword: BASIS
    atoms 1 entry SI         line   478 file /home/jrodriguesro/psi4conda/share/psi4/basis/cc-pvdz.gbs 
    atoms 2 entry AR         line   718 file /home/jrodriguesro/psi4conda/share/psi4/basis/cc-pvdz.gbs 

  Reading orbitals from file /tmp/quartet_SiAr.default.423046.180.npy, no projection.

  ==> Integral Setup <==

  DFHelper Memory: AOs need 0.003 GiB; user supplied 5.546 GiB. 
  SCF_SUBTYPE=INCORE selected. In-core MEM_DF algorithm will be used.
  Using in-core AOs.

  ==> MemDFJK: Density-Fitted J/K Matrices <==

    J tasked:                   Yes
    K tasked:                   Yes
    wK tasked:                   No
    OpenMP threads:               5
    Memory [MiB]:              5679
    Algorithm:                 Core
    Schwarz Cutoff:           1E-12
    Mask sparsity (%):       0.0000
    Fitting Condition:        1E-10

   => Auxiliary Basis Set <=

  Basis Set: (CC-PVDZ AUX)
    Blend: CC-PVDZ-JKFIT
    Number of shells: 72
    Number of basis functions: 224
    Number of Cartesian functions: 260
    Spherical Harmonics?: true
    Max angular momentum: 3

  Cached 100.0% of DFT collocation blocks in 0.042 [GiB].

  Minimum eigenvalue in the overlap matrix is 8.2809620179E-03.
  Reciprocal condition number of the overlap matrix is 2.6850929406E-03.
    Using symmetric orthogonalization.

  ==> Pre-Iterations <==

  SCF Guess: Orbitals guess was supplied from a previous computation.

   -------------------------------------------------------
    Irrep   Nso     Nmo     Nalpha   Nbeta   Ndocc  Nsocc
   -------------------------------------------------------
     A1        18      18       9       8       8       1
     A2         2       2       0       0       0       0
     B1         8       8       4       3       3       1
     B2         8       8       4       3       3       1
   -------------------------------------------------------
    Total      36      36      17      14      14       3
   -------------------------------------------------------

  ==> Iterations <==

                           Total Energy        Delta E     RMS |[F,P]|

   @DF-UKS iter   0:  -815.21959249003908   -8.15220e+02   3.64735e-03 
   @DF-UKS iter   1:  -815.21400894662634    5.58354e-03   4.84684e-04 ADIIS/DIIS
   @DF-UKS iter   2:  -815.21403959377267   -3.06471e-05   3.51025e-04 ADIIS/DIIS/DAMP=1%
   @DF-UKS iter   3:  -815.21460591264702   -5.66319e-04   1.34176e-05 DIIS/DAMP=1%
   @DF-UKS iter   4:  -815.21407202409512    5.33889e-04   5.30019e-06 DIIS/DAMP=1%
   @DF-UKS iter   5:  -815.21407059666274    1.42743e-06   9.27898e-07 DIIS/DAMP=1%
   @DF-UKS iter   6:  -815.21406786390207    2.73276e-06   1.02944e-07 DIIS/DAMP=1%
   @DF-UKS iter   7:  -815.21406678805874    1.07584e-06   9.39169e-09 DIIS/DAMP=1%
   @DF-UKS iter   8:  -815.21406695905864   -1.71000e-07   9.10117e-10 DIIS/DAMP=1%
   @DF-UKS iter   9:  -815.21406694937195    9.68669e-09   1.13495e-10 DIIS/DAMP=1%
  Energy and wave function converged.


  ==> Post-Iterations <==

   Electrons on quadrature grid:
      Nalpha   =   16.9999995286 ; deviation = -4.714e-07
      Nbeta    =   13.9999995354 ; deviation = -4.646e-07
      Ntotal   =   30.9999990639 ; deviation = -9.361e-07 

   @Spin Contamination Metric:   1.109514964E-03
   @S^2 Expected:                3.750000000E+00
   @S^2 Observed:                3.751109515E+00
   @S   Expected:                1.500000000E+00
   @S   Observed:                1.500000000E+00

    Orbital Energies [Eh]
    ---------------------

    Alpha Occupied:                                                       

       1A1  -115.511187     2A1   -66.434248     3A1   -11.619136  
       4A1    -9.176708     1B1    -9.153126     1B2    -9.153126  
       5A1    -5.698769     6A1    -4.087341     2B1    -4.025068  
       2B2    -4.025068     7A1    -1.550278     8A1    -0.979345  
       3B2    -0.977335     3B1    -0.977335     9A1    -0.620048  
       4B1    -0.412734     4B2    -0.412734  

    Alpha Virtual:                                                        

      10A1    -0.203261     5B1    -0.086289     5B2    -0.086289  
      11A1    -0.049164     1A2    -0.049162    12A1     0.019657  
      13A1     0.041670     6B1     0.118630     6B2     0.118630  
      14A1     0.132058     7B1     0.312760     7B2     0.312760  
      15A1     0.468373     2A2     0.468375    16A1     0.548029  
       8B1     0.839375     8B2     0.839375    17A1     0.944325  
      18A1     1.306092  

    Beta Occupied:                                                        

       1A1  -115.507752     2A1   -66.421786     3A1   -11.615628  
       4A1    -9.172765     1B1    -9.148082     1B2    -9.148082  
       5A1    -5.684444     6A1    -4.070427     2B1    -4.004996  
       2B2    -4.004996     7A1    -1.531526     3B2    -0.955203  
       3B1    -0.955203     8A1    -0.946038  

    Beta Virtual:                                                         

       9A1    -0.428033     4B1    -0.261442     4B2    -0.261442  
      10A1    -0.174722     5B1    -0.057836     5B2    -0.057836  
      11A1     0.025934     1A2     0.025935    12A1     0.051946  
      13A1     0.075432    14A1     0.193469     6B1     0.202383  
       6B2     0.202383     7B1     0.337840     7B2     0.337840  
      15A1     0.515248     2A2     0.515250    16A1     0.560660  
       8B1     0.885111     8B2     0.885111    17A1     0.976260  
      18A1     1.334947  

    Final Occupation by Irrep:
             A1    A2    B1    B2 
    DOCC [     8,    0,    3,    3 ]
    SOCC [     1,    0,    1,    1 ]
    NA   [     9,    0,    4,    4 ]
    NB   [     8,    0,    3,    3 ]

  @DF-UKS Final Energy:  -815.21406694937195

   => Energetics <=

    Nuclear Repulsion Energy =            110.4560123176427879
    One-Electron Energy =               -1333.5192851262595468
    Two-Electron Energy =                 449.8506254962303501
    DFT Exchange-Correlation Energy =     -42.0014196369854460
    Empirical Dispersion Energy =           0.0000000000000000
    VV10 Nonlocal Energy =                  0.0000000000000000
    Total Energy =                       -815.2140669493719543

  UHF NO Occupations:
  HONO-2 :    4 B1 1.0000000
  HONO-1 :    4 B2 1.0000000
  HONO-0 :    9 A1 1.0000000
  LUNO+0 :    5 B2 0.0002291
  LUNO+1 :    5 B1 0.0002291
  LUNO+2 :   10 A1 0.0000878
  LUNO+3 :   11 A1 0.0000085


Computation Completed


Properties will be evaluated at   0.000000,   0.000000,   0.000000 [a0]

Properties computed using the SCF density matrix


 Multipole Moments:

 ------------------------------------------------------------------------------------
     Multipole            Electronic (a.u.)      Nuclear  (a.u.)        Total (a.u.)
 ------------------------------------------------------------------------------------

 L = 1.  Multiply by 2.5417464519 to convert [e a0] to [Debye]
 Dipole X            :          0.0000000            0.0000000            0.0000000
 Dipole Y            :          0.0000000            0.0000000            0.0000000
 Dipole Z            :         -2.5220916            1.8767825           -0.6453091
 Magnitude           :                                                    0.6453091

 ------------------------------------------------------------------------------------

*** tstop() called on cics-quant-001 at Tue Dec 23 11:50:51 2025
Module time:
	user time   =       0.73 seconds =       0.01 minutes
	system time =       0.05 seconds =       0.00 minutes
	total time  =          0 seconds =       0.00 minutes
Total time:
	user time   =       1.85 seconds =       0.03 minutes
	system time =       0.26 seconds =       0.00 minutes
	total time  =          1 seconds =       0.02 minutes

*** tstart() called on cics-quant-001
*** at Tue Dec 23 11:50:51 2025


         ------------------------------------------------------------
                                   SCF GRAD                          
                          Rob Parrish, Justin Turney,                
                       Andy Simmonett, and Alex Sokolov              
         ------------------------------------------------------------

  ==> Geometry <==

    Molecular point group: c2v
    Full point group: C_inf_v

    Geometry (in Angstrom), charge = 1, multiplicity = 4:

       Center              X                  Y                   Z               Mass       
    ------------   -----------------  -----------------  -----------------  -----------------
         SI           0.000000000000     0.000000000000     0.710137689465    27.976926534650
         AR           0.000000000000     0.000000000000    -0.497154283971    39.962383123700

  Nuclear repulsion =  110.456012317642788

  ==> Basis Set <==

  Basis Set: CC-PVDZ
    Blend: CC-PVDZ
    Number of shells: 16
    Number of basis functions: 36
    Number of Cartesian functions: 38
    Spherical Harmonics?: true
    Max angular momentum: 2

  ==> DFJKGrad: Density-Fitted SCF Gradients <==

    Gradient:                    1
    J tasked:                  Yes
    K tasked:                  Yes
    wK tasked:                  No
    OpenMP threads:              5
    Integrals threads:           5
    Memory [MiB]:             5722
    Schwarz Cutoff:          1E-12
    Fitting Condition:       1E-10

   => Auxiliary Basis Set <=

  Basis Set: (CC-PVDZ AUX)
    Blend: CC-PVDZ-JKFIT
    Number of shells: 72
    Number of basis functions: 224
    Number of Cartesian functions: 260
    Spherical Harmonics?: true
    Max angular momentum: 3

  ==> DFT Potential <==

   => LibXC <=

    Version 7.0.0
    S. Lehtola, C. Steigemann, M. J.T. Oliveira, and M. A.L. Marques.,  SoftwareX 7, 1–5 (2018) (10.1016/j.softx.2017.11.002)

   => Composite Functional: B3LYP <= 

    B3LYP Hyb-GGA Exchange-Correlation Functional

    P. J. Stephens, F. J. Devlin, C. F. Chabalowski, and M. J. Frisch.,  J. Phys. Chem. 98, 11623 (1994) (10.1021/j100096a001)

    Deriv               =              1
    GGA                 =           TRUE
    Meta                =          FALSE

    Exchange Hybrid     =           TRUE
    MP2 Hybrid          =          FALSE

   => Exchange Functionals <=

    0.0800   Slater exchange
    0.7200         Becke 88

   => Exact (HF) Exchange <=

    0.2000               HF 

   => Correlation Functionals <=

    0.1900   Vosko, Wilk & Nusair (VWN5_RPA)
    0.8100   Lee, Yang & Parr

   => LibXC Density Thresholds  <==

    XC_HYB_GGA_XC_B3LYP:  1.00E-15 

   => Molecular Quadrature <=

    Radial Scheme          =       TREUTLER
    Pruning Scheme         =           NONE
    Nuclear Scheme         =       TREUTLER

    Blocking Scheme        =         OCTREE
    BS radius alpha        =              1
    Pruning alpha          =              1
    Radial Points          =             75
    Spherical Points       =            302
    Total Points           =          41466
    Total Blocks           =            389
    Max Points             =            250
    Max Functions          =             36
    Weights Tolerance      =       1.00E-15


  -Total Gradient:
     Atom            X                  Y                   Z
    ------   -----------------  -----------------  -----------------
       1        0.000000000000     0.000000000000    -2.913088448294
       2        0.000000000000     0.000000000000     2.913065485273


*** tstop() called on cics-quant-001 at Tue Dec 23 11:50:51 2025
Module time:
	user time   =       0.26 seconds =       0.00 minutes
	system time =       0.11 seconds =       0.00 minutes
	total time  =          0 seconds =       0.00 minutes
Total time:
	user time   =       2.12 seconds =       0.04 minutes
	system time =       0.37 seconds =       0.01 minutes
	total time  =          1 seconds =       0.02 minutes

    			-----------------------------------------

    			 OPTKING 3.0: for geometry optimizations 

    			     By R.A. King, Bethel University     

    			        with contributions from          

    			    A.V. Copan, J. Cayton, A. Heide      

    			-----------------------------------------

    
	                            ===> Fragment 1 <== 

	 Z (Atomic Numbers)          Masses                          Geom                  
	      14.000000            27.976927          0.00000000  0.00000000  1.34196574   
	      18.000000            39.962383          0.00000000  0.00000000 -0.93948544   

	 - Coordinate -           - BOHR/RAD -       - ANG/DEG -
	 R(1,2)           =         2.281451           1.207292


	        --- Internal Coordinate Step in ANG or DEG, aJ/ANG or AJ/DEG ---
	-------------------------------------------------------------------------------
	           Coordinate      Previous         Force          Change          New 
	           ----------      --------        ------          ------        ------
	               R(1,2)       1.20729       24.00004        0.01414       1.22144
	-------------------------------------------------------------------------------

	                                 ==> Convergence Check <==                                  
    
	Measures of convergence in internal coordinates in au.
    
	Criteria marked as inactive (o), active & met (*), and active & unmet ( ).

	----------------------------------------------------------------------------------------------
	   Step    Total Energy     Delta E     Max Force     RMS Force      Max Disp      RMS Disp   
	----------------------------------------------------------------------------------------------
	  Convergence Criteria     1.00e-06 *    3.00e-04 *             o    1.20e-03 *             o
	----------------------------------------------------------------------------------------------
	     2    -815.21406695   -4.08e-02      2.91e+00      2.91e+00 o    2.67e-02      2.67e-02 o  ~
	----------------------------------------------------------------------------------------------

Next Geometry in Ang 
	Fragment 1 (Ang)

	   Si   0.0000000000   0.0000000000   0.7172096674
	   Ar   0.0000000000   0.0000000000  -0.5042262619


    Structure for next step:
    Molecular point group: c2v
    Full point group: C_inf_v

    Geometry (in Angstrom), charge = 1, multiplicity = 4:

    SI           0.000000000000     0.000000000000     0.718457264461
    AR           0.000000000000     0.000000000000    -0.502978664808


Scratch directory: /tmp/
gradient() will perform analytic gradient computation.
   => Libint2 <=

    Primary   basis highest AM E, G, H:  6, 6, 3
    Auxiliary basis highest AM E, G, H:  7, 7, 4
    Onebody   basis highest AM E, G, H:  -, -, -
    Solid Harmonics ordering:            Gaussian

*** tstart() called on cics-quant-001
*** at Tue Dec 23 11:50:51 2025

   => Loading Basis Set <=

    Name: CC-PVDZ
    Role: ORBITAL
    Keyword: BASIS
    atoms 1 entry SI         line   478 file /home/jrodriguesro/psi4conda/share/psi4/basis/cc-pvdz.gbs 
    atoms 2 entry AR         line   718 file /home/jrodriguesro/psi4conda/share/psi4/basis/cc-pvdz.gbs 


         ---------------------------------------------------------
                                   SCF
               by Justin Turney, Rob Parrish, Andy Simmonett
                          and Daniel G. A. Smith
                              UKS Reference
                        5 Threads,   7629 MiB Core
         ---------------------------------------------------------

  ==> Geometry <==

    Molecular point group: c2v
    Full point group: C_inf_v

    Geometry (in Angstrom), charge = 1, multiplicity = 4:

       Center              X                  Y                   Z               Mass       
    ------------   -----------------  -----------------  -----------------  -----------------
         SI           0.000000000000     0.000000000000     0.718457264461    27.976926534650
         AR           0.000000000000     0.000000000000    -0.502978664808    39.962383123700

  Running in c2v symmetry.

  Rotational constants: A = ************  B =      0.68663  C =      0.68663 [cm^-1]
  Rotational constants: A = ************  B =  20584.74852  C =  20584.74852 [MHz]
  Nuclear repulsion =  109.176956312946871

  Charge       = 1
  Multiplicity = 4
  Electrons    = 31
  Nalpha       = 17
  Nbeta        = 14

  ==> Algorithm <==

  SCF Algorithm Type is DF.
  DIIS enabled.
  MOM disabled.
  Fractional occupation disabled.
  Guess Type is READ.
  Energy threshold   = 1.00e-08
  Density threshold  = 1.00e-08
  Integral threshold = 1.00e-12

  ==> Primary Basis <==

  Basis Set: CC-PVDZ
    Blend: CC-PVDZ
    Number of shells: 16
    Number of basis functions: 36
    Number of Cartesian functions: 38
    Spherical Harmonics?: true
    Max angular momentum: 2

  ==> DFT Potential <==

   => LibXC <=

    Version 7.0.0
    S. Lehtola, C. Steigemann, M. J.T. Oliveira, and M. A.L. Marques.,  SoftwareX 7, 1–5 (2018) (10.1016/j.softx.2017.11.002)

   => Composite Functional: B3LYP <= 

    B3LYP Hyb-GGA Exchange-Correlation Functional

    P. J. Stephens, F. J. Devlin, C. F. Chabalowski, and M. J. Frisch.,  J. Phys. Chem. 98, 11623 (1994) (10.1021/j100096a001)

    Deriv               =              1
    GGA                 =           TRUE
    Meta                =          FALSE

    Exchange Hybrid     =           TRUE
    MP2 Hybrid          =          FALSE

   => Exchange Functionals <=

    0.0800   Slater exchange
    0.7200         Becke 88

   => Exact (HF) Exchange <=

    0.2000               HF 

   => Correlation Functionals <=

    0.1900   Vosko, Wilk & Nusair (VWN5_RPA)
    0.8100   Lee, Yang & Parr

   => LibXC Density Thresholds  <==

    XC_HYB_GGA_XC_B3LYP:  1.00E-15 

   => Molecular Quadrature <=

    Radial Scheme          =       TREUTLER
    Pruning Scheme         =           NONE
    Nuclear Scheme         =       TREUTLER

    Blocking Scheme        =         OCTREE
    BS radius alpha        =              1
    Pruning alpha          =              1
    Radial Points          =             75
    Spherical Points       =            302
    Total Points           =          41466
    Total Blocks           =            389
    Max Points             =            248
    Max Functions          =             36
    Weights Tolerance      =       1.00E-15

   => Loading Basis Set <=

    Name: (CC-PVDZ AUX)
    Role: JKFIT
    Keyword: DF_BASIS_SCF
    atoms 1 entry SI         line   445 file /home/jrodriguesro/psi4conda/share/psi4/basis/cc-pvdz-jkfit.gbs 
    atoms 2 entry AR         line   741 file /home/jrodriguesro/psi4conda/share/psi4/basis/cc-pvdz-jkfit.gbs 

   => Loading Basis Set <=

    Name: CC-PVDZ
    Role: ORBITAL
    Keyword: BASIS
    atoms 1 entry SI         line   478 file /home/jrodriguesro/psi4conda/share/psi4/basis/cc-pvdz.gbs 
    atoms 2 entry AR         line   718 file /home/jrodriguesro/psi4conda/share/psi4/basis/cc-pvdz.gbs 

  Reading orbitals from file /tmp/quartet_SiAr.default.423046.180.npy, no projection.

  ==> Integral Setup <==

  DFHelper Memory: AOs need 0.003 GiB; user supplied 5.546 GiB. 
  SCF_SUBTYPE=INCORE selected. In-core MEM_DF algorithm will be used.
  Using in-core AOs.

  ==> MemDFJK: Density-Fitted J/K Matrices <==

    J tasked:                   Yes
    K tasked:                   Yes
    wK tasked:                   No
    OpenMP threads:               5
    Memory [MiB]:              5679
    Algorithm:                 Core
    Schwarz Cutoff:           1E-12
    Mask sparsity (%):       0.0000
    Fitting Condition:        1E-10

   => Auxiliary Basis Set <=

  Basis Set: (CC-PVDZ AUX)
    Blend: CC-PVDZ-JKFIT
    Number of shells: 72
    Number of basis functions: 224
    Number of Cartesian functions: 260
    Spherical Harmonics?: true
    Max angular momentum: 3

  Cached 100.0% of DFT collocation blocks in 0.042 [GiB].

  Minimum eigenvalue in the overlap matrix is 8.6207726458E-03.
  Reciprocal condition number of the overlap matrix is 2.7965113112E-03.
    Using symmetric orthogonalization.

  ==> Pre-Iterations <==

  SCF Guess: Orbitals guess was supplied from a previous computation.

   -------------------------------------------------------
    Irrep   Nso     Nmo     Nalpha   Nbeta   Ndocc  Nsocc
   -------------------------------------------------------
     A1        18      18       9       8       8       1
     A2         2       2       0       0       0       0
     B1         8       8       4       3       3       1
     B2         8       8       4       3       3       1
   -------------------------------------------------------
    Total      36      36      17      14      14       3
   -------------------------------------------------------

  ==> Iterations <==

                           Total Energy        Delta E     RMS |[F,P]|

   @DF-UKS iter   0:  -815.30068040879087   -8.15301e+02   6.88407e-03 
   @DF-UKS iter   1:  -815.28948474354354    1.11957e-02   9.17897e-04 ADIIS/DIIS
   @DF-UKS iter   2:  -815.28959520662420   -1.10463e-04   6.60582e-04 ADIIS/DIIS/DAMP=1%
   @DF-UKS iter   3:  -815.29069947090363   -1.10426e-03   2.51041e-05 DIIS/DAMP=1%
   @DF-UKS iter   4:  -815.28970154913145    9.97922e-04   9.81458e-06 DIIS/DAMP=1%
   @DF-UKS iter   5:  -815.28969909200453    2.45713e-06   1.76561e-06 DIIS/DAMP=1%
   @DF-UKS iter   6:  -815.28969396669720    5.12531e-06   1.99237e-07 DIIS/DAMP=1%
   @DF-UKS iter   7:  -815.28969198652544    1.98017e-06   1.82762e-08 DIIS/DAMP=1%
   @DF-UKS iter   8:  -815.28969231741075   -3.30885e-07   1.78399e-09 DIIS/DAMP=1%
   @DF-UKS iter   9:  -815.28969229814891    1.92618e-08   2.26976e-10 DIIS/DAMP=1%
   @DF-UKS iter  10:  -815.28969229785707    2.91834e-10   2.30178e-11 DIIS/DAMP=1%
  Energy and wave function converged.


  ==> Post-Iterations <==

   Electrons on quadrature grid:
      Nalpha   =   16.9999996772 ; deviation = -3.228e-07
      Nbeta    =   13.9999996849 ; deviation = -3.151e-07
      Ntotal   =   30.9999993621 ; deviation = -6.379e-07 

   @Spin Contamination Metric:   1.104117406E-03
   @S^2 Expected:                3.750000000E+00
   @S^2 Observed:                3.751104117E+00
   @S   Expected:                1.500000000E+00
   @S   Observed:                1.500000000E+00

    Orbital Energies [Eh]
    ---------------------

    Alpha Occupied:                                                       

       1A1  -115.508886     2A1   -66.432339     3A1   -11.613757  
       4A1    -9.170852     1B1    -9.148655     1B2    -9.148655  
       5A1    -5.690841     6A1    -4.078172     2B1    -4.019478  
       2B2    -4.019478     7A1    -1.548585     8A1    -0.981003  
       3B2    -0.971412     3B1    -0.971412     9A1    -0.620822  
       4B2    -0.413695     4B1    -0.413695  

    Alpha Virtual:                                                        

      10A1    -0.203050     5B2    -0.083738     5B1    -0.083738  
      11A1    -0.045038     1A2    -0.045037    12A1     0.018796  
      13A1     0.041074     6B2     0.118255     6B1     0.118255  
      14A1     0.128768     7B1     0.311788     7B2     0.311788  
      15A1     0.467766     2A2     0.467768    16A1     0.547423  
       8B1     0.836984     8B2     0.836984    17A1     0.933520  
      18A1     1.301225  

    Beta Occupied:                                                        

       1A1  -115.505507     2A1   -66.419847     3A1   -11.610312  
       4A1    -9.166987     1B1    -9.143675     1B2    -9.143675  
       5A1    -5.676374     6A1    -4.061497     2B1    -3.999303  
       2B2    -3.999303     7A1    -1.530094     3B2    -0.949336  
       3B1    -0.949336     8A1    -0.947992  

    Beta Virtual:                                                         

       9A1    -0.428628     4B2    -0.262284     4B1    -0.262284  
      10A1    -0.174298     5B2    -0.054940     5B1    -0.054940  
      11A1     0.031156     1A2     0.031157    12A1     0.049908  
      13A1     0.075339    14A1     0.190372     6B2     0.202118  
       6B1     0.202118     7B1     0.336324     7B2     0.336324  
      15A1     0.513872     2A2     0.513874    16A1     0.560145  
       8B1     0.882557     8B2     0.882557    17A1     0.965455  
      18A1     1.329993  

    Final Occupation by Irrep:
             A1    A2    B1    B2 
    DOCC [     8,    0,    3,    3 ]
    SOCC [     1,    0,    1,    1 ]
    NA   [     9,    0,    4,    4 ]
    NB   [     8,    0,    3,    3 ]

  @DF-UKS Final Energy:  -815.28969229785707

   => Energetics <=

    Nuclear Repulsion Energy =            109.1769563129468708
    One-Electron Energy =               -1331.2492419752331898
    Two-Electron Energy =                 448.7673525692256362
    DFT Exchange-Correlation Energy =     -41.9847592047964611
    Empirical Dispersion Energy =           0.0000000000000000
    VV10 Nonlocal Energy =                  0.0000000000000000
    Total Energy =                       -815.2896922978570728

  UHF NO Occupations:
  HONO-2 :    4 B1 1.0000000
  HONO-1 :    9 A1 1.0000000
  HONO-0 :    4 B2 1.0000000
  LUNO+0 :    5 B1 0.0002277
  LUNO+1 :    5 B2 0.0002277
  LUNO+2 :   10 A1 0.0000880
  LUNO+3 :   11 A1 0.0000084


Computation Completed


Properties will be evaluated at   0.000000,   0.000000,   0.000000 [a0]

Properties computed using the SCF density matrix


 Multipole Moments:

 ------------------------------------------------------------------------------------
     Multipole            Electronic (a.u.)      Nuclear  (a.u.)        Total (a.u.)
 ------------------------------------------------------------------------------------

 L = 1.  Multiply by 2.5417464519 to convert [e a0] to [Debye]
 Dipole X            :          0.0000000            0.0000000            0.0000000
 Dipole Y            :          0.0000000            0.0000000            0.0000000
 Dipole Z            :         -2.5277095            1.8987699           -0.6289396
 Magnitude           :                                                    0.6289396

 ------------------------------------------------------------------------------------

*** tstop() called on cics-quant-001 at Tue Dec 23 11:50:52 2025
Module time:
	user time   =       0.73 seconds =       0.01 minutes
	system time =       0.05 seconds =       0.00 minutes
	total time  =          1 seconds =       0.02 minutes
Total time:
	user time   =       2.87 seconds =       0.05 minutes
	system time =       0.42 seconds =       0.01 minutes
	total time  =          2 seconds =       0.03 minutes

*** tstart() called on cics-quant-001
*** at Tue Dec 23 11:50:52 2025


         ------------------------------------------------------------
                                   SCF GRAD                          
                          Rob Parrish, Justin Turney,                
                       Andy Simmonett, and Alex Sokolov              
         ------------------------------------------------------------

  ==> Geometry <==

    Molecular point group: c2v
    Full point group: C_inf_v

    Geometry (in Angstrom), charge = 1, multiplicity = 4:

       Center              X                  Y                   Z               Mass       
    ------------   -----------------  -----------------  -----------------  -----------------
         SI           0.000000000000     0.000000000000     0.718457264461    27.976926534650
         AR           0.000000000000     0.000000000000    -0.502978664808    39.962383123700

  Nuclear repulsion =  109.176956312946871

  ==> Basis Set <==

  Basis Set: CC-PVDZ
    Blend: CC-PVDZ
    Number of shells: 16
    Number of basis functions: 36
    Number of Cartesian functions: 38
    Spherical Harmonics?: true
    Max angular momentum: 2

  ==> DFJKGrad: Density-Fitted SCF Gradients <==

    Gradient:                    1
    J tasked:                  Yes
    K tasked:                  Yes
    wK tasked:                  No
    OpenMP threads:              5
    Integrals threads:           5
    Memory [MiB]:             5722
    Schwarz Cutoff:          1E-12
    Fitting Condition:       1E-10

   => Auxiliary Basis Set <=

  Basis Set: (CC-PVDZ AUX)
    Blend: CC-PVDZ-JKFIT
    Number of shells: 72
    Number of basis functions: 224
    Number of Cartesian functions: 260
    Spherical Harmonics?: true
    Max angular momentum: 3

  ==> DFT Potential <==

   => LibXC <=

    Version 7.0.0
    S. Lehtola, C. Steigemann, M. J.T. Oliveira, and M. A.L. Marques.,  SoftwareX 7, 1–5 (2018) (10.1016/j.softx.2017.11.002)

   => Composite Functional: B3LYP <= 

    B3LYP Hyb-GGA Exchange-Correlation Functional

    P. J. Stephens, F. J. Devlin, C. F. Chabalowski, and M. J. Frisch.,  J. Phys. Chem. 98, 11623 (1994) (10.1021/j100096a001)

    Deriv               =              1
    GGA                 =           TRUE
    Meta                =          FALSE

    Exchange Hybrid     =           TRUE
    MP2 Hybrid          =          FALSE

   => Exchange Functionals <=

    0.0800   Slater exchange
    0.7200         Becke 88

   => Exact (HF) Exchange <=

    0.2000               HF 

   => Correlation Functionals <=

    0.1900   Vosko, Wilk & Nusair (VWN5_RPA)
    0.8100   Lee, Yang & Parr

   => LibXC Density Thresholds  <==

    XC_HYB_GGA_XC_B3LYP:  1.00E-15 

   => Molecular Quadrature <=

    Radial Scheme          =       TREUTLER
    Pruning Scheme         =           NONE
    Nuclear Scheme         =       TREUTLER

    Blocking Scheme        =         OCTREE
    BS radius alpha        =              1
    Pruning alpha          =              1
    Radial Points          =             75
    Spherical Points       =            302
    Total Points           =          41466
    Total Blocks           =            389
    Max Points             =            248
    Max Functions          =             36
    Weights Tolerance      =       1.00E-15


  -Total Gradient:
     Atom            X                  Y                   Z
    ------   -----------------  -----------------  -----------------
       1       -0.000000000000     0.000000000000    -2.747246299998
       2        0.000000000000    -0.000000000000     2.747223736205


*** tstop() called on cics-quant-001 at Tue Dec 23 11:50:52 2025
Module time:
	user time   =       0.27 seconds =       0.00 minutes
	system time =       0.10 seconds =       0.00 minutes
	total time  =          0 seconds =       0.00 minutes
Total time:
	user time   =       3.14 seconds =       0.05 minutes
	system time =       0.52 seconds =       0.01 minutes
	total time  =          2 seconds =       0.03 minutes

    			-----------------------------------------

    			 OPTKING 3.0: for geometry optimizations 

    			     By R.A. King, Bethel University     

    			        with contributions from          

    			    A.V. Copan, J. Cayton, A. Heide      

    			-----------------------------------------

    
	                            ===> Fragment 1 <== 

	 Z (Atomic Numbers)          Masses                          Geom                  
	      14.000000            27.976927          0.00000000  0.00000000  1.35768746   
	      18.000000            39.962383          0.00000000  0.00000000 -0.95049192   

	 - Coordinate -           - BOHR/RAD -       - ANG/DEG -
	 R(1,2)           =         2.308179           1.221436


	        --- Internal Coordinate Step in ANG or DEG, aJ/ANG or AJ/DEG ---
	-------------------------------------------------------------------------------
	           Coordinate      Previous         Force          Change          New 
	           ----------      --------        ------          ------        ------
	               R(1,2)       1.22144       22.63371        0.05286       1.27430
	-------------------------------------------------------------------------------

	                                 ==> Convergence Check <==                                  
    
	Measures of convergence in internal coordinates in au.
    
	Criteria marked as inactive (o), active & met (*), and active & unmet ( ).

	----------------------------------------------------------------------------------------------
	   Step    Total Energy     Delta E     Max Force     RMS Force      Max Disp      RMS Disp   
	----------------------------------------------------------------------------------------------
	  Convergence Criteria     1.00e-06 *    3.00e-04 *             o    1.20e-03 *             o
	----------------------------------------------------------------------------------------------
	     3    -815.28969230   -7.56e-02      2.75e+00      2.75e+00 o    9.99e-02      9.99e-02 o  ~
	----------------------------------------------------------------------------------------------

Next Geometry in Ang 
	Fragment 1 (Ang)

	   Si   0.0000000000   0.0000000000   0.7448874260
	   Ar   0.0000000000   0.0000000000  -0.5294088263


    Structure for next step:
    Molecular point group: c2v
    Full point group: C_inf_v

    Geometry (in Angstrom), charge = 1, multiplicity = 4:

    SI           0.000000000000     0.000000000000     0.749550080827
    AR           0.000000000000     0.000000000000    -0.524746171429


Scratch directory: /tmp/
gradient() will perform analytic gradient computation.
   => Libint2 <=

    Primary   basis highest AM E, G, H:  6, 6, 3
    Auxiliary basis highest AM E, G, H:  7, 7, 4
    Onebody   basis highest AM E, G, H:  -, -, -
    Solid Harmonics ordering:            Gaussian

*** tstart() called on cics-quant-001
*** at Tue Dec 23 11:50:52 2025

   => Loading Basis Set <=

    Name: CC-PVDZ
    Role: ORBITAL
    Keyword: BASIS
    atoms 1 entry SI         line   478 file /home/jrodriguesro/psi4conda/share/psi4/basis/cc-pvdz.gbs 
    atoms 2 entry AR         line   718 file /home/jrodriguesro/psi4conda/share/psi4/basis/cc-pvdz.gbs 


         ---------------------------------------------------------
                                   SCF
               by Justin Turney, Rob Parrish, Andy Simmonett
                          and Daniel G. A. Smith
                              UKS Reference
                        5 Threads,   7629 MiB Core
         ---------------------------------------------------------

  ==> Geometry <==

    Molecular point group: c2v
    Full point group: C_inf_v

    Geometry (in Angstrom), charge = 1, multiplicity = 4:

       Center              X                  Y                   Z               Mass       
    ------------   -----------------  -----------------  -----------------  -----------------
         SI           0.000000000000     0.000000000000     0.749550080827    27.976926534650
         AR           0.000000000000     0.000000000000    -0.524746171429    39.962383123700

  Running in c2v symmetry.

  Rotational constants: A = ************  B =      0.63085  C =      0.63085 [cm^-1]
  Rotational constants: A = ************  B =  18912.37784  C =  18912.37784 [MHz]
  Nuclear repulsion =  104.648080736938411

  Charge       = 1
  Multiplicity = 4
  Electrons    = 31
  Nalpha       = 17
  Nbeta        = 14

  ==> Algorithm <==

  SCF Algorithm Type is DF.
  DIIS enabled.
  MOM disabled.
  Fractional occupation disabled.
  Guess Type is READ.
  Energy threshold   = 1.00e-08
  Density threshold  = 1.00e-08
  Integral threshold = 1.00e-12

  ==> Primary Basis <==

  Basis Set: CC-PVDZ
    Blend: CC-PVDZ
    Number of shells: 16
    Number of basis functions: 36
    Number of Cartesian functions: 38
    Spherical Harmonics?: true
    Max angular momentum: 2

  ==> DFT Potential <==

   => LibXC <=

    Version 7.0.0
    S. Lehtola, C. Steigemann, M. J.T. Oliveira, and M. A.L. Marques.,  SoftwareX 7, 1–5 (2018) (10.1016/j.softx.2017.11.002)

   => Composite Functional: B3LYP <= 

    B3LYP Hyb-GGA Exchange-Correlation Functional

    P. J. Stephens, F. J. Devlin, C. F. Chabalowski, and M. J. Frisch.,  J. Phys. Chem. 98, 11623 (1994) (10.1021/j100096a001)

    Deriv               =              1
    GGA                 =           TRUE
    Meta                =          FALSE

    Exchange Hybrid     =           TRUE
    MP2 Hybrid          =          FALSE

   => Exchange Functionals <=

    0.0800   Slater exchange
    0.7200         Becke 88

   => Exact (HF) Exchange <=

    0.2000               HF 

   => Correlation Functionals <=

    0.1900   Vosko, Wilk & Nusair (VWN5_RPA)
    0.8100   Lee, Yang & Parr

   => LibXC Density Thresholds  <==

    XC_HYB_GGA_XC_B3LYP:  1.00E-15 

   => Molecular Quadrature <=

    Radial Scheme          =       TREUTLER
    Pruning Scheme         =           NONE
    Nuclear Scheme         =       TREUTLER

    Blocking Scheme        =         OCTREE
    BS radius alpha        =              1
    Pruning alpha          =              1
    Radial Points          =             75
    Spherical Points       =            302
    Total Points           =          41474
    Total Blocks           =            388
    Max Points             =            251
    Max Functions          =             36
    Weights Tolerance      =       1.00E-15

   => Loading Basis Set <=

    Name: (CC-PVDZ AUX)
    Role: JKFIT
    Keyword: DF_BASIS_SCF
    atoms 1 entry SI         line   445 file /home/jrodriguesro/psi4conda/share/psi4/basis/cc-pvdz-jkfit.gbs 
    atoms 2 entry AR         line   741 file /home/jrodriguesro/psi4conda/share/psi4/basis/cc-pvdz-jkfit.gbs 

   => Loading Basis Set <=

    Name: CC-PVDZ
    Role: ORBITAL
    Keyword: BASIS
    atoms 1 entry SI         line   478 file /home/jrodriguesro/psi4conda/share/psi4/basis/cc-pvdz.gbs 
    atoms 2 entry AR         line   718 file /home/jrodriguesro/psi4conda/share/psi4/basis/cc-pvdz.gbs 

  Reading orbitals from file /tmp/quartet_SiAr.default.423046.180.npy, no projection.

  ==> Integral Setup <==

  DFHelper Memory: AOs need 0.003 GiB; user supplied 5.546 GiB. 
  SCF_SUBTYPE=INCORE selected. In-core MEM_DF algorithm will be used.
  Using in-core AOs.

  ==> MemDFJK: Density-Fitted J/K Matrices <==

    J tasked:                   Yes
    K tasked:                   Yes
    wK tasked:                   No
    OpenMP threads:               5
    Memory [MiB]:              5679
    Algorithm:                 Core
    Schwarz Cutoff:           1E-12
    Mask sparsity (%):       0.0000
    Fitting Condition:        1E-10

   => Auxiliary Basis Set <=

  Basis Set: (CC-PVDZ AUX)
    Blend: CC-PVDZ-JKFIT
    Number of shells: 72
    Number of basis functions: 224
    Number of Cartesian functions: 260
    Spherical Harmonics?: true
    Max angular momentum: 3

  Cached 100.0% of DFT collocation blocks in 0.042 [GiB].

  Minimum eigenvalue in the overlap matrix is 9.9641710117E-03.
  Reciprocal condition number of the overlap matrix is 3.2387212154E-03.
    Using symmetric orthogonalization.

  ==> Pre-Iterations <==

  SCF Guess: Orbitals guess was supplied from a previous computation.

   -------------------------------------------------------
    Irrep   Nso     Nmo     Nalpha   Nbeta   Ndocc  Nsocc
   -------------------------------------------------------
     A1        18      18       9       8       8       1
     A2         2       2       0       0       0       0
     B1         8       8       4       3       3       1
     B2         8       8       4       3       3       1
   -------------------------------------------------------
    Total      36      36      17      14      14       3
   -------------------------------------------------------

  ==> Iterations <==

                           Total Energy        Delta E     RMS |[F,P]|

   @DF-UKS iter   0:  -815.58285299317356   -8.15583e+02   2.37581e-02 
   @DF-UKS iter   1:  -815.53346861213936    4.93844e-02   3.19209e-03 ADIIS/DIIS
   @DF-UKS iter   2:  -815.53483301099891   -1.36440e-03   2.24640e-03 ADIIS/DIIS/DAMP=1%
   @DF-UKS iter   3:  -815.53929598424577   -4.46297e-03   8.51362e-05 DIIS/DAMP=1%
   @DF-UKS iter   4:  -815.53599902161136    3.29696e-03   3.14199e-05 DIIS/DAMP=1%
   @DF-UKS iter   5:  -815.53598849522643    1.05264e-05   6.45521e-06 DIIS/DAMP=1%
   @DF-UKS iter   6:  -815.53597067973215    1.78155e-05   7.45535e-07 DIIS/DAMP=1%
   @DF-UKS iter   7:  -815.53596464679595    6.03294e-06   6.84331e-08 DIIS/DAMP=1%
   @DF-UKS iter   8:  -815.53596587073730   -1.22394e-06   6.89128e-09 DIIS/DAMP=1%
   @DF-UKS iter   9:  -815.53596579431144    7.64259e-08   9.20451e-10 DIIS/DAMP=1%
   @DF-UKS iter  10:  -815.53596579522173   -9.10291e-10   8.80342e-11 DIIS/DAMP=1%
  Energy and wave function converged.


  ==> Post-Iterations <==

   Electrons on quadrature grid:
      Nalpha   =   17.0000004674 ; deviation = 4.674e-07
      Nbeta    =   14.0000004748 ; deviation = 4.748e-07
      Ntotal   =   31.0000009421 ; deviation = 9.421e-07 

   @Spin Contamination Metric:   1.072593336E-03
   @S^2 Expected:                3.750000000E+00
   @S^2 Observed:                3.751072593E+00
   @S   Expected:                1.500000000E+00
   @S   Observed:                1.500000000E+00

    Orbital Energies [Eh]
    ---------------------

    Alpha Occupied:                                                       

       1A1  -115.503596     2A1   -66.429076     3A1   -11.597573  
       4A1    -9.153276     1B1    -9.135356     1B2    -9.135356  
       5A1    -5.667090     6A1    -4.049820     2B2    -4.002980  
       2B1    -4.002980     7A1    -1.540434     8A1    -0.985071  
       3B1    -0.950674     3B2    -0.950674     9A1    -0.623488  
       4B1    -0.417379     4B2    -0.417379  

    Alpha Virtual:                                                        

      10A1    -0.202051     5B1    -0.074186     5B2    -0.074186  
      11A1    -0.030635     1A2    -0.030635    12A1     0.013860  
      13A1     0.040617     6B1     0.116373     6B2     0.116373  
      14A1     0.117464     7B2     0.308418     7B1     0.308418  
      15A1     0.465566     2A2     0.465567    16A1     0.547058  
       8B2     0.825824     8B1     0.825824    17A1     0.893240  
      18A1     1.288992  

    Beta Occupied:                                                        

       1A1  -115.500409     2A1   -66.416476     3A1   -11.594343  
       4A1    -9.149656     1B1    -9.130610     1B2    -9.130610  
       5A1    -5.652147     6A1    -4.033932     2B2    -3.982465  
       2B1    -3.982465     7A1    -1.522799     8A1    -0.953073  
       3B1    -0.928918     3B2    -0.928918  

    Beta Virtual:                                                         

       9A1    -0.430778     4B1    -0.265431     4B2    -0.265431  
      10A1    -0.172457     5B2    -0.044052     5B1    -0.044052  
      11A1     0.042220    12A1     0.049646     1A2     0.049647  
      13A1     0.075426    14A1     0.179274     6B1     0.200438  
       6B2     0.200438     7B2     0.330969     7B1     0.330969  
      15A1     0.508715     2A2     0.508716    16A1     0.560335  
       8B2     0.870651     8B1     0.870651    17A1     0.925461  
      18A1     1.316989  

    Final Occupation by Irrep:
             A1    A2    B1    B2 
    DOCC [     8,    0,    3,    3 ]
    SOCC [     1,    0,    1,    1 ]
    NA   [     9,    0,    4,    4 ]
    NB   [     8,    0,    3,    3 ]

  @DF-UKS Final Energy:  -815.53596579522173

   => Energetics <=

    Nuclear Repulsion Energy =            104.6480807369384110
    One-Electron Energy =               -1323.1105901433545569
    Two-Electron Energy =                 444.8513481526084661
    DFT Exchange-Correlation Energy =     -41.9248045414140833
    Empirical Dispersion Energy =           0.0000000000000000
    VV10 Nonlocal Energy =                  0.0000000000000000
    Total Energy =                       -815.5359657952217276

  UHF NO Occupations:
  HONO-2 :    4 B2 1.0000000
  HONO-1 :    9 A1 1.0000000
  HONO-0 :    4 B1 1.0000000
  LUNO+0 :    5 B1 0.0002187
  LUNO+1 :    5 B2 0.0002187
  LUNO+2 :   10 A1 0.0000907
  LUNO+3 :   11 A1 0.0000078


Computation Completed


Properties will be evaluated at   0.000000,   0.000000,   0.000000 [a0]

Properties computed using the SCF density matrix


 Multipole Moments:

 ------------------------------------------------------------------------------------
     Multipole            Electronic (a.u.)      Nuclear  (a.u.)        Total (a.u.)
 ------------------------------------------------------------------------------------

 L = 1.  Multiply by 2.5417464519 to convert [e a0] to [Debye]
 Dipole X            :          0.0000000            0.0000000            0.0000000
 Dipole Y            :          0.0000000            0.0000000            0.0000000
 Dipole Z            :         -2.5487210            1.9809433           -0.5677777
 Magnitude           :                                                    0.5677777

 ------------------------------------------------------------------------------------

*** tstop() called on cics-quant-001 at Tue Dec 23 11:50:52 2025
Module time:
	user time   =       0.77 seconds =       0.01 minutes
	system time =       0.08 seconds =       0.00 minutes
	total time  =          0 seconds =       0.00 minutes
Total time:
	user time   =       3.93 seconds =       0.07 minutes
	system time =       0.60 seconds =       0.01 minutes
	total time  =          2 seconds =       0.03 minutes

*** tstart() called on cics-quant-001
*** at Tue Dec 23 11:50:52 2025


         ------------------------------------------------------------
                                   SCF GRAD                          
                          Rob Parrish, Justin Turney,                
                       Andy Simmonett, and Alex Sokolov              
         ------------------------------------------------------------

  ==> Geometry <==

    Molecular point group: c2v
    Full point group: C_inf_v

    Geometry (in Angstrom), charge = 1, multiplicity = 4:

       Center              X                  Y                   Z               Mass       
    ------------   -----------------  -----------------  -----------------  -----------------
         SI           0.000000000000     0.000000000000     0.749550080827    27.976926534650
         AR           0.000000000000     0.000000000000    -0.524746171429    39.962383123700

  Nuclear repulsion =  104.648080736938411

  ==> Basis Set <==

  Basis Set: CC-PVDZ
    Blend: CC-PVDZ
    Number of shells: 16
    Number of basis functions: 36
    Number of Cartesian functions: 38
    Spherical Harmonics?: true
    Max angular momentum: 2

  ==> DFJKGrad: Density-Fitted SCF Gradients <==

    Gradient:                    1
    J tasked:                  Yes
    K tasked:                  Yes
    wK tasked:                  No
    OpenMP threads:              5
    Integrals threads:           5
    Memory [MiB]:             5722
    Schwarz Cutoff:          1E-12
    Fitting Condition:       1E-10

   => Auxiliary Basis Set <=

  Basis Set: (CC-PVDZ AUX)
    Blend: CC-PVDZ-JKFIT
    Number of shells: 72
    Number of basis functions: 224
    Number of Cartesian functions: 260
    Spherical Harmonics?: true
    Max angular momentum: 3

  ==> DFT Potential <==

   => LibXC <=

    Version 7.0.0
    S. Lehtola, C. Steigemann, M. J.T. Oliveira, and M. A.L. Marques.,  SoftwareX 7, 1–5 (2018) (10.1016/j.softx.2017.11.002)

   => Composite Functional: B3LYP <= 

    B3LYP Hyb-GGA Exchange-Correlation Functional

    P. J. Stephens, F. J. Devlin, C. F. Chabalowski, and M. J. Frisch.,  J. Phys. Chem. 98, 11623 (1994) (10.1021/j100096a001)

    Deriv               =              1
    GGA                 =           TRUE
    Meta                =          FALSE

    Exchange Hybrid     =           TRUE
    MP2 Hybrid          =          FALSE

   => Exchange Functionals <=

    0.0800   Slater exchange
    0.7200         Becke 88

   => Exact (HF) Exchange <=

    0.2000               HF 

   => Correlation Functionals <=

    0.1900   Vosko, Wilk & Nusair (VWN5_RPA)
    0.8100   Lee, Yang & Parr

   => LibXC Density Thresholds  <==

    XC_HYB_GGA_XC_B3LYP:  1.00E-15 

   => Molecular Quadrature <=

    Radial Scheme          =       TREUTLER
    Pruning Scheme         =           NONE
    Nuclear Scheme         =       TREUTLER

    Blocking Scheme        =         OCTREE
    BS radius alpha        =              1
    Pruning alpha          =              1
    Radial Points          =             75
    Spherical Points       =            302
    Total Points           =          41474
    Total Blocks           =            388
    Max Points             =            251
    Max Functions          =             36
    Weights Tolerance      =       1.00E-15


  -Total Gradient:
     Atom            X                  Y                   Z
    ------   -----------------  -----------------  -----------------
       1        0.000000000000     0.000000000000    -2.202518378019
       2        0.000000000000     0.000000000000     2.202456674111


*** tstop() called on cics-quant-001 at Tue Dec 23 11:50:52 2025
Module time:
	user time   =       0.24 seconds =       0.00 minutes
	system time =       0.11 seconds =       0.00 minutes
	total time  =          0 seconds =       0.00 minutes
Total time:
	user time   =       4.17 seconds =       0.07 minutes
	system time =       0.71 seconds =       0.01 minutes
	total time  =          2 seconds =       0.03 minutes

    			-----------------------------------------

    			 OPTKING 3.0: for geometry optimizations 

    			     By R.A. King, Bethel University     

    			        with contributions from          

    			    A.V. Copan, J. Cayton, A. Heide      

    			-----------------------------------------

    
	                            ===> Fragment 1 <== 

	 Z (Atomic Numbers)          Masses                          Geom                  
	      14.000000            27.976927          0.00000000  0.00000000  1.41644437   
	      18.000000            39.962383          0.00000000  0.00000000 -0.99162655   

	 - Coordinate -           - BOHR/RAD -       - ANG/DEG -
	 R(1,2)           =         2.408071           1.274296


	        --- Internal Coordinate Step in ANG or DEG, aJ/ANG or AJ/DEG ---
	-------------------------------------------------------------------------------
	           Coordinate      Previous         Force          Change          New 
	           ----------      --------        ------          ------        ------
	               R(1,2)       1.27430       18.14569        0.18076       1.45506
	-------------------------------------------------------------------------------

	                                 ==> Convergence Check <==                                  
    
	Measures of convergence in internal coordinates in au.
    
	Criteria marked as inactive (o), active & met (*), and active & unmet ( ).

	----------------------------------------------------------------------------------------------
	   Step    Total Energy     Delta E     Max Force     RMS Force      Max Disp      RMS Disp   
	----------------------------------------------------------------------------------------------
	  Convergence Criteria     1.00e-06 *    3.00e-04 *             o    1.20e-03 *             o
	----------------------------------------------------------------------------------------------
	     4    -815.53596580   -2.46e-01      2.20e+00      2.20e+00 o    3.42e-01      3.42e-01 o  ~
	----------------------------------------------------------------------------------------------

Next Geometry in Ang 
	Fragment 1 (Ang)

	   Si   0.0000000000   0.0000000000   0.8399307626
	   Ar   0.0000000000   0.0000000000  -0.6151268532


    Structure for next step:
    Molecular point group: c2v
    Full point group: C_inf_v

    Geometry (in Angstrom), charge = 1, multiplicity = 4:

    SI           0.000000000000     0.000000000000     0.855875195110
    AR           0.000000000000     0.000000000000    -0.599182420686


Scratch directory: /tmp/
gradient() will perform analytic gradient computation.
   => Libint2 <=

    Primary   basis highest AM E, G, H:  6, 6, 3
    Auxiliary basis highest AM E, G, H:  7, 7, 4
    Onebody   basis highest AM E, G, H:  -, -, -
    Solid Harmonics ordering:            Gaussian

*** tstart() called on cics-quant-001
*** at Tue Dec 23 11:50:52 2025

   => Loading Basis Set <=

    Name: CC-PVDZ
    Role: ORBITAL
    Keyword: BASIS
    atoms 1 entry SI         line   478 file /home/jrodriguesro/psi4conda/share/psi4/basis/cc-pvdz.gbs 
    atoms 2 entry AR         line   718 file /home/jrodriguesro/psi4conda/share/psi4/basis/cc-pvdz.gbs 


         ---------------------------------------------------------
                                   SCF
               by Justin Turney, Rob Parrish, Andy Simmonett
                          and Daniel G. A. Smith
                              UKS Reference
                        5 Threads,   7629 MiB Core
         ---------------------------------------------------------

  ==> Geometry <==

    Molecular point group: c2v
    Full point group: C_inf_v

    Geometry (in Angstrom), charge = 1, multiplicity = 4:

       Center              X                  Y                   Z               Mass       
    ------------   -----------------  -----------------  -----------------  -----------------
         SI           0.000000000000     0.000000000000     0.855875195110    27.976926534650
         AR           0.000000000000     0.000000000000    -0.599182420686    39.962383123700

  Running in c2v symmetry.

  Rotational constants: A = ************  B =      0.48384  C =      0.48384 [cm^-1]
  Rotational constants: A = ************  B =  14505.29503  C =  14505.29503 [MHz]
  Nuclear repulsion =   91.647681604619052

  Charge       = 1
  Multiplicity = 4
  Electrons    = 31
  Nalpha       = 17
  Nbeta        = 14

  ==> Algorithm <==

  SCF Algorithm Type is DF.
  DIIS enabled.
  MOM disabled.
  Fractional occupation disabled.
  Guess Type is READ.
  Energy threshold   = 1.00e-08
  Density threshold  = 1.00e-08
  Integral threshold = 1.00e-12

  ==> Primary Basis <==

  Basis Set: CC-PVDZ
    Blend: CC-PVDZ
    Number of shells: 16
    Number of basis functions: 36
    Number of Cartesian functions: 38
    Spherical Harmonics?: true
    Max angular momentum: 2

  ==> DFT Potential <==

   => LibXC <=

    Version 7.0.0
    S. Lehtola, C. Steigemann, M. J.T. Oliveira, and M. A.L. Marques.,  SoftwareX 7, 1–5 (2018) (10.1016/j.softx.2017.11.002)

   => Composite Functional: B3LYP <= 

    B3LYP Hyb-GGA Exchange-Correlation Functional

    P. J. Stephens, F. J. Devlin, C. F. Chabalowski, and M. J. Frisch.,  J. Phys. Chem. 98, 11623 (1994) (10.1021/j100096a001)

    Deriv               =              1
    GGA                 =           TRUE
    Meta                =          FALSE

    Exchange Hybrid     =           TRUE
    MP2 Hybrid          =          FALSE

   => Exchange Functionals <=

    0.0800   Slater exchange
    0.7200         Becke 88

   => Exact (HF) Exchange <=

    0.2000               HF 

   => Correlation Functionals <=

    0.1900   Vosko, Wilk & Nusair (VWN5_RPA)
    0.8100   Lee, Yang & Parr

   => LibXC Density Thresholds  <==

    XC_HYB_GGA_XC_B3LYP:  1.00E-15 

   => Molecular Quadrature <=

    Radial Scheme          =       TREUTLER
    Pruning Scheme         =           NONE
    Nuclear Scheme         =       TREUTLER

    Blocking Scheme        =         OCTREE
    BS radius alpha        =              1
    Pruning alpha          =              1
    Radial Points          =             75
    Spherical Points       =            302
    Total Points           =          41494
    Total Blocks           =            386
    Max Points             =            256
    Max Functions          =             36
    Weights Tolerance      =       1.00E-15

   => Loading Basis Set <=

    Name: (CC-PVDZ AUX)
    Role: JKFIT
    Keyword: DF_BASIS_SCF
    atoms 1 entry SI         line   445 file /home/jrodriguesro/psi4conda/share/psi4/basis/cc-pvdz-jkfit.gbs 
    atoms 2 entry AR         line   741 file /home/jrodriguesro/psi4conda/share/psi4/basis/cc-pvdz-jkfit.gbs 

   => Loading Basis Set <=

    Name: CC-PVDZ
    Role: ORBITAL
    Keyword: BASIS
    atoms 1 entry SI         line   478 file /home/jrodriguesro/psi4conda/share/psi4/basis/cc-pvdz.gbs 
    atoms 2 entry AR         line   718 file /home/jrodriguesro/psi4conda/share/psi4/basis/cc-pvdz.gbs 

  Reading orbitals from file /tmp/quartet_SiAr.default.423046.180.npy, no projection.

  ==> Integral Setup <==

  DFHelper Memory: AOs need 0.003 GiB; user supplied 5.546 GiB. 
  SCF_SUBTYPE=INCORE selected. In-core MEM_DF algorithm will be used.
  Using in-core AOs.

  ==> MemDFJK: Density-Fitted J/K Matrices <==

    J tasked:                   Yes
    K tasked:                   Yes
    wK tasked:                   No
    OpenMP threads:               5
    Memory [MiB]:              5679
    Algorithm:                 Core
    Schwarz Cutoff:           1E-12
    Mask sparsity (%):       0.0000
    Fitting Condition:        1E-10

   => Auxiliary Basis Set <=

  Basis Set: (CC-PVDZ AUX)
    Blend: CC-PVDZ-JKFIT
    Number of shells: 72
    Number of basis functions: 224
    Number of Cartesian functions: 260
    Spherical Harmonics?: true
    Max angular momentum: 3

  Cached 100.0% of DFT collocation blocks in 0.042 [GiB].

  Minimum eigenvalue in the overlap matrix is 1.5190034135E-02.
  Reciprocal condition number of the overlap matrix is 4.9950914441E-03.
    Using symmetric orthogonalization.

  ==> Pre-Iterations <==

  SCF Guess: Orbitals guess was supplied from a previous computation.

   -------------------------------------------------------
    Irrep   Nso     Nmo     Nalpha   Nbeta   Ndocc  Nsocc
   -------------------------------------------------------
     A1        18      18       9       8       8       1
     A2         2       2       0       0       0       0
     B1         8       8       4       3       3       1
     B2         8       8       4       3       3       1
   -------------------------------------------------------
    Total      36      36      17      14      14       3
   -------------------------------------------------------

  ==> Iterations <==

                           Total Energy        Delta E     RMS |[F,P]|

   @DF-UKS iter   0:  -816.22566141770892   -8.16226e+02   6.02978e-02 
   @DF-UKS iter   1:  -816.04797730627740    1.77684e-01   7.54093e-03 ADIIS/DIIS
   @DF-UKS iter   2:  -816.05611201340400   -8.13471e-03   5.03062e-03 ADIIS/DIIS/DAMP=1%
   @DF-UKS iter   3:  -816.06886315029919   -1.27511e-02   2.59418e-04 ADIIS/DIIS/DAMP=1%
   @DF-UKS iter   4:  -816.06187184033342    6.99131e-03   4.24773e-05 DIIS/DAMP=1%
   @DF-UKS iter   5:  -816.06198645128120   -1.14611e-04   2.27990e-05 DIIS/DAMP=1%
   @DF-UKS iter   6:  -816.06192597238692    6.04789e-05   2.39414e-06 DIIS/DAMP=1%
   @DF-UKS iter   7:  -816.06193072895212   -4.75657e-06   1.90174e-07 DIIS/DAMP=1%
   @DF-UKS iter   8:  -816.06193392445107   -3.19550e-06   1.92119e-08 DIIS/DAMP=1%
   @DF-UKS iter   9:  -816.06193374275301    1.81698e-07   2.88322e-09 DIIS/DAMP=1%
   @DF-UKS iter  10:  -816.06193375921168   -1.64587e-08   2.86279e-10 DIIS/DAMP=1%
   @DF-UKS iter  11:  -816.06193375741407    1.79762e-09   3.44060e-11 DIIS/DAMP=1%
  Energy and wave function converged.


  ==> Post-Iterations <==

   Electrons on quadrature grid:
      Nalpha   =   17.0000006822 ; deviation = 6.822e-07
      Nbeta    =   14.0000006337 ; deviation = 6.337e-07
      Ntotal   =   31.0000013159 ; deviation = 1.316e-06 

   @Spin Contamination Metric:   9.031050790E-04
   @S^2 Expected:                3.750000000E+00
   @S^2 Observed:                3.750903105E+00
   @S   Expected:                1.500000000E+00
   @S   Observed:                1.500000000E+00

    Orbital Energies [Eh]
    ---------------------

    Alpha Occupied:                                                       

       1A1  -115.500288     2A1   -66.438468     3A1   -11.566322  
       4A1    -9.120283     1B1    -9.109840     1B2    -9.109840  
       5A1    -5.628068     6A1    -3.999196     2B2    -3.977524  
       2B1    -3.977524     7A1    -1.495632     8A1    -0.979035  
       3B1    -0.891952     3B2    -0.891952     9A1    -0.632912  
       4B2    -0.429754     4B1    -0.429754  

    Alpha Virtual:                                                        

      10A1    -0.200834     5B1    -0.042190     5B2    -0.042190  
      11A1    -0.017586     1A2     0.008024    12A1     0.008026  
      13A1     0.051904    14A1     0.092413     6B1     0.105916  
       6B2     0.105916     7B2     0.301273     7B1     0.301273  
       2A2     0.461551    15A1     0.461553    16A1     0.548771  
      17A1     0.759821     8B2     0.770742     8B1     0.770742  
      18A1     1.267876  

    Beta Occupied:                                                        

       1A1  -115.497606     2A1   -66.425558     3A1   -11.563645  
       4A1    -9.117089     1B1    -9.105870     1B2    -9.105870  
       5A1    -5.611988     6A1    -3.985109     2B2    -3.956218  
       2B1    -3.956218     7A1    -1.479991     8A1    -0.949724  
       3B1    -0.872528     3B2    -0.872528  

    Beta Virtual:                                                         

       9A1    -0.440169     4B2    -0.274897     4B1    -0.274897  
      10A1    -0.166196     5B1    -0.006466     5B2    -0.006466  
      11A1     0.009622    12A1     0.083472     1A2     0.102131  
      13A1     0.102133    14A1     0.149570     6B1     0.188458  
       6B2     0.188458     7B2     0.317743     7B1     0.317743  
       2A2     0.493954    15A1     0.493955    16A1     0.567027  
      17A1     0.792288     8B2     0.811729     8B1     0.811729  
      18A1     1.290910  

    Final Occupation by Irrep:
             A1    A2    B1    B2 
    DOCC [     8,    0,    3,    3 ]
    SOCC [     1,    0,    1,    1 ]
    NA   [     9,    0,    4,    4 ]
    NB   [     8,    0,    3,    3 ]

  @DF-UKS Final Energy:  -816.06193375741407

   => Energetics <=

    Nuclear Repulsion Energy =             91.6476816046190521
    One-Electron Energy =               -1299.0667865036932653
    Two-Electron Energy =                 433.1133487620804203
    DFT Exchange-Correlation Energy =     -41.7561776204203525
    Empirical Dispersion Energy =           0.0000000000000000
    VV10 Nonlocal Energy =                  0.0000000000000000
    Total Energy =                       -816.0619337574140673

  UHF NO Occupations:
  HONO-2 :    9 A1 1.0000000
  HONO-1 :    4 B2 1.0000000
  HONO-0 :    4 B1 1.0000000
  LUNO+0 :    5 B1 0.0001644
  LUNO+1 :    5 B2 0.0001644
  LUNO+2 :   10 A1 0.0001166
  LUNO+3 :   11 A1 0.0000058


Computation Completed


Properties will be evaluated at   0.000000,   0.000000,   0.000000 [a0]

Properties computed using the SCF density matrix


 Multipole Moments:

 ------------------------------------------------------------------------------------
     Multipole            Electronic (a.u.)      Nuclear  (a.u.)        Total (a.u.)
 ------------------------------------------------------------------------------------

 L = 1.  Multiply by 2.5417464519 to convert [e a0] to [Debye]
 Dipole X            :          0.0000000            0.0000000            0.0000000
 Dipole Y            :          0.0000000            0.0000000            0.0000000
 Dipole Z            :         -2.6077765            2.2619439           -0.3458326
 Magnitude           :                                                    0.3458326

 ------------------------------------------------------------------------------------

*** tstop() called on cics-quant-001 at Tue Dec 23 11:50:53 2025
Module time:
	user time   =       0.77 seconds =       0.01 minutes
	system time =       0.05 seconds =       0.00 minutes
	total time  =          1 seconds =       0.02 minutes
Total time:
	user time   =       4.95 seconds =       0.08 minutes
	system time =       0.76 seconds =       0.01 minutes
	total time  =          3 seconds =       0.05 minutes

*** tstart() called on cics-quant-001
*** at Tue Dec 23 11:50:53 2025


         ------------------------------------------------------------
                                   SCF GRAD                          
                          Rob Parrish, Justin Turney,                
                       Andy Simmonett, and Alex Sokolov              
         ------------------------------------------------------------

  ==> Geometry <==

    Molecular point group: c2v
    Full point group: C_inf_v

    Geometry (in Angstrom), charge = 1, multiplicity = 4:

       Center              X                  Y                   Z               Mass       
    ------------   -----------------  -----------------  -----------------  -----------------
         SI           0.000000000000     0.000000000000     0.855875195110    27.976926534650
         AR           0.000000000000     0.000000000000    -0.599182420686    39.962383123700

  Nuclear repulsion =   91.647681604619052

  ==> Basis Set <==

  Basis Set: CC-PVDZ
    Blend: CC-PVDZ
    Number of shells: 16
    Number of basis functions: 36
    Number of Cartesian functions: 38
    Spherical Harmonics?: true
    Max angular momentum: 2

  ==> DFJKGrad: Density-Fitted SCF Gradients <==

    Gradient:                    1
    J tasked:                  Yes
    K tasked:                  Yes
    wK tasked:                  No
    OpenMP threads:              5
    Integrals threads:           5
    Memory [MiB]:             5722
    Schwarz Cutoff:          1E-12
    Fitting Condition:       1E-10

   => Auxiliary Basis Set <=

  Basis Set: (CC-PVDZ AUX)
    Blend: CC-PVDZ-JKFIT
    Number of shells: 72
    Number of basis functions: 224
    Number of Cartesian functions: 260
    Spherical Harmonics?: true
    Max angular momentum: 3

  ==> DFT Potential <==

   => LibXC <=

    Version 7.0.0
    S. Lehtola, C. Steigemann, M. J.T. Oliveira, and M. A.L. Marques.,  SoftwareX 7, 1–5 (2018) (10.1016/j.softx.2017.11.002)

   => Composite Functional: B3LYP <= 

    B3LYP Hyb-GGA Exchange-Correlation Functional

    P. J. Stephens, F. J. Devlin, C. F. Chabalowski, and M. J. Frisch.,  J. Phys. Chem. 98, 11623 (1994) (10.1021/j100096a001)

    Deriv               =              1
    GGA                 =           TRUE
    Meta                =          FALSE

    Exchange Hybrid     =           TRUE
    MP2 Hybrid          =          FALSE

   => Exchange Functionals <=

    0.0800   Slater exchange
    0.7200         Becke 88

   => Exact (HF) Exchange <=

    0.2000               HF 

   => Correlation Functionals <=

    0.1900   Vosko, Wilk & Nusair (VWN5_RPA)
    0.8100   Lee, Yang & Parr

   => LibXC Density Thresholds  <==

    XC_HYB_GGA_XC_B3LYP:  1.00E-15 

   => Molecular Quadrature <=

    Radial Scheme          =       TREUTLER
    Pruning Scheme         =           NONE
    Nuclear Scheme         =       TREUTLER

    Blocking Scheme        =         OCTREE
    BS radius alpha        =              1
    Pruning alpha          =              1
    Radial Points          =             75
    Spherical Points       =            302
    Total Points           =          41494
    Total Blocks           =            386
    Max Points             =            256
    Max Functions          =             36
    Weights Tolerance      =       1.00E-15


  -Total Gradient:
     Atom            X                  Y                   Z
    ------   -----------------  -----------------  -----------------
       1        0.000000000000    -0.000000000000    -1.023267333565
       2       -0.000000000000     0.000000000000     1.023239945582


*** tstop() called on cics-quant-001 at Tue Dec 23 11:50:53 2025
Module time:
	user time   =       0.23 seconds =       0.00 minutes
	system time =       0.12 seconds =       0.00 minutes
	total time  =          0 seconds =       0.00 minutes
Total time:
	user time   =       5.18 seconds =       0.09 minutes
	system time =       0.88 seconds =       0.01 minutes
	total time  =          3 seconds =       0.05 minutes

    			-----------------------------------------

    			 OPTKING 3.0: for geometry optimizations 

    			     By R.A. King, Bethel University     

    			        with contributions from          

    			    A.V. Copan, J. Cayton, A. Heide      

    			-----------------------------------------

    
	                            ===> Fragment 1 <== 

	 Z (Atomic Numbers)          Masses                          Geom                  
	      14.000000            27.976927          0.00000000  0.00000000  1.61736972   
	      18.000000            39.962383          0.00000000  0.00000000 -1.13229067   

	 - Coordinate -           - BOHR/RAD -       - ANG/DEG -
	 R(1,2)           =         2.749660           1.455058


	        --- Internal Coordinate Step in ANG or DEG, aJ/ANG or AJ/DEG ---
	-------------------------------------------------------------------------------
	           Coordinate      Previous         Force          Change          New 
	           ----------      --------        ------          ------        ------
	               R(1,2)       1.45506        8.43030        0.12458       1.57964
	-------------------------------------------------------------------------------

	                                 ==> Convergence Check <==                                  
    
	Measures of convergence in internal coordinates in au.
    
	Criteria marked as inactive (o), active & met (*), and active & unmet ( ).

	----------------------------------------------------------------------------------------------
	   Step    Total Energy     Delta E     Max Force     RMS Force      Max Disp      RMS Disp   
	----------------------------------------------------------------------------------------------
	  Convergence Criteria     1.00e-06 *    3.00e-04 *             o    1.20e-03 *             o
	----------------------------------------------------------------------------------------------
	     5    -816.06193376   -5.26e-01      1.02e+00      1.02e+00 o    2.35e-01      2.35e-01 o  ~
	----------------------------------------------------------------------------------------------

Next Geometry in Ang 
	Fragment 1 (Ang)

	   Si   0.0000000000   0.0000000000   0.9181643752
	   Ar   0.0000000000   0.0000000000  -0.6614716008


    Structure for next step:
    Molecular point group: c2v
    Full point group: C_inf_v

    Geometry (in Angstrom), charge = 1, multiplicity = 4:

    SI           0.000000000000     0.000000000000     0.929153068911
    AR           0.000000000000     0.000000000000    -0.650482907086


Scratch directory: /tmp/
gradient() will perform analytic gradient computation.
   => Libint2 <=

    Primary   basis highest AM E, G, H:  6, 6, 3
    Auxiliary basis highest AM E, G, H:  7, 7, 4
    Onebody   basis highest AM E, G, H:  -, -, -
    Solid Harmonics ordering:            Gaussian

*** tstart() called on cics-quant-001
*** at Tue Dec 23 11:50:53 2025

   => Loading Basis Set <=

    Name: CC-PVDZ
    Role: ORBITAL
    Keyword: BASIS
    atoms 1 entry SI         line   478 file /home/jrodriguesro/psi4conda/share/psi4/basis/cc-pvdz.gbs 
    atoms 2 entry AR         line   718 file /home/jrodriguesro/psi4conda/share/psi4/basis/cc-pvdz.gbs 


         ---------------------------------------------------------
                                   SCF
               by Justin Turney, Rob Parrish, Andy Simmonett
                          and Daniel G. A. Smith
                              UKS Reference
                        5 Threads,   7629 MiB Core
         ---------------------------------------------------------

  ==> Geometry <==

    Molecular point group: c2v
    Full point group: C_inf_v

    Geometry (in Angstrom), charge = 1, multiplicity = 4:

       Center              X                  Y                   Z               Mass       
    ------------   -----------------  -----------------  -----------------  -----------------
         SI           0.000000000000     0.000000000000     0.929153068911    27.976926534650
         AR           0.000000000000     0.000000000000    -0.650482907086    39.962383123700

  Running in c2v symmetry.

  Rotational constants: A = ************  B =      0.41054  C =      0.41054 [cm^-1]
  Rotational constants: A = ************  B =  12307.58702  C =  12307.58702 [MHz]
  Nuclear repulsion =   84.419865788803278

  Charge       = 1
  Multiplicity = 4
  Electrons    = 31
  Nalpha       = 17
  Nbeta        = 14

  ==> Algorithm <==

  SCF Algorithm Type is DF.
  DIIS enabled.
  MOM disabled.
  Fractional occupation disabled.
  Guess Type is READ.
  Energy threshold   = 1.00e-08
  Density threshold  = 1.00e-08
  Integral threshold = 1.00e-12

  ==> Primary Basis <==

  Basis Set: CC-PVDZ
    Blend: CC-PVDZ
    Number of shells: 16
    Number of basis functions: 36
    Number of Cartesian functions: 38
    Spherical Harmonics?: true
    Max angular momentum: 2

  ==> DFT Potential <==

   => LibXC <=

    Version 7.0.0
    S. Lehtola, C. Steigemann, M. J.T. Oliveira, and M. A.L. Marques.,  SoftwareX 7, 1–5 (2018) (10.1016/j.softx.2017.11.002)

   => Composite Functional: B3LYP <= 

    B3LYP Hyb-GGA Exchange-Correlation Functional

    P. J. Stephens, F. J. Devlin, C. F. Chabalowski, and M. J. Frisch.,  J. Phys. Chem. 98, 11623 (1994) (10.1021/j100096a001)

    Deriv               =              1
    GGA                 =           TRUE
    Meta                =          FALSE

    Exchange Hybrid     =           TRUE
    MP2 Hybrid          =          FALSE

   => Exchange Functionals <=

    0.0800   Slater exchange
    0.7200         Becke 88

   => Exact (HF) Exchange <=

    0.2000               HF 

   => Correlation Functionals <=

    0.1900   Vosko, Wilk & Nusair (VWN5_RPA)
    0.8100   Lee, Yang & Parr

   => LibXC Density Thresholds  <==

    XC_HYB_GGA_XC_B3LYP:  1.00E-15 

   => Molecular Quadrature <=

    Radial Scheme          =       TREUTLER
    Pruning Scheme         =           NONE
    Nuclear Scheme         =       TREUTLER

    Blocking Scheme        =         OCTREE
    BS radius alpha        =              1
    Pruning alpha          =              1
    Radial Points          =             75
    Spherical Points       =            302
    Total Points           =          41524
    Total Blocks           =            386
    Max Points             =            255
    Max Functions          =             36
    Weights Tolerance      =       1.00E-15

   => Loading Basis Set <=

    Name: (CC-PVDZ AUX)
    Role: JKFIT
    Keyword: DF_BASIS_SCF
    atoms 1 entry SI         line   445 file /home/jrodriguesro/psi4conda/share/psi4/basis/cc-pvdz-jkfit.gbs 
    atoms 2 entry AR         line   741 file /home/jrodriguesro/psi4conda/share/psi4/basis/cc-pvdz-jkfit.gbs 

   => Loading Basis Set <=

    Name: CC-PVDZ
    Role: ORBITAL
    Keyword: BASIS
    atoms 1 entry SI         line   478 file /home/jrodriguesro/psi4conda/share/psi4/basis/cc-pvdz.gbs 
    atoms 2 entry AR         line   718 file /home/jrodriguesro/psi4conda/share/psi4/basis/cc-pvdz.gbs 

  Reading orbitals from file /tmp/quartet_SiAr.default.423046.180.npy, no projection.

  ==> Integral Setup <==

  DFHelper Memory: AOs need 0.003 GiB; user supplied 5.546 GiB. 
  SCF_SUBTYPE=INCORE selected. In-core MEM_DF algorithm will be used.
  Using in-core AOs.

  ==> MemDFJK: Density-Fitted J/K Matrices <==

    J tasked:                   Yes
    K tasked:                   Yes
    wK tasked:                   No
    OpenMP threads:               5
    Memory [MiB]:              5679
    Algorithm:                 Core
    Schwarz Cutoff:           1E-12
    Mask sparsity (%):       0.0000
    Fitting Condition:        1E-10

   => Auxiliary Basis Set <=

  Basis Set: (CC-PVDZ AUX)
    Blend: CC-PVDZ-JKFIT
    Number of shells: 72
    Number of basis functions: 224
    Number of Cartesian functions: 260
    Spherical Harmonics?: true
    Max angular momentum: 3

  Cached 100.0% of DFT collocation blocks in 0.042 [GiB].

  Minimum eigenvalue in the overlap matrix is 1.9010877962E-02.
  Reciprocal condition number of the overlap matrix is 6.3349575624E-03.
    Using symmetric orthogonalization.

  ==> Pre-Iterations <==

  SCF Guess: Orbitals guess was supplied from a previous computation.

   -------------------------------------------------------
    Irrep   Nso     Nmo     Nalpha   Nbeta   Ndocc  Nsocc
   -------------------------------------------------------
     A1        18      18       9       8       8       1
     A2         2       2       0       0       0       0
     B1         8       8       4       3       3       1
     B2         8       8       4       3       3       1
   -------------------------------------------------------
    Total      36      36      17      14      14       3
   -------------------------------------------------------

  ==> Iterations <==

                           Total Energy        Delta E     RMS |[F,P]|

   @DF-UKS iter   0:  -816.26539450451185   -8.16265e+02   2.80688e-02 
   @DF-UKS iter   1:  -816.24740525793084    1.79892e-02   2.02351e-03 ADIIS/DIIS
   @DF-UKS iter   2:  -816.24813498734125   -7.29729e-04   1.21776e-03 ADIIS/DIIS/DAMP=1%
   @DF-UKS iter   3:  -816.24985489828737   -1.71991e-03   1.35410e-04 ADIIS/DIIS/DAMP=1%
   @DF-UKS iter   4:  -816.24852783353367    1.32706e-03   1.92709e-05 DIIS/DAMP=1%
   @DF-UKS iter   5:  -816.24848030902467    4.75245e-05   1.19424e-05 DIIS/DAMP=1%
   @DF-UKS iter   6:  -816.24850866754639   -2.83585e-05   6.76478e-07 DIIS/DAMP=1%
   @DF-UKS iter   7:  -816.24849886988613    9.79766e-06   8.17700e-08 DIIS/DAMP=1%
   @DF-UKS iter   8:  -816.24849971150957   -8.41623e-07   9.51491e-09 DIIS/DAMP=1%
   @DF-UKS iter   9:  -816.24849959539677    1.16113e-07   4.95105e-10 DIIS/DAMP=1%
   @DF-UKS iter  10:  -816.24849960599886   -1.06021e-08   6.22722e-11 DIIS/DAMP=1%
   @DF-UKS iter  11:  -816.24849960595577    4.30873e-11   7.63057e-12 DIIS/DAMP=1%
  Energy and wave function converged.


  ==> Post-Iterations <==

   Electrons on quadrature grid:
      Nalpha   =   16.9999998480 ; deviation = -1.520e-07
      Nbeta    =   13.9999997735 ; deviation = -2.265e-07
      Ntotal   =   30.9999996214 ; deviation = -3.786e-07 

   @Spin Contamination Metric:   7.975372235E-04
   @S^2 Expected:                3.750000000E+00
   @S^2 Observed:                3.750797537E+00
   @S   Expected:                1.500000000E+00
   @S   Observed:                1.500000000E+00

    Orbital Energies [Eh]
    ---------------------

    Alpha Occupied:                                                       

       1A1  -115.497114     2A1   -66.449248     3A1   -11.551563  
       4A1    -9.105558     1B2    -9.096894     1B1    -9.096894  
       5A1    -5.619848     6A1    -3.986745     2B2    -3.973418  
       2B1    -3.973418     7A1    -1.457927     8A1    -0.963002  
       3B1    -0.858875     3B2    -0.858875     9A1    -0.641057  
       4B1    -0.437236     4B2    -0.437236  

    Alpha Virtual:                                                        

      10A1    -0.207161    11A1    -0.039915     5B2    -0.021916  
       5B1    -0.021916     1A2     0.026564    12A1     0.026564  
      13A1     0.059959    14A1     0.089476     6B2     0.097139  
       6B1     0.097139     7B1     0.301290     7B2     0.301290  
       2A2     0.463764    15A1     0.463766    16A1     0.532621  
      17A1     0.685303     8B1     0.728290     8B2     0.728290  
      18A1     1.237652  

    Beta Occupied:                                                        

       1A1  -115.494691     2A1   -66.436170     3A1   -11.549164  
       4A1    -9.102399     1B2    -9.093437     1B1    -9.093437  
       5A1    -5.603254     6A1    -3.973457     2B2    -3.951761  
       2B1    -3.951761     7A1    -1.443411     8A1    -0.934589  
       3B1    -0.841838     3B2    -0.841838  

    Beta Virtual:                                                         

       9A1    -0.449829     4B1    -0.279714     4B2    -0.279714  
      10A1    -0.166114    11A1    -0.014774     5B2     0.018880  
       5B1     0.018880    12A1     0.093941     1A2     0.129543  
      13A1     0.129549    14A1     0.138430     6B2     0.177046  
       6B1     0.177046     7B1     0.314126     7B2     0.314126  
       2A2     0.488863    15A1     0.488865    16A1     0.558989  
      17A1     0.712716     8B1     0.765946     8B2     0.765946  
      18A1     1.257269  

    Final Occupation by Irrep:
             A1    A2    B1    B2 
    DOCC [     8,    0,    3,    3 ]
    SOCC [     1,    0,    1,    1 ]
    NA   [     9,    0,    4,    4 ]
    NB   [     8,    0,    3,    3 ]

  @DF-UKS Final Energy:  -816.24849960595577

   => Energetics <=

    Nuclear Repulsion Energy =             84.4198657888032784
    One-Electron Energy =               -1285.4031441252279819
    Two-Electron Energy =                 426.4072805426912964
    DFT Exchange-Correlation Energy =     -41.6725018122223290
    Empirical Dispersion Energy =           0.0000000000000000
    VV10 Nonlocal Energy =                  0.0000000000000000
    Total Energy =                       -816.2484996059557716

  UHF NO Occupations:
  HONO-2 :    9 A1 1.0000000
  HONO-1 :    4 B1 1.0000000
  HONO-0 :    4 B2 1.0000000
  LUNO+0 :   10 A1 0.0001422
  LUNO+1 :    5 B1 0.0001257
  LUNO+2 :    5 B2 0.0001257
  LUNO+3 :   11 A1 0.0000049


Computation Completed


Properties will be evaluated at   0.000000,   0.000000,   0.000000 [a0]

Properties computed using the SCF density matrix


 Multipole Moments:

 ------------------------------------------------------------------------------------
     Multipole            Electronic (a.u.)      Nuclear  (a.u.)        Total (a.u.)
 ------------------------------------------------------------------------------------

 L = 1.  Multiply by 2.5417464519 to convert [e a0] to [Debye]
 Dipole X            :          0.0000000            0.0000000            0.0000000
 Dipole Y            :          0.0000000            0.0000000            0.0000000
 Dipole Z            :         -2.6285788            2.4556058           -0.1729730
 Magnitude           :                                                    0.1729730

 ------------------------------------------------------------------------------------

*** tstop() called on cics-quant-001 at Tue Dec 23 11:50:53 2025
Module time:
	user time   =       0.76 seconds =       0.01 minutes
	system time =       0.07 seconds =       0.00 minutes
	total time  =          0 seconds =       0.00 minutes
Total time:
	user time   =       5.96 seconds =       0.10 minutes
	system time =       0.95 seconds =       0.02 minutes
	total time  =          3 seconds =       0.05 minutes

*** tstart() called on cics-quant-001
*** at Tue Dec 23 11:50:53 2025


         ------------------------------------------------------------
                                   SCF GRAD                          
                          Rob Parrish, Justin Turney,                
                       Andy Simmonett, and Alex Sokolov              
         ------------------------------------------------------------

  ==> Geometry <==

    Molecular point group: c2v
    Full point group: C_inf_v

    Geometry (in Angstrom), charge = 1, multiplicity = 4:

       Center              X                  Y                   Z               Mass       
    ------------   -----------------  -----------------  -----------------  -----------------
         SI           0.000000000000     0.000000000000     0.929153068911    27.976926534650
         AR           0.000000000000     0.000000000000    -0.650482907086    39.962383123700

  Nuclear repulsion =   84.419865788803278

  ==> Basis Set <==

  Basis Set: CC-PVDZ
    Blend: CC-PVDZ
    Number of shells: 16
    Number of basis functions: 36
    Number of Cartesian functions: 38
    Spherical Harmonics?: true
    Max angular momentum: 2

  ==> DFJKGrad: Density-Fitted SCF Gradients <==

    Gradient:                    1
    J tasked:                  Yes
    K tasked:                  Yes
    wK tasked:                  No
    OpenMP threads:              5
    Integrals threads:           5
    Memory [MiB]:             5722
    Schwarz Cutoff:          1E-12
    Fitting Condition:       1E-10

   => Auxiliary Basis Set <=

  Basis Set: (CC-PVDZ AUX)
    Blend: CC-PVDZ-JKFIT
    Number of shells: 72
    Number of basis functions: 224
    Number of Cartesian functions: 260
    Spherical Harmonics?: true
    Max angular momentum: 3

  ==> DFT Potential <==

   => LibXC <=

    Version 7.0.0
    S. Lehtola, C. Steigemann, M. J.T. Oliveira, and M. A.L. Marques.,  SoftwareX 7, 1–5 (2018) (10.1016/j.softx.2017.11.002)

   => Composite Functional: B3LYP <= 

    B3LYP Hyb-GGA Exchange-Correlation Functional

    P. J. Stephens, F. J. Devlin, C. F. Chabalowski, and M. J. Frisch.,  J. Phys. Chem. 98, 11623 (1994) (10.1021/j100096a001)

    Deriv               =              1
    GGA                 =           TRUE
    Meta                =          FALSE

    Exchange Hybrid     =           TRUE
    MP2 Hybrid          =          FALSE

   => Exchange Functionals <=

    0.0800   Slater exchange
    0.7200         Becke 88

   => Exact (HF) Exchange <=

    0.2000               HF 

   => Correlation Functionals <=

    0.1900   Vosko, Wilk & Nusair (VWN5_RPA)
    0.8100   Lee, Yang & Parr

   => LibXC Density Thresholds  <==

    XC_HYB_GGA_XC_B3LYP:  1.00E-15 

   => Molecular Quadrature <=

    Radial Scheme          =       TREUTLER
    Pruning Scheme         =           NONE
    Nuclear Scheme         =       TREUTLER

    Blocking Scheme        =         OCTREE
    BS radius alpha        =              1
    Pruning alpha          =              1
    Radial Points          =             75
    Spherical Points       =            302
    Total Points           =          41524
    Total Blocks           =            386
    Max Points             =            255
    Max Functions          =             36
    Weights Tolerance      =       1.00E-15


  -Total Gradient:
     Atom            X                  Y                   Z
    ------   -----------------  -----------------  -----------------
       1        0.000000000000     0.000000000000    -0.598177060542
       2        0.000000000000     0.000000000000     0.598164826782


*** tstop() called on cics-quant-001 at Tue Dec 23 11:50:54 2025
Module time:
	user time   =       0.24 seconds =       0.00 minutes
	system time =       0.13 seconds =       0.00 minutes
	total time  =          1 seconds =       0.02 minutes
Total time:
	user time   =       6.21 seconds =       0.10 minutes
	system time =       1.08 seconds =       0.02 minutes
	total time  =          4 seconds =       0.07 minutes

    			-----------------------------------------

    			 OPTKING 3.0: for geometry optimizations 

    			     By R.A. King, Bethel University     

    			        with contributions from          

    			    A.V. Copan, J. Cayton, A. Heide      

    			-----------------------------------------

    
	                            ===> Fragment 1 <== 

	 Z (Atomic Numbers)          Masses                          Geom                  
	      14.000000            27.976927          0.00000000  0.00000000  1.75584483   
	      18.000000            39.962383          0.00000000  0.00000000 -1.22923454   

	 - Coordinate -           - BOHR/RAD -       - ANG/DEG -
	 R(1,2)           =         2.985079           1.579636


	        --- Internal Coordinate Step in ANG or DEG, aJ/ANG or AJ/DEG ---
	-------------------------------------------------------------------------------
	           Coordinate      Previous         Force          Change          New 
	           ----------      --------        ------          ------        ------
	               R(1,2)       1.57964        4.92816        0.14295       1.72258
	-------------------------------------------------------------------------------

	                                 ==> Convergence Check <==                                  
    
	Measures of convergence in internal coordinates in au.
    
	Criteria marked as inactive (o), active & met (*), and active & unmet ( ).

	----------------------------------------------------------------------------------------------
	   Step    Total Energy     Delta E     Max Force     RMS Force      Max Disp      RMS Disp   
	----------------------------------------------------------------------------------------------
	  Convergence Criteria     1.00e-06 *    3.00e-04 *             o    1.20e-03 *             o
	----------------------------------------------------------------------------------------------
	     6    -816.24849961   -1.87e-01      5.98e-01      5.98e-01 o    2.70e-01      2.70e-01 o  ~
	----------------------------------------------------------------------------------------------

Next Geometry in Ang 
	Fragment 1 (Ang)

	   Si   0.0000000000   0.0000000000   1.0006259019
	   Ar   0.0000000000   0.0000000000  -0.7219557401


    Structure for next step:
    Molecular point group: c2v
    Full point group: C_inf_v

    Geometry (in Angstrom), charge = 1, multiplicity = 4:

    SI           0.000000000000     0.000000000000     1.013234722030
    AR           0.000000000000     0.000000000000    -0.709346919898


Scratch directory: /tmp/
gradient() will perform analytic gradient computation.
   => Libint2 <=

    Primary   basis highest AM E, G, H:  6, 6, 3
    Auxiliary basis highest AM E, G, H:  7, 7, 4
    Onebody   basis highest AM E, G, H:  -, -, -
    Solid Harmonics ordering:            Gaussian

*** tstart() called on cics-quant-001
*** at Tue Dec 23 11:50:54 2025

   => Loading Basis Set <=

    Name: CC-PVDZ
    Role: ORBITAL
    Keyword: BASIS
    atoms 1 entry SI         line   478 file /home/jrodriguesro/psi4conda/share/psi4/basis/cc-pvdz.gbs 
    atoms 2 entry AR         line   718 file /home/jrodriguesro/psi4conda/share/psi4/basis/cc-pvdz.gbs 


         ---------------------------------------------------------
                                   SCF
               by Justin Turney, Rob Parrish, Andy Simmonett
                          and Daniel G. A. Smith
                              UKS Reference
                        5 Threads,   7629 MiB Core
         ---------------------------------------------------------

  ==> Geometry <==

    Molecular point group: c2v
    Full point group: C_inf_v

    Geometry (in Angstrom), charge = 1, multiplicity = 4:

       Center              X                  Y                   Z               Mass       
    ------------   -----------------  -----------------  -----------------  -----------------
         SI           0.000000000000     0.000000000000     1.013234722030    27.976926534650
         AR           0.000000000000     0.000000000000    -0.709346919898    39.962383123700

  Running in c2v symmetry.

  Rotational constants: A = ************  B =      0.34523  C =      0.34523 [cm^-1]
  Rotational constants: A = ************  B =  10349.68944  C =  10349.68944 [MHz]
  Nuclear repulsion =   77.414419057421171

  Charge       = 1
  Multiplicity = 4
  Electrons    = 31
  Nalpha       = 17
  Nbeta        = 14

  ==> Algorithm <==

  SCF Algorithm Type is DF.
  DIIS enabled.
  MOM disabled.
  Fractional occupation disabled.
  Guess Type is READ.
  Energy threshold   = 1.00e-08
  Density threshold  = 1.00e-08
  Integral threshold = 1.00e-12

  ==> Primary Basis <==

  Basis Set: CC-PVDZ
    Blend: CC-PVDZ
    Number of shells: 16
    Number of basis functions: 36
    Number of Cartesian functions: 38
    Spherical Harmonics?: true
    Max angular momentum: 2

  ==> DFT Potential <==

   => LibXC <=

    Version 7.0.0
    S. Lehtola, C. Steigemann, M. J.T. Oliveira, and M. A.L. Marques.,  SoftwareX 7, 1–5 (2018) (10.1016/j.softx.2017.11.002)

   => Composite Functional: B3LYP <= 

    B3LYP Hyb-GGA Exchange-Correlation Functional

    P. J. Stephens, F. J. Devlin, C. F. Chabalowski, and M. J. Frisch.,  J. Phys. Chem. 98, 11623 (1994) (10.1021/j100096a001)

    Deriv               =              1
    GGA                 =           TRUE
    Meta                =          FALSE

    Exchange Hybrid     =           TRUE
    MP2 Hybrid          =          FALSE

   => Exchange Functionals <=

    0.0800   Slater exchange
    0.7200         Becke 88

   => Exact (HF) Exchange <=

    0.2000               HF 

   => Correlation Functionals <=

    0.1900   Vosko, Wilk & Nusair (VWN5_RPA)
    0.8100   Lee, Yang & Parr

   => LibXC Density Thresholds  <==

    XC_HYB_GGA_XC_B3LYP:  1.00E-15 

   => Molecular Quadrature <=

    Radial Scheme          =       TREUTLER
    Pruning Scheme         =           NONE
    Nuclear Scheme         =       TREUTLER

    Blocking Scheme        =         OCTREE
    BS radius alpha        =              1
    Pruning alpha          =              1
    Radial Points          =             75
    Spherical Points       =            302
    Total Points           =          41558
    Total Blocks           =            387
    Max Points             =            251
    Max Functions          =             36
    Weights Tolerance      =       1.00E-15

   => Loading Basis Set <=

    Name: (CC-PVDZ AUX)
    Role: JKFIT
    Keyword: DF_BASIS_SCF
    atoms 1 entry SI         line   445 file /home/jrodriguesro/psi4conda/share/psi4/basis/cc-pvdz-jkfit.gbs 
    atoms 2 entry AR         line   741 file /home/jrodriguesro/psi4conda/share/psi4/basis/cc-pvdz-jkfit.gbs 

   => Loading Basis Set <=

    Name: CC-PVDZ
    Role: ORBITAL
    Keyword: BASIS
    atoms 1 entry SI         line   478 file /home/jrodriguesro/psi4conda/share/psi4/basis/cc-pvdz.gbs 
    atoms 2 entry AR         line   718 file /home/jrodriguesro/psi4conda/share/psi4/basis/cc-pvdz.gbs 

  Reading orbitals from file /tmp/quartet_SiAr.default.423046.180.npy, no projection.

  ==> Integral Setup <==

  DFHelper Memory: AOs need 0.003 GiB; user supplied 5.546 GiB. 
  SCF_SUBTYPE=INCORE selected. In-core MEM_DF algorithm will be used.
  Using in-core AOs.

  ==> MemDFJK: Density-Fitted J/K Matrices <==

    J tasked:                   Yes
    K tasked:                   Yes
    wK tasked:                   No
    OpenMP threads:               5
    Memory [MiB]:              5679
    Algorithm:                 Core
    Schwarz Cutoff:           1E-12
    Mask sparsity (%):       0.0000
    Fitting Condition:        1E-10

   => Auxiliary Basis Set <=

  Basis Set: (CC-PVDZ AUX)
    Blend: CC-PVDZ-JKFIT
    Number of shells: 72
    Number of basis functions: 224
    Number of Cartesian functions: 260
    Spherical Harmonics?: true
    Max angular momentum: 3

  Cached 100.0% of DFT collocation blocks in 0.042 [GiB].

  Minimum eigenvalue in the overlap matrix is 2.3397474100E-02.
  Reciprocal condition number of the overlap matrix is 7.9620186483E-03.
    Using symmetric orthogonalization.

  ==> Pre-Iterations <==

  SCF Guess: Orbitals guess was supplied from a previous computation.

   -------------------------------------------------------
    Irrep   Nso     Nmo     Nalpha   Nbeta   Ndocc  Nsocc
   -------------------------------------------------------
     A1        18      18       9       8       8       1
     A2         2       2       0       0       0       0
     B1         8       8       4       3       3       1
     B2         8       8       4       3       3       1
   -------------------------------------------------------
    Total      36      36      17      14      14       3
   -------------------------------------------------------

  ==> Iterations <==

                           Total Energy        Delta E     RMS |[F,P]|

   @DF-UKS iter   0:  -816.34206543687378   -8.16342e+02   2.46730e-02 
   @DF-UKS iter   1:  -816.36779191875064   -2.57265e-02   1.22288e-03 ADIIS/DIIS
   @DF-UKS iter   2:  -816.36814579049417   -3.53872e-04   8.19856e-04 ADIIS/DIIS/DAMP=1%
   @DF-UKS iter   3:  -816.36790119854629    2.44592e-04   1.58413e-04 ADIIS/DIIS/DAMP=1%
   @DF-UKS iter   4:  -816.36847587190152   -5.74673e-04   1.14764e-05 DIIS/DAMP=1%
   @DF-UKS iter   5:  -816.36833370412910    1.42168e-04   2.51573e-06 DIIS/DAMP=1%
   @DF-UKS iter   6:  -816.36833764810581   -3.94398e-06   6.04812e-07 DIIS/DAMP=1%
   @DF-UKS iter   7:  -816.36833826501993   -6.16914e-07   1.20466e-07 DIIS/DAMP=1%
   @DF-UKS iter   8:  -816.36833738378118    8.81239e-07   1.02272e-08 DIIS/DAMP=1%
   @DF-UKS iter   9:  -816.36833754280212   -1.59021e-07   1.22752e-09 DIIS/DAMP=1%
   @DF-UKS iter  10:  -816.36833753947099    3.33114e-09   7.92182e-11 DIIS/DAMP=1%
  Energy and wave function converged.


  ==> Post-Iterations <==

   Electrons on quadrature grid:
      Nalpha   =   16.9999993287 ; deviation = -6.713e-07
      Nbeta    =   13.9999993287 ; deviation = -6.713e-07
      Ntotal   =   30.9999986574 ; deviation = -1.343e-06 

   @Spin Contamination Metric:   7.160770959E-04
   @S^2 Expected:                3.750000000E+00
   @S^2 Observed:                3.750716077E+00
   @S   Expected:                1.500000000E+00
   @S   Observed:                1.500000000E+00

    Orbital Energies [Eh]
    ---------------------

    Alpha Occupied:                                                       

       1A1  -115.488784     2A1   -66.461358     3A1   -11.535055  
       4A1    -9.089426     1B1    -9.081436     1B2    -9.081436  
       5A1    -5.618718     6A1    -3.983012     2B1    -3.974683  
       2B2    -3.974683     7A1    -1.415704     8A1    -0.937954  
       3B1    -0.826025     3B2    -0.826025     9A1    -0.651847  
       4B1    -0.444552     4B2    -0.444552  

    Alpha Virtual:                                                        

      10A1    -0.225669    11A1    -0.053824     5B2    -0.001806  
       5B1    -0.001806    12A1     0.041146     1A2     0.041148  
      13A1     0.059361     6B2     0.087452     6B1     0.087452  
      14A1     0.101991     7B2     0.306639     7B1     0.306639  
       2A2     0.471487    15A1     0.471488    16A1     0.486626  
      17A1     0.633883     8B1     0.683121     8B2     0.683121  
      18A1     1.183602  

    Beta Occupied:                                                        

       1A1  -115.486587     2A1   -66.448122     3A1   -11.532896  
       4A1    -9.086133     1B1    -9.078517     1B2    -9.078517  
       5A1    -5.601678     6A1    -3.970417     2B1    -3.952728  
       2B2    -3.952728     7A1    -1.402477     8A1    -0.909322  
       3B1    -0.811939     3B2    -0.811939  

    Beta Virtual:                                                         

       9A1    -0.463755     4B1    -0.283838     4B2    -0.283838  
      10A1    -0.176181    11A1    -0.032681     5B2     0.045808  
       5B1     0.045808    12A1     0.101386    13A1     0.138808  
       1A2     0.152741    14A1     0.152748     6B2     0.163380  
       6B1     0.163380     7B2     0.315833     7B1     0.315833  
       2A2     0.489255    15A1     0.489257    16A1     0.523938  
      17A1     0.651756     8B1     0.716746     8B2     0.716746  
      18A1     1.200311  

    Final Occupation by Irrep:
             A1    A2    B1    B2 
    DOCC [     8,    0,    3,    3 ]
    SOCC [     1,    0,    1,    1 ]
    NA   [     9,    0,    4,    4 ]
    NB   [     8,    0,    3,    3 ]

  @DF-UKS Final Energy:  -816.36833753947099

   => Energetics <=

    Nuclear Repulsion Energy =             77.4144190574211706
    One-Electron Energy =               -1272.0364566464606924
    Two-Electron Energy =                 419.8556401796406021
    DFT Exchange-Correlation Energy =     -41.6019401300721015
    Empirical Dispersion Energy =           0.0000000000000000
    VV10 Nonlocal Energy =                  0.0000000000000000
    Total Energy =                       -816.3683375394709856

  UHF NO Occupations:
  HONO-2 :    4 B1 1.0000000
  HONO-1 :    4 B2 1.0000000
  HONO-0 :    9 A1 1.0000000
  LUNO+0 :   10 A1 0.0001719
  LUNO+1 :    5 B2 0.0000905
  LUNO+2 :    5 B1 0.0000905
  LUNO+3 :   11 A1 0.0000046


Computation Completed


Properties will be evaluated at   0.000000,   0.000000,   0.000000 [a0]

Properties computed using the SCF density matrix


 Multipole Moments:

 ------------------------------------------------------------------------------------
     Multipole            Electronic (a.u.)      Nuclear  (a.u.)        Total (a.u.)
 ------------------------------------------------------------------------------------

 L = 1.  Multiply by 2.5417464519 to convert [e a0] to [Debye]
 Dipole X            :          0.0000000            0.0000000            0.0000000
 Dipole Y            :          0.0000000            0.0000000            0.0000000
 Dipole Z            :         -2.6321885            2.6778204            0.0456320
 Magnitude           :                                                    0.0456320

 ------------------------------------------------------------------------------------

*** tstop() called on cics-quant-001 at Tue Dec 23 11:50:54 2025
Module time:
	user time   =       0.71 seconds =       0.01 minutes
	system time =       0.07 seconds =       0.00 minutes
	total time  =          0 seconds =       0.00 minutes
Total time:
	user time   =       6.94 seconds =       0.12 minutes
	system time =       1.15 seconds =       0.02 minutes
	total time  =          4 seconds =       0.07 minutes

*** tstart() called on cics-quant-001
*** at Tue Dec 23 11:50:54 2025


         ------------------------------------------------------------
                                   SCF GRAD                          
                          Rob Parrish, Justin Turney,                
                       Andy Simmonett, and Alex Sokolov              
         ------------------------------------------------------------

  ==> Geometry <==

    Molecular point group: c2v
    Full point group: C_inf_v

    Geometry (in Angstrom), charge = 1, multiplicity = 4:

       Center              X                  Y                   Z               Mass       
    ------------   -----------------  -----------------  -----------------  -----------------
         SI           0.000000000000     0.000000000000     1.013234722030    27.976926534650
         AR           0.000000000000     0.000000000000    -0.709346919898    39.962383123700

  Nuclear repulsion =   77.414419057421171

  ==> Basis Set <==

  Basis Set: CC-PVDZ
    Blend: CC-PVDZ
    Number of shells: 16
    Number of basis functions: 36
    Number of Cartesian functions: 38
    Spherical Harmonics?: true
    Max angular momentum: 2

  ==> DFJKGrad: Density-Fitted SCF Gradients <==

    Gradient:                    1
    J tasked:                  Yes
    K tasked:                  Yes
    wK tasked:                  No
    OpenMP threads:              5
    Integrals threads:           5
    Memory [MiB]:             5722
    Schwarz Cutoff:          1E-12
    Fitting Condition:       1E-10

   => Auxiliary Basis Set <=

  Basis Set: (CC-PVDZ AUX)
    Blend: CC-PVDZ-JKFIT
    Number of shells: 72
    Number of basis functions: 224
    Number of Cartesian functions: 260
    Spherical Harmonics?: true
    Max angular momentum: 3

  ==> DFT Potential <==

   => LibXC <=

    Version 7.0.0
    S. Lehtola, C. Steigemann, M. J.T. Oliveira, and M. A.L. Marques.,  SoftwareX 7, 1–5 (2018) (10.1016/j.softx.2017.11.002)

   => Composite Functional: B3LYP <= 

    B3LYP Hyb-GGA Exchange-Correlation Functional

    P. J. Stephens, F. J. Devlin, C. F. Chabalowski, and M. J. Frisch.,  J. Phys. Chem. 98, 11623 (1994) (10.1021/j100096a001)

    Deriv               =              1
    GGA                 =           TRUE
    Meta                =          FALSE

    Exchange Hybrid     =           TRUE
    MP2 Hybrid          =          FALSE

   => Exchange Functionals <=

    0.0800   Slater exchange
    0.7200         Becke 88

   => Exact (HF) Exchange <=

    0.2000               HF 

   => Correlation Functionals <=

    0.1900   Vosko, Wilk & Nusair (VWN5_RPA)
    0.8100   Lee, Yang & Parr

   => LibXC Density Thresholds  <==

    XC_HYB_GGA_XC_B3LYP:  1.00E-15 

   => Molecular Quadrature <=

    Radial Scheme          =       TREUTLER
    Pruning Scheme         =           NONE
    Nuclear Scheme         =       TREUTLER

    Blocking Scheme        =         OCTREE
    BS radius alpha        =              1
    Pruning alpha          =              1
    Radial Points          =             75
    Spherical Points       =            302
    Total Points           =          41558
    Total Blocks           =            387
    Max Points             =            251
    Max Functions          =             36
    Weights Tolerance      =       1.00E-15


  -Total Gradient:
     Atom            X                  Y                   Z
    ------   -----------------  -----------------  -----------------
       1        0.000000000000     0.000000000000    -0.316528299645
       2        0.000000000000     0.000000000000     0.316567003029


*** tstop() called on cics-quant-001 at Tue Dec 23 11:50:54 2025
Module time:
	user time   =       0.22 seconds =       0.00 minutes
	system time =       0.11 seconds =       0.00 minutes
	total time  =          0 seconds =       0.00 minutes
Total time:
	user time   =       7.16 seconds =       0.12 minutes
	system time =       1.26 seconds =       0.02 minutes
	total time  =          4 seconds =       0.07 minutes

    			-----------------------------------------

    			 OPTKING 3.0: for geometry optimizations 

    			     By R.A. King, Bethel University     

    			        with contributions from          

    			    A.V. Copan, J. Cayton, A. Heide      

    			-----------------------------------------

    
	                            ===> Fragment 1 <== 

	 Z (Atomic Numbers)          Masses                          Geom                  
	      14.000000            27.976927          0.00000000  0.00000000  1.91473613   
	      18.000000            39.962383          0.00000000  0.00000000 -1.34047141   

	 - Coordinate -           - BOHR/RAD -       - ANG/DEG -
	 R(1,2)           =         3.255208           1.722582


	        --- Internal Coordinate Step in ANG or DEG, aJ/ANG or AJ/DEG ---
	-------------------------------------------------------------------------------
	           Coordinate      Previous         Force          Change          New 
	           ----------      --------        ------          ------        ------
	               R(1,2)       1.72258        2.60795        0.14809       1.87067
	-------------------------------------------------------------------------------

	                                 ==> Convergence Check <==                                  
    
	Measures of convergence in internal coordinates in au.
    
	Criteria marked as inactive (o), active & met (*), and active & unmet ( ).

	----------------------------------------------------------------------------------------------
	   Step    Total Energy     Delta E     Max Force     RMS Force      Max Disp      RMS Disp   
	----------------------------------------------------------------------------------------------
	  Convergence Criteria     1.00e-06 *    3.00e-04 *             o    1.20e-03 *             o
	----------------------------------------------------------------------------------------------
	     7    -816.36833754   -1.20e-01      3.17e-01      3.17e-01 o    2.80e-01      2.80e-01 o  ~
	----------------------------------------------------------------------------------------------

Next Geometry in Ang 
	Fragment 1 (Ang)

	   Si   0.0000000000   0.0000000000   1.0872794221
	   Ar   0.0000000000   0.0000000000  -0.7833916200


    Structure for next step:
    Molecular point group: c2v
    Full point group: C_inf_v

    Geometry (in Angstrom), charge = 1, multiplicity = 4:

    SI           0.000000000000     0.000000000000     1.100341956057
    AR           0.000000000000     0.000000000000    -0.770329086039


Scratch directory: /tmp/
gradient() will perform analytic gradient computation.
   => Libint2 <=

    Primary   basis highest AM E, G, H:  6, 6, 3
    Auxiliary basis highest AM E, G, H:  7, 7, 4
    Onebody   basis highest AM E, G, H:  -, -, -
    Solid Harmonics ordering:            Gaussian

*** tstart() called on cics-quant-001
*** at Tue Dec 23 11:50:54 2025

   => Loading Basis Set <=

    Name: CC-PVDZ
    Role: ORBITAL
    Keyword: BASIS
    atoms 1 entry SI         line   478 file /home/jrodriguesro/psi4conda/share/psi4/basis/cc-pvdz.gbs 
    atoms 2 entry AR         line   718 file /home/jrodriguesro/psi4conda/share/psi4/basis/cc-pvdz.gbs 


         ---------------------------------------------------------
                                   SCF
               by Justin Turney, Rob Parrish, Andy Simmonett
                          and Daniel G. A. Smith
                              UKS Reference
                        5 Threads,   7629 MiB Core
         ---------------------------------------------------------

  ==> Geometry <==

    Molecular point group: c2v
    Full point group: C_inf_v

    Geometry (in Angstrom), charge = 1, multiplicity = 4:

       Center              X                  Y                   Z               Mass       
    ------------   -----------------  -----------------  -----------------  -----------------
         SI           0.000000000000     0.000000000000     1.100341956057    27.976926534650
         AR           0.000000000000     0.000000000000    -0.770329086039    39.962383123700

  Running in c2v symmetry.

  Rotational constants: A = ************  B =      0.29273  C =      0.29273 [cm^-1]
  Rotational constants: A = ************  B =   8775.90878  C =   8775.90878 [MHz]
  Nuclear repulsion =   71.286000631859380

  Charge       = 1
  Multiplicity = 4
  Electrons    = 31
  Nalpha       = 17
  Nbeta        = 14

  ==> Algorithm <==

  SCF Algorithm Type is DF.
  DIIS enabled.
  MOM disabled.
  Fractional occupation disabled.
  Guess Type is READ.
  Energy threshold   = 1.00e-08
  Density threshold  = 1.00e-08
  Integral threshold = 1.00e-12

  ==> Primary Basis <==

  Basis Set: CC-PVDZ
    Blend: CC-PVDZ
    Number of shells: 16
    Number of basis functions: 36
    Number of Cartesian functions: 38
    Spherical Harmonics?: true
    Max angular momentum: 2

  ==> DFT Potential <==

   => LibXC <=

    Version 7.0.0
    S. Lehtola, C. Steigemann, M. J.T. Oliveira, and M. A.L. Marques.,  SoftwareX 7, 1–5 (2018) (10.1016/j.softx.2017.11.002)

   => Composite Functional: B3LYP <= 

    B3LYP Hyb-GGA Exchange-Correlation Functional

    P. J. Stephens, F. J. Devlin, C. F. Chabalowski, and M. J. Frisch.,  J. Phys. Chem. 98, 11623 (1994) (10.1021/j100096a001)

    Deriv               =              1
    GGA                 =           TRUE
    Meta                =          FALSE

    Exchange Hybrid     =           TRUE
    MP2 Hybrid          =          FALSE

   => Exchange Functionals <=

    0.0800   Slater exchange
    0.7200         Becke 88

   => Exact (HF) Exchange <=

    0.2000               HF 

   => Correlation Functionals <=

    0.1900   Vosko, Wilk & Nusair (VWN5_RPA)
    0.8100   Lee, Yang & Parr

   => LibXC Density Thresholds  <==

    XC_HYB_GGA_XC_B3LYP:  1.00E-15 

   => Molecular Quadrature <=

    Radial Scheme          =       TREUTLER
    Pruning Scheme         =           NONE
    Nuclear Scheme         =       TREUTLER

    Blocking Scheme        =         OCTREE
    BS radius alpha        =              1
    Pruning alpha          =              1
    Radial Points          =             75
    Spherical Points       =            302
    Total Points           =          41569
    Total Blocks           =            386
    Max Points             =            254
    Max Functions          =             36
    Weights Tolerance      =       1.00E-15

   => Loading Basis Set <=

    Name: (CC-PVDZ AUX)
    Role: JKFIT
    Keyword: DF_BASIS_SCF
    atoms 1 entry SI         line   445 file /home/jrodriguesro/psi4conda/share/psi4/basis/cc-pvdz-jkfit.gbs 
    atoms 2 entry AR         line   741 file /home/jrodriguesro/psi4conda/share/psi4/basis/cc-pvdz-jkfit.gbs 

   => Loading Basis Set <=

    Name: CC-PVDZ
    Role: ORBITAL
    Keyword: BASIS
    atoms 1 entry SI         line   478 file /home/jrodriguesro/psi4conda/share/psi4/basis/cc-pvdz.gbs 
    atoms 2 entry AR         line   718 file /home/jrodriguesro/psi4conda/share/psi4/basis/cc-pvdz.gbs 

  Reading orbitals from file /tmp/quartet_SiAr.default.423046.180.npy, no projection.

  ==> Integral Setup <==

  DFHelper Memory: AOs need 0.003 GiB; user supplied 5.546 GiB. 
  SCF_SUBTYPE=INCORE selected. In-core MEM_DF algorithm will be used.
  Using in-core AOs.

  ==> MemDFJK: Density-Fitted J/K Matrices <==

    J tasked:                   Yes
    K tasked:                   Yes
    wK tasked:                   No
    OpenMP threads:               5
    Memory [MiB]:              5679
    Algorithm:                 Core
    Schwarz Cutoff:           1E-12
    Mask sparsity (%):       0.0000
    Fitting Condition:        1E-10

   => Auxiliary Basis Set <=

  Basis Set: (CC-PVDZ AUX)
    Blend: CC-PVDZ-JKFIT
    Number of shells: 72
    Number of basis functions: 224
    Number of Cartesian functions: 260
    Spherical Harmonics?: true
    Max angular momentum: 3

  Cached 100.0% of DFT collocation blocks in 0.042 [GiB].

  Minimum eigenvalue in the overlap matrix is 2.8060193922E-02.
  Reciprocal condition number of the overlap matrix is 9.8197425978E-03.
    Using symmetric orthogonalization.

  ==> Pre-Iterations <==

  SCF Guess: Orbitals guess was supplied from a previous computation.

   -------------------------------------------------------
    Irrep   Nso     Nmo     Nalpha   Nbeta   Ndocc  Nsocc
   -------------------------------------------------------
     A1        18      18       9       8       8       1
     A2         2       2       0       0       0       0
     B1         8       8       4       3       3       1
     B2         8       8       4       3       3       1
   -------------------------------------------------------
    Total      36      36      17      14      14       3
   -------------------------------------------------------

  ==> Iterations <==

                           Total Energy        Delta E     RMS |[F,P]|

   @DF-UKS iter   0:  -816.37666771988756   -8.16377e+02   1.90745e-02 
   @DF-UKS iter   1:  -816.43132335394273   -5.46556e-02   1.60644e-03 ADIIS/DIIS
   @DF-UKS iter   2:  -816.43171219742749   -3.88843e-04   1.36449e-03 ADIIS/DIIS/DAMP=1%
   @DF-UKS iter   3:  -816.43078882392660    9.23374e-04   1.06557e-04 ADIIS/DIIS/DAMP=1%
   @DF-UKS iter   4:  -816.43222635482812   -1.43753e-03   3.30381e-05 DIIS/DAMP=1%
   @DF-UKS iter   5:  -816.43219655986286    2.97950e-05   8.32031e-06 DIIS/DAMP=1%
   @DF-UKS iter   6:  -816.43218832417347    8.23569e-06   9.73167e-07 DIIS/DAMP=1%
   @DF-UKS iter   7:  -816.43219528205111   -6.95788e-06   9.19559e-08 DIIS/DAMP=1%
   @DF-UKS iter   8:  -816.43219386273825    1.41931e-06   1.32001e-08 DIIS/DAMP=1%
   @DF-UKS iter   9:  -816.43219396525171   -1.02513e-07   1.97225e-09 DIIS/DAMP=1%
   @DF-UKS iter  10:  -816.43219396191023    3.34148e-09   1.72299e-10 DIIS/DAMP=1%
  Energy and wave function converged.


  ==> Post-Iterations <==

   Electrons on quadrature grid:
      Nalpha   =   16.9999997630 ; deviation = -2.370e-07
      Nbeta    =   13.9999998820 ; deviation = -1.180e-07
      Ntotal   =   30.9999996450 ; deviation = -3.550e-07 

   @Spin Contamination Metric:   6.693144657E-04
   @S^2 Expected:                3.750000000E+00
   @S^2 Observed:                3.750669314E+00
   @S   Expected:                1.500000000E+00
   @S   Observed:                1.500000000E+00

    Orbital Energies [Eh]
    ---------------------

    Alpha Occupied:                                                       

       1A1  -115.476000     2A1   -66.473122     3A1   -11.517312  
       4A1    -9.072120     1B1    -9.064210     1B2    -9.064210  
       5A1    -5.622426     6A1    -3.985406     2B2    -3.979570  
       2B1    -3.979570     7A1    -1.376734     8A1    -0.908255  
       3B1    -0.796508     3B2    -0.796508     9A1    -0.663732  
       4B2    -0.450885     4B1    -0.450885  

    Alpha Virtual:                                                        

      10A1    -0.254590    11A1    -0.053337     5B1     0.014635  
       5B2     0.014635    12A1     0.050229     1A2     0.050230  
      13A1     0.054177     6B2     0.078978     6B1     0.078978  
      14A1     0.120152     7B1     0.317518     7B2     0.317518  
      15A1     0.432319    16A1     0.484057     2A2     0.484058  
      17A1     0.604079     8B2     0.643280     8B1     0.643280  
      18A1     1.120246  

    Beta Occupied:                                                        

       1A1  -115.473965     2A1   -66.459759     3A1   -11.515325  
       4A1    -9.068552     1B1    -9.061761     1B2    -9.061761  
       5A1    -5.605038     6A1    -3.973355     2B2    -3.957385  
       2B1    -3.957385     7A1    -1.364702     8A1    -0.878046  
       3B1    -0.785236     3B2    -0.785236  

    Beta Virtual:                                                         

       9A1    -0.480129     4B2    -0.287177     4B1    -0.287177  
      10A1    -0.199238    11A1    -0.033770     5B1     0.069664  
       5B2     0.069664    12A1     0.097999     6B2     0.150289  
       6B1     0.150289    13A1     0.153981     1A2     0.168366  
      14A1     0.168370     7B1     0.323877     7B2     0.323877  
      15A1     0.471995    16A1     0.496048     2A2     0.496048  
      17A1     0.617599     8B2     0.672775     8B1     0.672775  
      18A1     1.135349  

    Final Occupation by Irrep:
             A1    A2    B1    B2 
    DOCC [     8,    0,    3,    3 ]
    SOCC [     1,    0,    1,    1 ]
    NA   [     9,    0,    4,    4 ]
    NB   [     8,    0,    3,    3 ]

  @DF-UKS Final Energy:  -816.43219396191023

   => Energetics <=

    Nuclear Repulsion Energy =             71.2860006318593804
    One-Electron Energy =               -1260.2766762429337177
    Two-Electron Energy =                 414.1082683690997328
    DFT Exchange-Correlation Energy =     -41.5497867199357458
    Empirical Dispersion Energy =           0.0000000000000000
    VV10 Nonlocal Energy =                  0.0000000000000000
    Total Energy =                       -816.4321939619102295

  UHF NO Occupations:
  HONO-2 :    9 A1 1.0000000
  HONO-1 :    4 B1 1.0000000
  HONO-0 :    4 B2 1.0000000
  LUNO+0 :   10 A1 0.0001994
  LUNO+1 :    5 B1 0.0000646
  LUNO+2 :    5 B2 0.0000646
  LUNO+3 :   11 A1 0.0000054


Computation Completed


Properties will be evaluated at   0.000000,   0.000000,   0.000000 [a0]

Properties computed using the SCF density matrix


 Multipole Moments:

 ------------------------------------------------------------------------------------
     Multipole            Electronic (a.u.)      Nuclear  (a.u.)        Total (a.u.)
 ------------------------------------------------------------------------------------

 L = 1.  Multiply by 2.5417464519 to convert [e a0] to [Debye]
 Dipole X            :          0.0000000            0.0000000            0.0000000
 Dipole Y            :          0.0000000            0.0000000            0.0000000
 Dipole Z            :         -2.6187727            2.9080312            0.2892585
 Magnitude           :                                                    0.2892585

 ------------------------------------------------------------------------------------

*** tstop() called on cics-quant-001 at Tue Dec 23 11:50:55 2025
Module time:
	user time   =       0.80 seconds =       0.01 minutes
	system time =       0.10 seconds =       0.00 minutes
	total time  =          1 seconds =       0.02 minutes
Total time:
	user time   =       7.98 seconds =       0.13 minutes
	system time =       1.36 seconds =       0.02 minutes
	total time  =          5 seconds =       0.08 minutes

*** tstart() called on cics-quant-001
*** at Tue Dec 23 11:50:55 2025


         ------------------------------------------------------------
                                   SCF GRAD                          
                          Rob Parrish, Justin Turney,                
                       Andy Simmonett, and Alex Sokolov              
         ------------------------------------------------------------

  ==> Geometry <==

    Molecular point group: c2v
    Full point group: C_inf_v

    Geometry (in Angstrom), charge = 1, multiplicity = 4:

       Center              X                  Y                   Z               Mass       
    ------------   -----------------  -----------------  -----------------  -----------------
         SI           0.000000000000     0.000000000000     1.100341956057    27.976926534650
         AR           0.000000000000     0.000000000000    -0.770329086039    39.962383123700

  Nuclear repulsion =   71.286000631859380

  ==> Basis Set <==

  Basis Set: CC-PVDZ
    Blend: CC-PVDZ
    Number of shells: 16
    Number of basis functions: 36
    Number of Cartesian functions: 38
    Spherical Harmonics?: true
    Max angular momentum: 2

  ==> DFJKGrad: Density-Fitted SCF Gradients <==

    Gradient:                    1
    J tasked:                  Yes
    K tasked:                  Yes
    wK tasked:                  No
    OpenMP threads:              5
    Integrals threads:           5
    Memory [MiB]:             5722
    Schwarz Cutoff:          1E-12
    Fitting Condition:       1E-10

   => Auxiliary Basis Set <=

  Basis Set: (CC-PVDZ AUX)
    Blend: CC-PVDZ-JKFIT
    Number of shells: 72
    Number of basis functions: 224
    Number of Cartesian functions: 260
    Spherical Harmonics?: true
    Max angular momentum: 3

  ==> DFT Potential <==

   => LibXC <=

    Version 7.0.0
    S. Lehtola, C. Steigemann, M. J.T. Oliveira, and M. A.L. Marques.,  SoftwareX 7, 1–5 (2018) (10.1016/j.softx.2017.11.002)

   => Composite Functional: B3LYP <= 

    B3LYP Hyb-GGA Exchange-Correlation Functional

    P. J. Stephens, F. J. Devlin, C. F. Chabalowski, and M. J. Frisch.,  J. Phys. Chem. 98, 11623 (1994) (10.1021/j100096a001)

    Deriv               =              1
    GGA                 =           TRUE
    Meta                =          FALSE

    Exchange Hybrid     =           TRUE
    MP2 Hybrid          =          FALSE

   => Exchange Functionals <=

    0.0800   Slater exchange
    0.7200         Becke 88

   => Exact (HF) Exchange <=

    0.2000               HF 

   => Correlation Functionals <=

    0.1900   Vosko, Wilk & Nusair (VWN5_RPA)
    0.8100   Lee, Yang & Parr

   => LibXC Density Thresholds  <==

    XC_HYB_GGA_XC_B3LYP:  1.00E-15 

   => Molecular Quadrature <=

    Radial Scheme          =       TREUTLER
    Pruning Scheme         =           NONE
    Nuclear Scheme         =       TREUTLER

    Blocking Scheme        =         OCTREE
    BS radius alpha        =              1
    Pruning alpha          =              1
    Radial Points          =             75
    Spherical Points       =            302
    Total Points           =          41569
    Total Blocks           =            386
    Max Points             =            254
    Max Functions          =             36
    Weights Tolerance      =       1.00E-15


  -Total Gradient:
     Atom            X                  Y                   Z
    ------   -----------------  -----------------  -----------------
       1        0.000000000000     0.000000000000    -0.156026396785
       2        0.000000000000     0.000000000000     0.156060488339


*** tstop() called on cics-quant-001 at Tue Dec 23 11:50:55 2025
Module time:
	user time   =       0.25 seconds =       0.00 minutes
	system time =       0.12 seconds =       0.00 minutes
	total time  =          0 seconds =       0.00 minutes
Total time:
	user time   =       8.23 seconds =       0.14 minutes
	system time =       1.48 seconds =       0.02 minutes
	total time  =          5 seconds =       0.08 minutes

    			-----------------------------------------

    			 OPTKING 3.0: for geometry optimizations 

    			     By R.A. King, Bethel University     

    			        with contributions from          

    			    A.V. Copan, J. Cayton, A. Heide      

    			-----------------------------------------

    
	                            ===> Fragment 1 <== 

	 Z (Atomic Numbers)          Masses                          Geom                  
	      14.000000            27.976927          0.00000000  0.00000000  2.07934494   
	      18.000000            39.962383          0.00000000  0.00000000 -1.45571100   

	 - Coordinate -           - BOHR/RAD -       - ANG/DEG -
	 R(1,2)           =         3.535056           1.870671


	        --- Internal Coordinate Step in ANG or DEG, aJ/ANG or AJ/DEG ---
	-------------------------------------------------------------------------------
	           Coordinate      Previous         Force          Change          New 
	           ----------      --------        ------          ------        ------
	               R(1,2)       1.87067        1.28560        0.13465       2.00532
	-------------------------------------------------------------------------------

	                                 ==> Convergence Check <==                                  
    
	Measures of convergence in internal coordinates in au.
    
	Criteria marked as inactive (o), active & met (*), and active & unmet ( ).

	----------------------------------------------------------------------------------------------
	   Step    Total Energy     Delta E     Max Force     RMS Force      Max Disp      RMS Disp   
	----------------------------------------------------------------------------------------------
	  Convergence Criteria     1.00e-06 *    3.00e-04 *             o    1.20e-03 *             o
	----------------------------------------------------------------------------------------------
	     8    -816.43219396   -6.39e-02      1.56e-01      1.56e-01 o    2.54e-01      2.54e-01 o  ~
	----------------------------------------------------------------------------------------------

Next Geometry in Ang 
	Fragment 1 (Ang)

	   Si   0.0000000000   0.0000000000   1.1676678359
	   Ar   0.0000000000   0.0000000000  -0.8376549658


    Structure for next step:
    Molecular point group: c2v
    Full point group: C_inf_v

    Geometry (in Angstrom), charge = 1, multiplicity = 4:

    SI           0.000000000000     0.000000000000     1.179545074729
    AR           0.000000000000     0.000000000000    -0.825777726965


Scratch directory: /tmp/
gradient() will perform analytic gradient computation.
   => Libint2 <=

    Primary   basis highest AM E, G, H:  6, 6, 3
    Auxiliary basis highest AM E, G, H:  7, 7, 4
    Onebody   basis highest AM E, G, H:  -, -, -
    Solid Harmonics ordering:            Gaussian

*** tstart() called on cics-quant-001
*** at Tue Dec 23 11:50:55 2025

   => Loading Basis Set <=

    Name: CC-PVDZ
    Role: ORBITAL
    Keyword: BASIS
    atoms 1 entry SI         line   478 file /home/jrodriguesro/psi4conda/share/psi4/basis/cc-pvdz.gbs 
    atoms 2 entry AR         line   718 file /home/jrodriguesro/psi4conda/share/psi4/basis/cc-pvdz.gbs 


         ---------------------------------------------------------
                                   SCF
               by Justin Turney, Rob Parrish, Andy Simmonett
                          and Daniel G. A. Smith
                              UKS Reference
                        5 Threads,   7629 MiB Core
         ---------------------------------------------------------

  ==> Geometry <==

    Molecular point group: c2v
    Full point group: C_inf_v

    Geometry (in Angstrom), charge = 1, multiplicity = 4:

       Center              X                  Y                   Z               Mass       
    ------------   -----------------  -----------------  -----------------  -----------------
         SI           0.000000000000     0.000000000000     1.179545074729    27.976926534650
         AR           0.000000000000     0.000000000000    -0.825777726965    39.962383123700

  Running in c2v symmetry.

  Rotational constants: A = ************  B =      0.25474  C =      0.25474 [cm^-1]
  Rotational constants: A = ************  B =   7636.92215  C =   7636.92215 [MHz]
  Nuclear repulsion =   66.499347125638621

  Charge       = 1
  Multiplicity = 4
  Electrons    = 31
  Nalpha       = 17
  Nbeta        = 14

  ==> Algorithm <==

  SCF Algorithm Type is DF.
  DIIS enabled.
  MOM disabled.
  Fractional occupation disabled.
  Guess Type is READ.
  Energy threshold   = 1.00e-08
  Density threshold  = 1.00e-08
  Integral threshold = 1.00e-12

  ==> Primary Basis <==

  Basis Set: CC-PVDZ
    Blend: CC-PVDZ
    Number of shells: 16
    Number of basis functions: 36
    Number of Cartesian functions: 38
    Spherical Harmonics?: true
    Max angular momentum: 2

  ==> DFT Potential <==

   => LibXC <=

    Version 7.0.0
    S. Lehtola, C. Steigemann, M. J.T. Oliveira, and M. A.L. Marques.,  SoftwareX 7, 1–5 (2018) (10.1016/j.softx.2017.11.002)

   => Composite Functional: B3LYP <= 

    B3LYP Hyb-GGA Exchange-Correlation Functional

    P. J. Stephens, F. J. Devlin, C. F. Chabalowski, and M. J. Frisch.,  J. Phys. Chem. 98, 11623 (1994) (10.1021/j100096a001)

    Deriv               =              1
    GGA                 =           TRUE
    Meta                =          FALSE

    Exchange Hybrid     =           TRUE
    MP2 Hybrid          =          FALSE

   => Exchange Functionals <=

    0.0800   Slater exchange
    0.7200         Becke 88

   => Exact (HF) Exchange <=

    0.2000               HF 

   => Correlation Functionals <=

    0.1900   Vosko, Wilk & Nusair (VWN5_RPA)
    0.8100   Lee, Yang & Parr

   => LibXC Density Thresholds  <==

    XC_HYB_GGA_XC_B3LYP:  1.00E-15 

   => Molecular Quadrature <=

    Radial Scheme          =       TREUTLER
    Pruning Scheme         =           NONE
    Nuclear Scheme         =       TREUTLER

    Blocking Scheme        =         OCTREE
    BS radius alpha        =              1
    Pruning alpha          =              1
    Radial Points          =             75
    Spherical Points       =            302
    Total Points           =          41590
    Total Blocks           =            384
    Max Points             =            255
    Max Functions          =             36
    Weights Tolerance      =       1.00E-15

   => Loading Basis Set <=

    Name: (CC-PVDZ AUX)
    Role: JKFIT
    Keyword: DF_BASIS_SCF
    atoms 1 entry SI         line   445 file /home/jrodriguesro/psi4conda/share/psi4/basis/cc-pvdz-jkfit.gbs 
    atoms 2 entry AR         line   741 file /home/jrodriguesro/psi4conda/share/psi4/basis/cc-pvdz-jkfit.gbs 

   => Loading Basis Set <=

    Name: CC-PVDZ
    Role: ORBITAL
    Keyword: BASIS
    atoms 1 entry SI         line   478 file /home/jrodriguesro/psi4conda/share/psi4/basis/cc-pvdz.gbs 
    atoms 2 entry AR         line   718 file /home/jrodriguesro/psi4conda/share/psi4/basis/cc-pvdz.gbs 

  Reading orbitals from file /tmp/quartet_SiAr.default.423046.180.npy, no projection.

  ==> Integral Setup <==

  DFHelper Memory: AOs need 0.003 GiB; user supplied 5.546 GiB. 
  SCF_SUBTYPE=INCORE selected. In-core MEM_DF algorithm will be used.
  Using in-core AOs.

  ==> MemDFJK: Density-Fitted J/K Matrices <==

    J tasked:                   Yes
    K tasked:                   Yes
    wK tasked:                   No
    OpenMP threads:               5
    Memory [MiB]:              5679
    Algorithm:                 Core
    Schwarz Cutoff:           1E-12
    Mask sparsity (%):       0.0000
    Fitting Condition:        1E-10

   => Auxiliary Basis Set <=

  Basis Set: (CC-PVDZ AUX)
    Blend: CC-PVDZ-JKFIT
    Number of shells: 72
    Number of basis functions: 224
    Number of Cartesian functions: 260
    Spherical Harmonics?: true
    Max angular momentum: 3

  Cached 100.0% of DFT collocation blocks in 0.042 [GiB].

  Minimum eigenvalue in the overlap matrix is 3.2596695810E-02.
  Reciprocal condition number of the overlap matrix is 1.1757377077E-02.
    Using symmetric orthogonalization.

  ==> Pre-Iterations <==

  SCF Guess: Orbitals guess was supplied from a previous computation.

   -------------------------------------------------------
    Irrep   Nso     Nmo     Nalpha   Nbeta   Ndocc  Nsocc
   -------------------------------------------------------
     A1        18      18       9       8       8       1
     A2         2       2       0       0       0       0
     B1         8       8       4       3       3       1
     B2         8       8       4       3       3       1
   -------------------------------------------------------
    Total      36      36      17      14      14       3
   -------------------------------------------------------

  ==> Iterations <==

                           Total Energy        Delta E     RMS |[F,P]|

   @DF-UKS iter   0:  -816.40231388004463   -8.16402e+02   1.29621e-02 
   @DF-UKS iter   1:  -816.45974934611331   -5.74355e-02   1.65031e-03 ADIIS/DIIS
   @DF-UKS iter   2:  -816.46007391364265   -3.24568e-04   1.46298e-03 ADIIS/DIIS/DAMP=1%
   @DF-UKS iter   3:  -816.45904931941971    1.02459e-03   1.08636e-04 ADIIS/DIIS/DAMP=1%
   @DF-UKS iter   4:  -816.46062834718271   -1.57903e-03   3.66026e-05 DIIS/DAMP=1%
   @DF-UKS iter   5:  -816.46061583246069    1.25147e-05   5.68823e-06 DIIS/DAMP=1%
   @DF-UKS iter   6:  -816.46062060363965   -4.77118e-06   8.50451e-07 DIIS/DAMP=1%
   @DF-UKS iter   7:  -816.46062511884179   -4.51520e-06   9.52915e-08 DIIS/DAMP=1%
   @DF-UKS iter   8:  -816.46062401814720    1.10069e-06   1.78479e-08 DIIS/DAMP=1%
   @DF-UKS iter   9:  -816.46062410333457   -8.51874e-08   2.58879e-09 DIIS/DAMP=1%
   @DF-UKS iter  10:  -816.46062409830051    5.03405e-09   2.64210e-10 DIIS/DAMP=1%
  Energy and wave function converged.


  ==> Post-Iterations <==

   Electrons on quadrature grid:
      Nalpha   =   17.0000008370 ; deviation = 8.370e-07
      Nbeta    =   14.0000009849 ; deviation = 9.849e-07
      Ntotal   =   31.0000018219 ; deviation = 1.822e-06 

   @Spin Contamination Metric:   6.536985078E-04
   @S^2 Expected:                3.750000000E+00
   @S^2 Observed:                3.750653699E+00
   @S   Expected:                1.500000000E+00
   @S   Observed:                1.500000000E+00

    Orbital Energies [Eh]
    ---------------------

    Alpha Occupied:                                                       

       1A1  -115.462209     2A1   -66.483158     3A1   -11.500809  
       4A1    -9.055950     1B1    -9.047949     1B2    -9.047949  
       5A1    -5.627955     6A1    -3.990377     2B1    -3.985613  
       2B2    -3.985613     7A1    -1.346307     8A1    -0.880557  
       3B1    -0.772945     3B2    -0.772945     9A1    -0.674257  
       4B1    -0.455781     4B2    -0.455781  

    Alpha Virtual:                                                        

      10A1    -0.283224    11A1    -0.044511     5B2     0.025616  
       5B1     0.025616    12A1     0.048959    13A1     0.054553  
       1A2     0.054553     6B2     0.073041     6B1     0.073041  
      14A1     0.133638     7B2     0.330644     7B1     0.330644  
      15A1     0.396409    16A1     0.497992     2A2     0.497996  
      17A1     0.583328     8B2     0.613943     8B1     0.613943  
      18A1     1.064199  

    Beta Occupied:                                                        

       1A1  -115.460269     2A1   -66.469707     3A1   -11.498927  
       4A1    -9.052067     1B1    -9.045846     1B2    -9.045846  
       5A1    -5.610336     6A1    -3.978703     2B1    -3.963271  
       2B2    -3.963271     7A1    -1.335086     8A1    -0.847878  
       3B1    -0.763788     3B2    -0.763788  

    Beta Virtual:                                                         

       9A1    -0.495502     4B1    -0.289867     4B2    -0.289867  
      10A1    -0.225315    11A1    -0.023541     5B2     0.086982  
       5B1     0.086982    12A1     0.091426     6B2     0.140073  
       6B1     0.140073    13A1     0.170288     1A2     0.176524  
      14A1     0.176526     7B2     0.335612     7B1     0.335612  
      15A1     0.431667    16A1     0.506380     2A2     0.506385  
      17A1     0.595938     8B2     0.639826     8B1     0.639826  
      18A1     1.078930  

    Final Occupation by Irrep:
             A1    A2    B1    B2 
    DOCC [     8,    0,    3,    3 ]
    SOCC [     1,    0,    1,    1 ]
    NA   [     9,    0,    4,    4 ]
    NB   [     8,    0,    3,    3 ]

  @DF-UKS Final Energy:  -816.46062409830051

   => Energetics <=

    Nuclear Repulsion Energy =             66.4993471256386215
    One-Electron Energy =               -1251.0630984590497974
    Two-Electron Energy =                 409.6186921079820422
    DFT Exchange-Correlation Energy =     -41.5155648728714937
    Empirical Dispersion Energy =           0.0000000000000000
    VV10 Nonlocal Energy =                  0.0000000000000000
    Total Energy =                       -816.4606240983005137

  UHF NO Occupations:
  HONO-2 :    4 B2 1.0000000
  HONO-1 :    9 A1 1.0000000
  HONO-0 :    4 B1 1.0000000
  LUNO+0 :   10 A1 0.0002235
  LUNO+1 :    5 B2 0.0000479
  LUNO+2 :    5 B1 0.0000479
  LUNO+3 :   11 A1 0.0000069


Computation Completed


Properties will be evaluated at   0.000000,   0.000000,   0.000000 [a0]

Properties computed using the SCF density matrix


 Multipole Moments:

 ------------------------------------------------------------------------------------
     Multipole            Electronic (a.u.)      Nuclear  (a.u.)        Total (a.u.)
 ------------------------------------------------------------------------------------

 L = 1.  Multiply by 2.5417464519 to convert [e a0] to [Debye]
 Dipole X            :          0.0000000            0.0000000            0.0000000
 Dipole Y            :          0.0000000            0.0000000            0.0000000
 Dipole Z            :         -2.5981092            3.1173526            0.5192434
 Magnitude           :                                                    0.5192434

 ------------------------------------------------------------------------------------

*** tstop() called on cics-quant-001 at Tue Dec 23 11:50:55 2025
Module time:
	user time   =       0.73 seconds =       0.01 minutes
	system time =       0.08 seconds =       0.00 minutes
	total time  =          0 seconds =       0.00 minutes
Total time:
	user time   =       8.98 seconds =       0.15 minutes
	system time =       1.56 seconds =       0.03 minutes
	total time  =          5 seconds =       0.08 minutes

*** tstart() called on cics-quant-001
*** at Tue Dec 23 11:50:55 2025


         ------------------------------------------------------------
                                   SCF GRAD                          
                          Rob Parrish, Justin Turney,                
                       Andy Simmonett, and Alex Sokolov              
         ------------------------------------------------------------

  ==> Geometry <==

    Molecular point group: c2v
    Full point group: C_inf_v

    Geometry (in Angstrom), charge = 1, multiplicity = 4:

       Center              X                  Y                   Z               Mass       
    ------------   -----------------  -----------------  -----------------  -----------------
         SI           0.000000000000     0.000000000000     1.179545074729    27.976926534650
         AR           0.000000000000     0.000000000000    -0.825777726965    39.962383123700

  Nuclear repulsion =   66.499347125638621

  ==> Basis Set <==

  Basis Set: CC-PVDZ
    Blend: CC-PVDZ
    Number of shells: 16
    Number of basis functions: 36
    Number of Cartesian functions: 38
    Spherical Harmonics?: true
    Max angular momentum: 2

  ==> DFJKGrad: Density-Fitted SCF Gradients <==

    Gradient:                    1
    J tasked:                  Yes
    K tasked:                  Yes
    wK tasked:                  No
    OpenMP threads:              5
    Integrals threads:           5
    Memory [MiB]:             5722
    Schwarz Cutoff:          1E-12
    Fitting Condition:       1E-10

   => Auxiliary Basis Set <=

  Basis Set: (CC-PVDZ AUX)
    Blend: CC-PVDZ-JKFIT
    Number of shells: 72
    Number of basis functions: 224
    Number of Cartesian functions: 260
    Spherical Harmonics?: true
    Max angular momentum: 3

  ==> DFT Potential <==

   => LibXC <=

    Version 7.0.0
    S. Lehtola, C. Steigemann, M. J.T. Oliveira, and M. A.L. Marques.,  SoftwareX 7, 1–5 (2018) (10.1016/j.softx.2017.11.002)

   => Composite Functional: B3LYP <= 

    B3LYP Hyb-GGA Exchange-Correlation Functional

    P. J. Stephens, F. J. Devlin, C. F. Chabalowski, and M. J. Frisch.,  J. Phys. Chem. 98, 11623 (1994) (10.1021/j100096a001)

    Deriv               =              1
    GGA                 =           TRUE
    Meta                =          FALSE

    Exchange Hybrid     =           TRUE
    MP2 Hybrid          =          FALSE

   => Exchange Functionals <=

    0.0800   Slater exchange
    0.7200         Becke 88

   => Exact (HF) Exchange <=

    0.2000               HF 

   => Correlation Functionals <=

    0.1900   Vosko, Wilk & Nusair (VWN5_RPA)
    0.8100   Lee, Yang & Parr

   => LibXC Density Thresholds  <==

    XC_HYB_GGA_XC_B3LYP:  1.00E-15 

   => Molecular Quadrature <=

    Radial Scheme          =       TREUTLER
    Pruning Scheme         =           NONE
    Nuclear Scheme         =       TREUTLER

    Blocking Scheme        =         OCTREE
    BS radius alpha        =              1
    Pruning alpha          =              1
    Radial Points          =             75
    Spherical Points       =            302
    Total Points           =          41590
    Total Blocks           =            384
    Max Points             =            255
    Max Functions          =             36
    Weights Tolerance      =       1.00E-15


  -Total Gradient:
     Atom            X                  Y                   Z
    ------   -----------------  -----------------  -----------------
       1        0.000000000000     0.000000000000    -0.074966233760
       2       -0.000000000000    -0.000000000000     0.074995068084


*** tstop() called on cics-quant-001 at Tue Dec 23 11:50:55 2025
Module time:
	user time   =       0.24 seconds =       0.00 minutes
	system time =       0.11 seconds =       0.00 minutes
	total time  =          0 seconds =       0.00 minutes
Total time:
	user time   =       9.22 seconds =       0.15 minutes
	system time =       1.67 seconds =       0.03 minutes
	total time  =          5 seconds =       0.08 minutes

    			-----------------------------------------

    			 OPTKING 3.0: for geometry optimizations 

    			     By R.A. King, Bethel University     

    			        with contributions from          

    			    A.V. Copan, J. Cayton, A. Heide      

    			-----------------------------------------

    
	                            ===> Fragment 1 <== 

	 Z (Atomic Numbers)          Masses                          Geom                  
	      14.000000            27.976927          0.00000000  0.00000000  2.22901714   
	      18.000000            39.962383          0.00000000  0.00000000 -1.56049374   

	 - Coordinate -           - BOHR/RAD -       - ANG/DEG -
	 R(1,2)           =         3.789511           2.005323


	        --- Internal Coordinate Step in ANG or DEG, aJ/ANG or AJ/DEG ---
	-------------------------------------------------------------------------------
	           Coordinate      Previous         Force          Change          New 
	           ----------      --------        ------          ------        ------
	               R(1,2)       2.00532        0.61774        0.11832       2.12364
	-------------------------------------------------------------------------------

	                                 ==> Convergence Check <==                                  
    
	Measures of convergence in internal coordinates in au.
    
	Criteria marked as inactive (o), active & met (*), and active & unmet ( ).

	----------------------------------------------------------------------------------------------
	   Step    Total Energy     Delta E     Max Force     RMS Force      Max Disp      RMS Disp   
	----------------------------------------------------------------------------------------------
	  Convergence Criteria     1.00e-06 *    3.00e-04 *             o    1.20e-03 *             o
	----------------------------------------------------------------------------------------------
	     9    -816.46062410   -2.84e-02      7.50e-02      7.50e-02 o    2.24e-01      2.24e-01 o  ~
	----------------------------------------------------------------------------------------------

Next Geometry in Ang 
	Fragment 1 (Ang)

	   Si   0.0000000000   0.0000000000   1.2387060696
	   Ar   0.0000000000   0.0000000000  -0.8849387219


    Structure for next step:
    Molecular point group: c2v
    Full point group: C_inf_v

    Geometry (in Angstrom), charge = 1, multiplicity = 4:

    SI           0.000000000000     0.000000000000     1.249142907144
    AR           0.000000000000     0.000000000000    -0.874501884341


Scratch directory: /tmp/
gradient() will perform analytic gradient computation.
   => Libint2 <=

    Primary   basis highest AM E, G, H:  6, 6, 3
    Auxiliary basis highest AM E, G, H:  7, 7, 4
    Onebody   basis highest AM E, G, H:  -, -, -
    Solid Harmonics ordering:            Gaussian

*** tstart() called on cics-quant-001
*** at Tue Dec 23 11:50:55 2025

   => Loading Basis Set <=

    Name: CC-PVDZ
    Role: ORBITAL
    Keyword: BASIS
    atoms 1 entry SI         line   478 file /home/jrodriguesro/psi4conda/share/psi4/basis/cc-pvdz.gbs 
    atoms 2 entry AR         line   718 file /home/jrodriguesro/psi4conda/share/psi4/basis/cc-pvdz.gbs 


         ---------------------------------------------------------
                                   SCF
               by Justin Turney, Rob Parrish, Andy Simmonett
                          and Daniel G. A. Smith
                              UKS Reference
                        5 Threads,   7629 MiB Core
         ---------------------------------------------------------

  ==> Geometry <==

    Molecular point group: c2v
    Full point group: C_inf_v

    Geometry (in Angstrom), charge = 1, multiplicity = 4:

       Center              X                  Y                   Z               Mass       
    ------------   -----------------  -----------------  -----------------  -----------------
         SI           0.000000000000     0.000000000000     1.249142907144    27.976926534650
         AR           0.000000000000     0.000000000000    -0.874501884341    39.962383123700

  Running in c2v symmetry.

  Rotational constants: A = ************  B =      0.22714  C =      0.22714 [cm^-1]
  Rotational constants: A = ************  B =   6809.62496  C =   6809.62496 [MHz]
  Nuclear repulsion =   62.794238294238234

  Charge       = 1
  Multiplicity = 4
  Electrons    = 31
  Nalpha       = 17
  Nbeta        = 14

  ==> Algorithm <==

  SCF Algorithm Type is DF.
  DIIS enabled.
  MOM disabled.
  Fractional occupation disabled.
  Guess Type is READ.
  Energy threshold   = 1.00e-08
  Density threshold  = 1.00e-08
  Integral threshold = 1.00e-12

  ==> Primary Basis <==

  Basis Set: CC-PVDZ
    Blend: CC-PVDZ
    Number of shells: 16
    Number of basis functions: 36
    Number of Cartesian functions: 38
    Spherical Harmonics?: true
    Max angular momentum: 2

  ==> DFT Potential <==

   => LibXC <=

    Version 7.0.0
    S. Lehtola, C. Steigemann, M. J.T. Oliveira, and M. A.L. Marques.,  SoftwareX 7, 1–5 (2018) (10.1016/j.softx.2017.11.002)

   => Composite Functional: B3LYP <= 

    B3LYP Hyb-GGA Exchange-Correlation Functional

    P. J. Stephens, F. J. Devlin, C. F. Chabalowski, and M. J. Frisch.,  J. Phys. Chem. 98, 11623 (1994) (10.1021/j100096a001)

    Deriv               =              1
    GGA                 =           TRUE
    Meta                =          FALSE

    Exchange Hybrid     =           TRUE
    MP2 Hybrid          =          FALSE

   => Exchange Functionals <=

    0.0800   Slater exchange
    0.7200         Becke 88

   => Exact (HF) Exchange <=

    0.2000               HF 

   => Correlation Functionals <=

    0.1900   Vosko, Wilk & Nusair (VWN5_RPA)
    0.8100   Lee, Yang & Parr

   => LibXC Density Thresholds  <==

    XC_HYB_GGA_XC_B3LYP:  1.00E-15 

   => Molecular Quadrature <=

    Radial Scheme          =       TREUTLER
    Pruning Scheme         =           NONE
    Nuclear Scheme         =       TREUTLER

    Blocking Scheme        =         OCTREE
    BS radius alpha        =              1
    Pruning alpha          =              1
    Radial Points          =             75
    Spherical Points       =            302
    Total Points           =          41600
    Total Blocks           =            382
    Max Points             =            256
    Max Functions          =             36
    Weights Tolerance      =       1.00E-15

   => Loading Basis Set <=

    Name: (CC-PVDZ AUX)
    Role: JKFIT
    Keyword: DF_BASIS_SCF
    atoms 1 entry SI         line   445 file /home/jrodriguesro/psi4conda/share/psi4/basis/cc-pvdz-jkfit.gbs 
    atoms 2 entry AR         line   741 file /home/jrodriguesro/psi4conda/share/psi4/basis/cc-pvdz-jkfit.gbs 

   => Loading Basis Set <=

    Name: CC-PVDZ
    Role: ORBITAL
    Keyword: BASIS
    atoms 1 entry SI         line   478 file /home/jrodriguesro/psi4conda/share/psi4/basis/cc-pvdz.gbs 
    atoms 2 entry AR         line   718 file /home/jrodriguesro/psi4conda/share/psi4/basis/cc-pvdz.gbs 

  Reading orbitals from file /tmp/quartet_SiAr.default.423046.180.npy, no projection.

  ==> Integral Setup <==

  DFHelper Memory: AOs need 0.003 GiB; user supplied 5.546 GiB. 
  SCF_SUBTYPE=INCORE selected. In-core MEM_DF algorithm will be used.
  Using in-core AOs.

  ==> MemDFJK: Density-Fitted J/K Matrices <==

    J tasked:                   Yes
    K tasked:                   Yes
    wK tasked:                   No
    OpenMP threads:               5
    Memory [MiB]:              5679
    Algorithm:                 Core
    Schwarz Cutoff:           1E-12
    Mask sparsity (%):       0.0000
    Fitting Condition:        1E-10

   => Auxiliary Basis Set <=

  Basis Set: (CC-PVDZ AUX)
    Blend: CC-PVDZ-JKFIT
    Number of shells: 72
    Number of basis functions: 224
    Number of Cartesian functions: 260
    Spherical Harmonics?: true
    Max angular momentum: 3

  Cached 100.0% of DFT collocation blocks in 0.042 [GiB].

  Minimum eigenvalue in the overlap matrix is 3.6916736358E-02.
  Reciprocal condition number of the overlap matrix is 1.3714866766E-02.
    Using symmetric orthogonalization.

  ==> Pre-Iterations <==

  SCF Guess: Orbitals guess was supplied from a previous computation.

   -------------------------------------------------------
    Irrep   Nso     Nmo     Nalpha   Nbeta   Ndocc  Nsocc
   -------------------------------------------------------
     A1        18      18       9       8       8       1
     A2         2       2       0       0       0       0
     B1         8       8       4       3       3       1
     B2         8       8       4       3       3       1
   -------------------------------------------------------
    Total      36      36      17      14      14       3
   -------------------------------------------------------

  ==> Iterations <==

                           Total Energy        Delta E     RMS |[F,P]|

   @DF-UKS iter   0:  -816.42299067629108   -8.16423e+02   8.83258e-03 
   @DF-UKS iter   1:  -816.47170850755458   -4.87178e-02   1.40397e-03 ADIIS/DIIS
   @DF-UKS iter   2:  -816.47191034225114   -2.01835e-04   1.28699e-03 ADIIS/DIIS/DAMP=1%
   @DF-UKS iter   3:  -816.47094953878207    9.60803e-04   1.01108e-04 ADIIS/DIIS/DAMP=1%
   @DF-UKS iter   4:  -816.47234486922798   -1.39533e-03   3.27937e-05 DIIS/DAMP=1%
   @DF-UKS iter   5:  -816.47233029098129    1.45782e-05   4.41799e-06 DIIS/DAMP=1%
   @DF-UKS iter   6:  -816.47234027245145   -9.98147e-06   7.58177e-07 DIIS/DAMP=1%
   @DF-UKS iter   7:  -816.47234327303022   -3.00058e-06   9.28594e-08 DIIS/DAMP=1%
   @DF-UKS iter   8:  -816.47234250767883    7.65351e-07   1.69813e-08 DIIS/DAMP=1%
   @DF-UKS iter   9:  -816.47234256874594   -6.10671e-08   2.23389e-09 DIIS/DAMP=1%
   @DF-UKS iter  10:  -816.47234256640218    2.34377e-09   2.59424e-10 DIIS/DAMP=1%
  Energy and wave function converged.


  ==> Post-Iterations <==

   Electrons on quadrature grid:
      Nalpha   =   17.0000018202 ; deviation = 1.820e-06
      Nbeta    =   14.0000019202 ; deviation = 1.920e-06
      Ntotal   =   31.0000037404 ; deviation = 3.740e-06 

   @Spin Contamination Metric:   6.635009761E-04
   @S^2 Expected:                3.750000000E+00
   @S^2 Observed:                3.750663501E+00
   @S   Expected:                1.500000000E+00
   @S   Observed:                1.500000000E+00

    Orbital Energies [Eh]
    ---------------------

    Alpha Occupied:                                                       

       1A1  -115.449336     2A1   -66.491437     3A1   -11.486391  
       4A1    -9.041751     1B1    -9.033666     1B2    -9.033666  
       5A1    -5.633559     6A1    -3.995763     2B2    -3.991449  
       2B1    -3.991449     7A1    -1.323253     8A1    -0.857180  
       3B1    -0.754459     3B2    -0.754459     9A1    -0.682632  
       4B1    -0.459546     4B2    -0.459546  

    Alpha Virtual:                                                        

      10A1    -0.306773    11A1    -0.033737     5B1     0.032491  
       5B2     0.032491    12A1     0.044574     1A2     0.056205  
      13A1     0.056205     6B2     0.069188     6B1     0.069188  
      14A1     0.140542     7B1     0.343151     7B2     0.343151  
      15A1     0.378257    16A1     0.511131     2A2     0.511138  
      17A1     0.568011     8B1     0.593788     8B2     0.593788  
      18A1     1.017517  

    Beta Occupied:                                                        

       1A1  -115.447449     2A1   -66.477931     3A1   -11.484570  
       4A1    -9.037578     1B1    -9.031806     1B2    -9.031806  
       5A1    -5.615794     6A1    -3.984348     2B2    -3.969002  
       2B1    -3.969002     7A1    -1.312488     8A1    -0.821569  
       3B1    -0.746769     3B2    -0.746769  

    Beta Virtual:                                                         

       9A1    -0.508601     4B1    -0.292161     4B2    -0.292161  
      10A1    -0.247784    11A1    -0.010216    12A1     0.085355  
       5B1     0.098797     5B2     0.098797     6B2     0.132572  
       6B1     0.132572     1A2     0.180168    13A1     0.180169  
      14A1     0.181513     7B1     0.347855     7B2     0.347855  
      15A1     0.406761    16A1     0.517412     2A2     0.517419  
      17A1     0.580497     8B1     0.616649     8B2     0.616649  
      18A1     1.032479  

    Final Occupation by Irrep:
             A1    A2    B1    B2 
    DOCC [     8,    0,    3,    3 ]
    SOCC [     1,    0,    1,    1 ]
    NA   [     9,    0,    4,    4 ]
    NB   [     8,    0,    3,    3 ]

  @DF-UKS Final Energy:  -816.47234256640218

   => Energetics <=

    Nuclear Repulsion Energy =             62.7942382942382338
    One-Electron Energy =               -1243.9197432290434335
    Two-Electron Energy =                 406.1462301283058309
    DFT Exchange-Correlation Energy =     -41.4930677599029778
    Empirical Dispersion Energy =           0.0000000000000000
    VV10 Nonlocal Energy =                  0.0000000000000000
    Total Energy =                       -816.4723425664021761

  UHF NO Occupations:
  HONO-2 :    4 B1 1.0000000
  HONO-1 :    4 B2 1.0000000
  HONO-0 :    9 A1 1.0000000
  LUNO+0 :   10 A1 0.0002484
  LUNO+1 :    5 B2 0.0000369
  LUNO+2 :    5 B1 0.0000369
  LUNO+3 :   11 A1 0.0000088


Computation Completed


Properties will be evaluated at   0.000000,   0.000000,   0.000000 [a0]

Properties computed using the SCF density matrix


 Multipole Moments:

 ------------------------------------------------------------------------------------
     Multipole            Electronic (a.u.)      Nuclear  (a.u.)        Total (a.u.)
 ------------------------------------------------------------------------------------

 L = 1.  Multiply by 2.5417464519 to convert [e a0] to [Debye]
 Dipole X            :          0.0000000            0.0000000            0.0000000
 Dipole Y            :          0.0000000            0.0000000            0.0000000
 Dipole Z            :         -2.5784828            3.3012888            0.7228059
 Magnitude           :                                                    0.7228059

 ------------------------------------------------------------------------------------

*** tstop() called on cics-quant-001 at Tue Dec 23 11:50:56 2025
Module time:
	user time   =       0.71 seconds =       0.01 minutes
	system time =       0.09 seconds =       0.00 minutes
	total time  =          1 seconds =       0.02 minutes
Total time:
	user time   =       9.95 seconds =       0.17 minutes
	system time =       1.76 seconds =       0.03 minutes
	total time  =          6 seconds =       0.10 minutes

*** tstart() called on cics-quant-001
*** at Tue Dec 23 11:50:56 2025


         ------------------------------------------------------------
                                   SCF GRAD                          
                          Rob Parrish, Justin Turney,                
                       Andy Simmonett, and Alex Sokolov              
         ------------------------------------------------------------

  ==> Geometry <==

    Molecular point group: c2v
    Full point group: C_inf_v

    Geometry (in Angstrom), charge = 1, multiplicity = 4:

       Center              X                  Y                   Z               Mass       
    ------------   -----------------  -----------------  -----------------  -----------------
         SI           0.000000000000     0.000000000000     1.249142907144    27.976926534650
         AR           0.000000000000     0.000000000000    -0.874501884341    39.962383123700

  Nuclear repulsion =   62.794238294238234

  ==> Basis Set <==

  Basis Set: CC-PVDZ
    Blend: CC-PVDZ
    Number of shells: 16
    Number of basis functions: 36
    Number of Cartesian functions: 38
    Spherical Harmonics?: true
    Max angular momentum: 2

  ==> DFJKGrad: Density-Fitted SCF Gradients <==

    Gradient:                    1
    J tasked:                  Yes
    K tasked:                  Yes
    wK tasked:                  No
    OpenMP threads:              5
    Integrals threads:           5
    Memory [MiB]:             5722
    Schwarz Cutoff:          1E-12
    Fitting Condition:       1E-10

   => Auxiliary Basis Set <=

  Basis Set: (CC-PVDZ AUX)
    Blend: CC-PVDZ-JKFIT
    Number of shells: 72
    Number of basis functions: 224
    Number of Cartesian functions: 260
    Spherical Harmonics?: true
    Max angular momentum: 3

  ==> DFT Potential <==

   => LibXC <=

    Version 7.0.0
    S. Lehtola, C. Steigemann, M. J.T. Oliveira, and M. A.L. Marques.,  SoftwareX 7, 1–5 (2018) (10.1016/j.softx.2017.11.002)

   => Composite Functional: B3LYP <= 

    B3LYP Hyb-GGA Exchange-Correlation Functional

    P. J. Stephens, F. J. Devlin, C. F. Chabalowski, and M. J. Frisch.,  J. Phys. Chem. 98, 11623 (1994) (10.1021/j100096a001)

    Deriv               =              1
    GGA                 =           TRUE
    Meta                =          FALSE

    Exchange Hybrid     =           TRUE
    MP2 Hybrid          =          FALSE

   => Exchange Functionals <=

    0.0800   Slater exchange
    0.7200         Becke 88

   => Exact (HF) Exchange <=

    0.2000               HF 

   => Correlation Functionals <=

    0.1900   Vosko, Wilk & Nusair (VWN5_RPA)
    0.8100   Lee, Yang & Parr

   => LibXC Density Thresholds  <==

    XC_HYB_GGA_XC_B3LYP:  1.00E-15 

   => Molecular Quadrature <=

    Radial Scheme          =       TREUTLER
    Pruning Scheme         =           NONE
    Nuclear Scheme         =       TREUTLER

    Blocking Scheme        =         OCTREE
    BS radius alpha        =              1
    Pruning alpha          =              1
    Radial Points          =             75
    Spherical Points       =            302
    Total Points           =          41600
    Total Blocks           =            382
    Max Points             =            256
    Max Functions          =             36
    Weights Tolerance      =       1.00E-15


  -Total Gradient:
     Atom            X                  Y                   Z
    ------   -----------------  -----------------  -----------------
       1        0.000000000000     0.000000000000    -0.033348583737
       2        0.000000000000    -0.000000000000     0.033371836378


*** tstop() called on cics-quant-001 at Tue Dec 23 11:50:56 2025
Module time:
	user time   =       0.28 seconds =       0.00 minutes
	system time =       0.13 seconds =       0.00 minutes
	total time  =          0 seconds =       0.00 minutes
Total time:
	user time   =      10.23 seconds =       0.17 minutes
	system time =       1.89 seconds =       0.03 minutes
	total time  =          6 seconds =       0.10 minutes

    			-----------------------------------------

    			 OPTKING 3.0: for geometry optimizations 

    			     By R.A. King, Bethel University     

    			        with contributions from          

    			    A.V. Copan, J. Cayton, A. Heide      

    			-----------------------------------------

    
	                            ===> Fragment 1 <== 

	 Z (Atomic Numbers)          Masses                          Geom                  
	      14.000000            27.976927          0.00000000  0.00000000  2.36053799   
	      18.000000            39.962383          0.00000000  0.00000000 -1.65256906   

	 - Coordinate -           - BOHR/RAD -       - ANG/DEG -
	 R(1,2)           =         4.013107           2.123645


	        --- Internal Coordinate Step in ANG or DEG, aJ/ANG or AJ/DEG ---
	-------------------------------------------------------------------------------
	           Coordinate      Previous         Force          Change          New 
	           ----------      --------        ------          ------        ------
	               R(1,2)       2.12364        0.27485        0.06766       2.19131
	-------------------------------------------------------------------------------

	                                 ==> Convergence Check <==                                  
    
	Measures of convergence in internal coordinates in au.
    
	Criteria marked as inactive (o), active & met (*), and active & unmet ( ).

	----------------------------------------------------------------------------------------------
	   Step    Total Energy     Delta E     Max Force     RMS Force      Max Disp      RMS Disp   
	----------------------------------------------------------------------------------------------
	  Convergence Criteria     1.00e-06 *    3.00e-04 *             o    1.20e-03 *             o
	----------------------------------------------------------------------------------------------
	    10    -816.47234257   -1.17e-02      3.34e-02      3.34e-02 o    1.28e-01      1.28e-01 o  ~
	----------------------------------------------------------------------------------------------

Next Geometry in Ang 
	Fragment 1 (Ang)

	   Si   0.0000000000   0.0000000000   1.2829750602
	   Ar   0.0000000000   0.0000000000  -0.9083340374


    Structure for next step:
    Molecular point group: c2v
    Full point group: C_inf_v

    Geometry (in Angstrom), charge = 1, multiplicity = 4:

    SI           0.000000000000     0.000000000000     1.288943531241
    AR           0.000000000000     0.000000000000    -0.902365566368


Scratch directory: /tmp/
gradient() will perform analytic gradient computation.
   => Libint2 <=

    Primary   basis highest AM E, G, H:  6, 6, 3
    Auxiliary basis highest AM E, G, H:  7, 7, 4
    Onebody   basis highest AM E, G, H:  -, -, -
    Solid Harmonics ordering:            Gaussian

*** tstart() called on cics-quant-001
*** at Tue Dec 23 11:50:56 2025

   => Loading Basis Set <=

    Name: CC-PVDZ
    Role: ORBITAL
    Keyword: BASIS
    atoms 1 entry SI         line   478 file /home/jrodriguesro/psi4conda/share/psi4/basis/cc-pvdz.gbs 
    atoms 2 entry AR         line   718 file /home/jrodriguesro/psi4conda/share/psi4/basis/cc-pvdz.gbs 


         ---------------------------------------------------------
                                   SCF
               by Justin Turney, Rob Parrish, Andy Simmonett
                          and Daniel G. A. Smith
                              UKS Reference
                        5 Threads,   7629 MiB Core
         ---------------------------------------------------------

  ==> Geometry <==

    Molecular point group: c2v
    Full point group: C_inf_v

    Geometry (in Angstrom), charge = 1, multiplicity = 4:

       Center              X                  Y                   Z               Mass       
    ------------   -----------------  -----------------  -----------------  -----------------
         SI           0.000000000000     0.000000000000     1.288943531241    27.976926534650
         AR           0.000000000000     0.000000000000    -0.902365566368    39.962383123700

  Running in c2v symmetry.

  Rotational constants: A = ************  B =      0.21333  C =      0.21333 [cm^-1]
  Rotational constants: A = ************  B =   6395.57600  C =   6395.57600 [MHz]
  Nuclear repulsion =   60.855247319686001

  Charge       = 1
  Multiplicity = 4
  Electrons    = 31
  Nalpha       = 17
  Nbeta        = 14

  ==> Algorithm <==

  SCF Algorithm Type is DF.
  DIIS enabled.
  MOM disabled.
  Fractional occupation disabled.
  Guess Type is READ.
  Energy threshold   = 1.00e-08
  Density threshold  = 1.00e-08
  Integral threshold = 1.00e-12

  ==> Primary Basis <==

  Basis Set: CC-PVDZ
    Blend: CC-PVDZ
    Number of shells: 16
    Number of basis functions: 36
    Number of Cartesian functions: 38
    Spherical Harmonics?: true
    Max angular momentum: 2

  ==> DFT Potential <==

   => LibXC <=

    Version 7.0.0
    S. Lehtola, C. Steigemann, M. J.T. Oliveira, and M. A.L. Marques.,  SoftwareX 7, 1–5 (2018) (10.1016/j.softx.2017.11.002)

   => Composite Functional: B3LYP <= 

    B3LYP Hyb-GGA Exchange-Correlation Functional

    P. J. Stephens, F. J. Devlin, C. F. Chabalowski, and M. J. Frisch.,  J. Phys. Chem. 98, 11623 (1994) (10.1021/j100096a001)

    Deriv               =              1
    GGA                 =           TRUE
    Meta                =          FALSE

    Exchange Hybrid     =           TRUE
    MP2 Hybrid          =          FALSE

   => Exchange Functionals <=

    0.0800   Slater exchange
    0.7200         Becke 88

   => Exact (HF) Exchange <=

    0.2000               HF 

   => Correlation Functionals <=

    0.1900   Vosko, Wilk & Nusair (VWN5_RPA)
    0.8100   Lee, Yang & Parr

   => LibXC Density Thresholds  <==

    XC_HYB_GGA_XC_B3LYP:  1.00E-15 

   => Molecular Quadrature <=

    Radial Scheme          =       TREUTLER
    Pruning Scheme         =           NONE
    Nuclear Scheme         =       TREUTLER

    Blocking Scheme        =         OCTREE
    BS radius alpha        =              1
    Pruning alpha          =              1
    Radial Points          =             75
    Spherical Points       =            302
    Total Points           =          41609
    Total Blocks           =            384
    Max Points             =            256
    Max Functions          =             36
    Weights Tolerance      =       1.00E-15

   => Loading Basis Set <=

    Name: (CC-PVDZ AUX)
    Role: JKFIT
    Keyword: DF_BASIS_SCF
    atoms 1 entry SI         line   445 file /home/jrodriguesro/psi4conda/share/psi4/basis/cc-pvdz-jkfit.gbs 
    atoms 2 entry AR         line   741 file /home/jrodriguesro/psi4conda/share/psi4/basis/cc-pvdz-jkfit.gbs 

   => Loading Basis Set <=

    Name: CC-PVDZ
    Role: ORBITAL
    Keyword: BASIS
    atoms 1 entry SI         line   478 file /home/jrodriguesro/psi4conda/share/psi4/basis/cc-pvdz.gbs 
    atoms 2 entry AR         line   718 file /home/jrodriguesro/psi4conda/share/psi4/basis/cc-pvdz.gbs 

  Reading orbitals from file /tmp/quartet_SiAr.default.423046.180.npy, no projection.

  ==> Integral Setup <==

  DFHelper Memory: AOs need 0.003 GiB; user supplied 5.546 GiB. 
  SCF_SUBTYPE=INCORE selected. In-core MEM_DF algorithm will be used.
  Using in-core AOs.

  ==> MemDFJK: Density-Fitted J/K Matrices <==

    J tasked:                   Yes
    K tasked:                   Yes
    wK tasked:                   No
    OpenMP threads:               5
    Memory [MiB]:              5679
    Algorithm:                 Core
    Schwarz Cutoff:           1E-12
    Mask sparsity (%):       0.0000
    Fitting Condition:        1E-10

   => Auxiliary Basis Set <=

  Basis Set: (CC-PVDZ AUX)
    Blend: CC-PVDZ-JKFIT
    Number of shells: 72
    Number of basis functions: 224
    Number of Cartesian functions: 260
    Spherical Harmonics?: true
    Max angular momentum: 3

  Cached 100.0% of DFT collocation blocks in 0.041 [GiB].

  Minimum eigenvalue in the overlap matrix is 3.9539457495E-02.
  Reciprocal condition number of the overlap matrix is 1.4954000858E-02.
    Using symmetric orthogonalization.

  ==> Pre-Iterations <==

  SCF Guess: Orbitals guess was supplied from a previous computation.

   -------------------------------------------------------
    Irrep   Nso     Nmo     Nalpha   Nbeta   Ndocc  Nsocc
   -------------------------------------------------------
     A1        18      18       9       8       8       1
     A2         2       2       0       0       0       0
     B1         8       8       4       3       3       1
     B2         8       8       4       3       3       1
   -------------------------------------------------------
    Total      36      36      17      14      14       3
   -------------------------------------------------------

  ==> Iterations <==

                           Total Energy        Delta E     RMS |[F,P]|

   @DF-UKS iter   0:  -816.44926851126411   -8.16449e+02   4.24180e-03 
   @DF-UKS iter   1:  -816.47537366530753   -2.61052e-02   7.34223e-04 ADIIS/DIIS
   @DF-UKS iter   2:  -816.47542469328960   -5.10280e-05   6.87046e-04 ADIIS/DIIS/DAMP=1%
   @DF-UKS iter   3:  -816.47480690154316    6.17792e-04   5.55549e-05 DIIS/DAMP=1%
   @DF-UKS iter   4:  -816.47555081074086   -7.43909e-04   1.82123e-05 DIIS/DAMP=1%
   @DF-UKS iter   5:  -816.47554151318138    9.29756e-06   2.46406e-06 DIIS/DAMP=1%
   @DF-UKS iter   6:  -816.47554828718808   -6.77401e-06   4.38224e-07 DIIS/DAMP=1%
   @DF-UKS iter   7:  -816.47554977152129   -1.48433e-06   5.46051e-08 DIIS/DAMP=1%
   @DF-UKS iter   8:  -816.47554940476130    3.66760e-07   9.11670e-09 DIIS/DAMP=1%
   @DF-UKS iter   9:  -816.47554943247826   -2.77170e-08   1.05877e-09 DIIS/DAMP=1%
   @DF-UKS iter  10:  -816.47554943265072   -1.72463e-10   1.42264e-10 DIIS/DAMP=1%
  Energy and wave function converged.


  ==> Post-Iterations <==

   Electrons on quadrature grid:
      Nalpha   =   17.0000021150 ; deviation = 2.115e-06
      Nbeta    =   14.0000021794 ; deviation = 2.179e-06
      Ntotal   =   31.0000042944 ; deviation = 4.294e-06 

   @Spin Contamination Metric:   6.813514841E-04
   @S^2 Expected:                3.750000000E+00
   @S^2 Observed:                3.750681351E+00
   @S   Expected:                1.500000000E+00
   @S   Observed:                1.500000000E+00

    Orbital Energies [Eh]
    ---------------------

    Alpha Occupied:                                                       

       1A1  -115.441902     2A1   -66.495911     3A1   -11.478306  
       4A1    -9.033761     1B1    -9.025644     1B2    -9.025644  
       5A1    -5.636855     6A1    -3.999006     2B2    -3.994827  
       2B1    -3.994827     7A1    -1.311448     8A1    -0.844610  
       3B2    -0.744732     3B1    -0.744732     9A1    -0.686847  
       4B2    -0.461502     4B1    -0.461502  

    Alpha Virtual:                                                        

      10A1    -0.318980    11A1    -0.027159     5B2     0.035446  
       5B1     0.035446    12A1     0.042260     1A2     0.056518  
      13A1     0.056519     6B2     0.067492     6B1     0.067492  
      14A1     0.142081     7B2     0.350136     7B1     0.350136  
      15A1     0.372905    16A1     0.518726     2A2     0.518732  
      17A1     0.560637     8B1     0.584683     8B2     0.584683  
      18A1     0.991772  

    Beta Occupied:                                                        

       1A1  -115.440036     2A1   -66.482381     3A1   -11.476511  
       4A1    -9.029426     1B1    -9.023900     1B2    -9.023900  
       5A1    -5.619030     6A1    -3.987714     2B2    -3.972330  
       2B1    -3.972330     7A1    -1.300841     8A1    -0.806983  
       3B2    -0.737725     3B1    -0.737725  

    Beta Virtual:                                                         

       9A1    -0.515718     4B2    -0.293474     4B1    -0.293474  
      10A1    -0.259655    11A1    -0.001829    12A1     0.082027  
       5B2     0.104281     5B1     0.104281     6B2     0.128887  
       6B1     0.128887    13A1     0.181164     1A2     0.181165  
      14A1     0.185624     7B2     0.355007     7B1     0.355007  
      15A1     0.397086    16A1     0.524138     2A2     0.524145  
      17A1     0.573162     8B1     0.605905     8B2     0.605905  
      18A1     1.006983  

    Final Occupation by Irrep:
             A1    A2    B1    B2 
    DOCC [     8,    0,    3,    3 ]
    SOCC [     1,    0,    1,    1 ]
    NA   [     9,    0,    4,    4 ]
    NB   [     8,    0,    3,    3 ]

  @DF-UKS Final Energy:  -816.47554943265072

   => Energetics <=

    Nuclear Repulsion Energy =             60.8552473196860007
    One-Electron Energy =               -1240.1785442937150492
    Two-Electron Energy =                 404.3304434929130480
    DFT Exchange-Correlation Energy =     -41.4826959515347440
    Empirical Dispersion Energy =           0.0000000000000000
    VV10 Nonlocal Energy =                  0.0000000000000000
    Total Energy =                       -816.4755494326508369

  UHF NO Occupations:
  HONO-2 :    9 A1 1.0000000
  HONO-1 :    4 B1 1.0000000
  HONO-0 :    4 B2 1.0000000
  LUNO+0 :   10 A1 0.0002663
  LUNO+1 :    5 B2 0.0000317
  LUNO+2 :    5 B1 0.0000317
  LUNO+3 :   11 A1 0.0000101


Computation Completed


Properties will be evaluated at   0.000000,   0.000000,   0.000000 [a0]

Properties computed using the SCF density matrix


 Multipole Moments:

 ------------------------------------------------------------------------------------
     Multipole            Electronic (a.u.)      Nuclear  (a.u.)        Total (a.u.)
 ------------------------------------------------------------------------------------

 L = 1.  Multiply by 2.5417464519 to convert [e a0] to [Debye]
 Dipole X            :          0.0000000            0.0000000            0.0000000
 Dipole Y            :          0.0000000            0.0000000            0.0000000
 Dipole Z            :         -2.5682804            3.4064756            0.8381952
 Magnitude           :                                                    0.8381952

 ------------------------------------------------------------------------------------

*** tstop() called on cics-quant-001 at Tue Dec 23 11:50:56 2025
Module time:
	user time   =       0.93 seconds =       0.02 minutes
	system time =       0.09 seconds =       0.00 minutes
	total time  =          0 seconds =       0.00 minutes
Total time:
	user time   =      11.18 seconds =       0.19 minutes
	system time =       1.98 seconds =       0.03 minutes
	total time  =          6 seconds =       0.10 minutes

*** tstart() called on cics-quant-001
*** at Tue Dec 23 11:50:56 2025


         ------------------------------------------------------------
                                   SCF GRAD                          
                          Rob Parrish, Justin Turney,                
                       Andy Simmonett, and Alex Sokolov              
         ------------------------------------------------------------

  ==> Geometry <==

    Molecular point group: c2v
    Full point group: C_inf_v

    Geometry (in Angstrom), charge = 1, multiplicity = 4:

       Center              X                  Y                   Z               Mass       
    ------------   -----------------  -----------------  -----------------  -----------------
         SI           0.000000000000     0.000000000000     1.288943531241    27.976926534650
         AR           0.000000000000     0.000000000000    -0.902365566368    39.962383123700

  Nuclear repulsion =   60.855247319686001

  ==> Basis Set <==

  Basis Set: CC-PVDZ
    Blend: CC-PVDZ
    Number of shells: 16
    Number of basis functions: 36
    Number of Cartesian functions: 38
    Spherical Harmonics?: true
    Max angular momentum: 2

  ==> DFJKGrad: Density-Fitted SCF Gradients <==

    Gradient:                    1
    J tasked:                  Yes
    K tasked:                  Yes
    wK tasked:                  No
    OpenMP threads:              5
    Integrals threads:           5
    Memory [MiB]:             5722
    Schwarz Cutoff:          1E-12
    Fitting Condition:       1E-10

   => Auxiliary Basis Set <=

  Basis Set: (CC-PVDZ AUX)
    Blend: CC-PVDZ-JKFIT
    Number of shells: 72
    Number of basis functions: 224
    Number of Cartesian functions: 260
    Spherical Harmonics?: true
    Max angular momentum: 3

  ==> DFT Potential <==

   => LibXC <=

    Version 7.0.0
    S. Lehtola, C. Steigemann, M. J.T. Oliveira, and M. A.L. Marques.,  SoftwareX 7, 1–5 (2018) (10.1016/j.softx.2017.11.002)

   => Composite Functional: B3LYP <= 

    B3LYP Hyb-GGA Exchange-Correlation Functional

    P. J. Stephens, F. J. Devlin, C. F. Chabalowski, and M. J. Frisch.,  J. Phys. Chem. 98, 11623 (1994) (10.1021/j100096a001)

    Deriv               =              1
    GGA                 =           TRUE
    Meta                =          FALSE

    Exchange Hybrid     =           TRUE
    MP2 Hybrid          =          FALSE

   => Exchange Functionals <=

    0.0800   Slater exchange
    0.7200         Becke 88

   => Exact (HF) Exchange <=

    0.2000               HF 

   => Correlation Functionals <=

    0.1900   Vosko, Wilk & Nusair (VWN5_RPA)
    0.8100   Lee, Yang & Parr

   => LibXC Density Thresholds  <==

    XC_HYB_GGA_XC_B3LYP:  1.00E-15 

   => Molecular Quadrature <=

    Radial Scheme          =       TREUTLER
    Pruning Scheme         =           NONE
    Nuclear Scheme         =       TREUTLER

    Blocking Scheme        =         OCTREE
    BS radius alpha        =              1
    Pruning alpha          =              1
    Radial Points          =             75
    Spherical Points       =            302
    Total Points           =          41609
    Total Blocks           =            384
    Max Points             =            256
    Max Functions          =             36
    Weights Tolerance      =       1.00E-15


  -Total Gradient:
     Atom            X                  Y                   Z
    ------   -----------------  -----------------  -----------------
       1        0.000000000000     0.000000000000    -0.017603939138
       2        0.000000000000     0.000000000000     0.017627658282


*** tstop() called on cics-quant-001 at Tue Dec 23 11:50:57 2025
Module time:
	user time   =       0.23 seconds =       0.00 minutes
	system time =       0.12 seconds =       0.00 minutes
	total time  =          1 seconds =       0.02 minutes
Total time:
	user time   =      11.41 seconds =       0.19 minutes
	system time =       2.10 seconds =       0.04 minutes
	total time  =          7 seconds =       0.12 minutes

    			-----------------------------------------

    			 OPTKING 3.0: for geometry optimizations 

    			     By R.A. King, Bethel University     

    			        with contributions from          

    			    A.V. Copan, J. Cayton, A. Heide      

    			-----------------------------------------

    
	                            ===> Fragment 1 <== 

	 Z (Atomic Numbers)          Masses                          Geom                  
	      14.000000            27.976927          0.00000000  0.00000000  2.43575027   
	      18.000000            39.962383          0.00000000  0.00000000 -1.70522379   

	 - Coordinate -           - BOHR/RAD -       - ANG/DEG -
	 R(1,2)           =         4.140974           2.191309


	        --- Internal Coordinate Step in ANG or DEG, aJ/ANG or AJ/DEG ---
	-------------------------------------------------------------------------------
	           Coordinate      Previous         Force          Change          New 
	           ----------      --------        ------          ------        ------
	               R(1,2)       2.19131        0.14513        0.05646       2.24777
	-------------------------------------------------------------------------------

	                                 ==> Convergence Check <==                                  
    
	Measures of convergence in internal coordinates in au.
    
	Criteria marked as inactive (o), active & met (*), and active & unmet ( ).

	----------------------------------------------------------------------------------------------
	   Step    Total Energy     Delta E     Max Force     RMS Force      Max Disp      RMS Disp   
	----------------------------------------------------------------------------------------------
	  Convergence Criteria     1.00e-06 *    3.00e-04 *             o    1.20e-03 *             o
	----------------------------------------------------------------------------------------------
	    11    -816.47554943   -3.21e-03      1.76e-02      1.76e-02 o    1.07e-01      1.07e-01 o  ~
	----------------------------------------------------------------------------------------------

Next Geometry in Ang 
	Fragment 1 (Ang)

	   Si   0.0000000000   0.0000000000   1.3171750780
	   Ar   0.0000000000   0.0000000000  -0.9305971132


    Structure for next step:
    Molecular point group: c2v
    Full point group: C_inf_v

    Geometry (in Angstrom), charge = 1, multiplicity = 4:

    SI           0.000000000000     0.000000000000     1.322155522806
    AR           0.000000000000     0.000000000000    -0.925616668416


Scratch directory: /tmp/
gradient() will perform analytic gradient computation.
   => Libint2 <=

    Primary   basis highest AM E, G, H:  6, 6, 3
    Auxiliary basis highest AM E, G, H:  7, 7, 4
    Onebody   basis highest AM E, G, H:  -, -, -
    Solid Harmonics ordering:            Gaussian

*** tstart() called on cics-quant-001
*** at Tue Dec 23 11:50:57 2025

   => Loading Basis Set <=

    Name: CC-PVDZ
    Role: ORBITAL
    Keyword: BASIS
    atoms 1 entry SI         line   478 file /home/jrodriguesro/psi4conda/share/psi4/basis/cc-pvdz.gbs 
    atoms 2 entry AR         line   718 file /home/jrodriguesro/psi4conda/share/psi4/basis/cc-pvdz.gbs 


         ---------------------------------------------------------
                                   SCF
               by Justin Turney, Rob Parrish, Andy Simmonett
                          and Daniel G. A. Smith
                              UKS Reference
                        5 Threads,   7629 MiB Core
         ---------------------------------------------------------

  ==> Geometry <==

    Molecular point group: c2v
    Full point group: C_inf_v

    Geometry (in Angstrom), charge = 1, multiplicity = 4:

       Center              X                  Y                   Z               Mass       
    ------------   -----------------  -----------------  -----------------  -----------------
         SI           0.000000000000     0.000000000000     1.322155522806    27.976926534650
         AR           0.000000000000     0.000000000000    -0.925616668416    39.962383123700

  Running in c2v symmetry.

  Rotational constants: A = ************  B =      0.20275  C =      0.20275 [cm^-1]
  Rotational constants: A = ************  B =   6078.30319  C =   6078.30319 [MHz]
  Nuclear repulsion =   59.326589059893379

  Charge       = 1
  Multiplicity = 4
  Electrons    = 31
  Nalpha       = 17
  Nbeta        = 14

  ==> Algorithm <==

  SCF Algorithm Type is DF.
  DIIS enabled.
  MOM disabled.
  Fractional occupation disabled.
  Guess Type is READ.
  Energy threshold   = 1.00e-08
  Density threshold  = 1.00e-08
  Integral threshold = 1.00e-12

  ==> Primary Basis <==

  Basis Set: CC-PVDZ
    Blend: CC-PVDZ
    Number of shells: 16
    Number of basis functions: 36
    Number of Cartesian functions: 38
    Spherical Harmonics?: true
    Max angular momentum: 2

  ==> DFT Potential <==

   => LibXC <=

    Version 7.0.0
    S. Lehtola, C. Steigemann, M. J.T. Oliveira, and M. A.L. Marques.,  SoftwareX 7, 1–5 (2018) (10.1016/j.softx.2017.11.002)

   => Composite Functional: B3LYP <= 

    B3LYP Hyb-GGA Exchange-Correlation Functional

    P. J. Stephens, F. J. Devlin, C. F. Chabalowski, and M. J. Frisch.,  J. Phys. Chem. 98, 11623 (1994) (10.1021/j100096a001)

    Deriv               =              1
    GGA                 =           TRUE
    Meta                =          FALSE

    Exchange Hybrid     =           TRUE
    MP2 Hybrid          =          FALSE

   => Exchange Functionals <=

    0.0800   Slater exchange
    0.7200         Becke 88

   => Exact (HF) Exchange <=

    0.2000               HF 

   => Correlation Functionals <=

    0.1900   Vosko, Wilk & Nusair (VWN5_RPA)
    0.8100   Lee, Yang & Parr

   => LibXC Density Thresholds  <==

    XC_HYB_GGA_XC_B3LYP:  1.00E-15 

   => Molecular Quadrature <=

    Radial Scheme          =       TREUTLER
    Pruning Scheme         =           NONE
    Nuclear Scheme         =       TREUTLER

    Blocking Scheme        =         OCTREE
    BS radius alpha        =              1
    Pruning alpha          =              1
    Radial Points          =             75
    Spherical Points       =            302
    Total Points           =          41626
    Total Blocks           =            384
    Max Points             =            256
    Max Functions          =             36
    Weights Tolerance      =       1.00E-15

   => Loading Basis Set <=

    Name: (CC-PVDZ AUX)
    Role: JKFIT
    Keyword: DF_BASIS_SCF
    atoms 1 entry SI         line   445 file /home/jrodriguesro/psi4conda/share/psi4/basis/cc-pvdz-jkfit.gbs 
    atoms 2 entry AR         line   741 file /home/jrodriguesro/psi4conda/share/psi4/basis/cc-pvdz-jkfit.gbs 

   => Loading Basis Set <=

    Name: CC-PVDZ
    Role: ORBITAL
    Keyword: BASIS
    atoms 1 entry SI         line   478 file /home/jrodriguesro/psi4conda/share/psi4/basis/cc-pvdz.gbs 
    atoms 2 entry AR         line   718 file /home/jrodriguesro/psi4conda/share/psi4/basis/cc-pvdz.gbs 

  Reading orbitals from file /tmp/quartet_SiAr.default.423046.180.npy, no projection.

  ==> Integral Setup <==

  DFHelper Memory: AOs need 0.003 GiB; user supplied 5.547 GiB. 
  SCF_SUBTYPE=INCORE selected. In-core MEM_DF algorithm will be used.
  Using in-core AOs.

  ==> MemDFJK: Density-Fitted J/K Matrices <==

    J tasked:                   Yes
    K tasked:                   Yes
    wK tasked:                   No
    OpenMP threads:               5
    Memory [MiB]:              5679
    Algorithm:                 Core
    Schwarz Cutoff:           1E-12
    Mask sparsity (%):       0.0000
    Fitting Condition:        1E-10

   => Auxiliary Basis Set <=

  Basis Set: (CC-PVDZ AUX)
    Blend: CC-PVDZ-JKFIT
    Number of shells: 72
    Number of basis functions: 224
    Number of Cartesian functions: 260
    Spherical Harmonics?: true
    Max angular momentum: 3

  Cached 100.0% of DFT collocation blocks in 0.041 [GiB].

  Minimum eigenvalue in the overlap matrix is 4.1810737602E-02.
  Reciprocal condition number of the overlap matrix is 1.6057213555E-02.
    Using symmetric orthogonalization.

  ==> Pre-Iterations <==

  SCF Guess: Orbitals guess was supplied from a previous computation.

   -------------------------------------------------------
    Irrep   Nso     Nmo     Nalpha   Nbeta   Ndocc  Nsocc
   -------------------------------------------------------
     A1        18      18       9       8       8       1
     A2         2       2       0       0       0       0
     B1         8       8       4       3       3       1
     B2         8       8       4       3       3       1
   -------------------------------------------------------
    Total      36      36      17      14      14       3
   -------------------------------------------------------

  ==> Iterations <==

                           Total Energy        Delta E     RMS |[F,P]|

   @DF-UKS iter   0:  -816.45639033408224   -8.16456e+02   3.14753e-03 
   @DF-UKS iter   1:  -816.47676796686278   -2.03776e-02   5.74541e-04 ADIIS/DIIS
   @DF-UKS iter   2:  -816.47679627187665   -2.83050e-05   5.49310e-04 ADIIS/DIIS/DAMP=1%
   @DF-UKS iter   3:  -816.47628490066529    5.11371e-04   4.56783e-05 DIIS/DAMP=1%
   @DF-UKS iter   4:  -816.47687853736727   -5.93637e-04   1.50484e-05 DIIS/DAMP=1%
   @DF-UKS iter   5:  -816.47686996590778    8.57146e-06   2.09655e-06 DIIS/DAMP=1%
   @DF-UKS iter   6:  -816.47687607708565   -6.11118e-06   3.76025e-07 DIIS/DAMP=1%
   @DF-UKS iter   7:  -816.47687723282127   -1.15574e-06   4.79184e-08 DIIS/DAMP=1%
   @DF-UKS iter   8:  -816.47687696190519    2.70916e-07   7.40314e-09 DIIS/DAMP=1%
   @DF-UKS iter   9:  -816.47687698102379   -1.91186e-08   7.32253e-10 DIIS/DAMP=1%
   @DF-UKS iter  10:  -816.47687698247535   -1.45155e-09   1.17863e-10 DIIS/DAMP=1%
  Energy and wave function converged.


  ==> Post-Iterations <==

   Electrons on quadrature grid:
      Nalpha   =   17.0000022789 ; deviation = 2.279e-06
      Nbeta    =   14.0000023124 ; deviation = 2.312e-06
      Ntotal   =   31.0000045914 ; deviation = 4.591e-06 

   @Spin Contamination Metric:   7.041957365E-04
   @S^2 Expected:                3.750000000E+00
   @S^2 Observed:                3.750704196E+00
   @S   Expected:                1.500000000E+00
   @S   Observed:                1.500000000E+00

    Orbital Energies [Eh]
    ---------------------

    Alpha Occupied:                                                       

       1A1  -115.435737     2A1   -66.499476     3A1   -11.471695  
       4A1    -9.027214     1B1    -9.019079     1B2    -9.019079  
       5A1    -5.639585     6A1    -4.001719     2B1    -3.997604  
       2B2    -3.997604     7A1    -1.302288     8A1    -0.834698  
       3B1    -0.737056     3B2    -0.737056     9A1    -0.689961  
       4B1    -0.463031     4B2    -0.463031  

    Alpha Virtual:                                                        

      10A1    -0.328361    11A1    -0.021701     5B1     0.037462  
       5B2     0.037462    12A1     0.040483     1A2     0.056526  
      13A1     0.056527     6B1     0.066317     6B2     0.066317  
      14A1     0.142066     7B1     0.355647     7B2     0.355647  
      15A1     0.370780    16A1     0.525011     2A2     0.525016  
      17A1     0.555349     8B1     0.578445     8B2     0.578445  
      18A1     0.970737  

    Beta Occupied:                                                        

       1A1  -115.433884     2A1   -66.485929     3A1   -11.469917  
       4A1    -9.022748     1B1    -9.017420     1B2    -9.017420  
       5A1    -5.621718     6A1    -3.990517     2B1    -3.975071  
       2B2    -3.975071     7A1    -1.291764     8A1    -0.795177  
       3B1    -0.730541     3B2    -0.730541  

    Beta Virtual:                                                         

       9A1    -0.521390     4B1    -0.294570     4B2    -0.294570  
      10A1    -0.268870    11A1     0.005285    12A1     0.079390  
       5B1     0.108240     5B2     0.108240     6B1     0.126128  
       6B2     0.126128    13A1     0.181535     1A2     0.181536  
      14A1     0.187504     7B1     0.360773     7B2     0.360773  
      15A1     0.391451    16A1     0.529843     2A2     0.529848  
      17A1     0.567943     8B1     0.598367     8B2     0.598367  
      18A1     0.986177  

    Final Occupation by Irrep:
             A1    A2    B1    B2 
    DOCC [     8,    0,    3,    3 ]
    SOCC [     1,    0,    1,    1 ]
    NA   [     9,    0,    4,    4 ]
    NB   [     8,    0,    3,    3 ]

  @DF-UKS Final Energy:  -816.47687698247535

   => Energetics <=

    Nuclear Repulsion Energy =             59.3265890598933794
    One-Electron Energy =               -1237.2280542080663963
    Two-Electron Energy =                 402.8997926750652709
    DFT Exchange-Correlation Energy =     -41.4752045093676358
    Empirical Dispersion Energy =           0.0000000000000000
    VV10 Nonlocal Energy =                  0.0000000000000000
    Total Energy =                       -816.4768769824752326

  UHF NO Occupations:
  HONO-2 :    4 B2 1.0000000
  HONO-1 :    9 A1 1.0000000
  HONO-0 :    4 B1 1.0000000
  LUNO+0 :   10 A1 0.0002841
  LUNO+1 :    5 B2 0.0000279
  LUNO+2 :    5 B1 0.0000279
  LUNO+3 :   11 A1 0.0000113


Computation Completed


Properties will be evaluated at   0.000000,   0.000000,   0.000000 [a0]

Properties computed using the SCF density matrix


 Multipole Moments:

 ------------------------------------------------------------------------------------
     Multipole            Electronic (a.u.)      Nuclear  (a.u.)        Total (a.u.)
 ------------------------------------------------------------------------------------

 L = 1.  Multiply by 2.5417464519 to convert [e a0] to [Debye]
 Dipole X            :          0.0000000            0.0000000            0.0000000
 Dipole Y            :          0.0000000            0.0000000            0.0000000
 Dipole Z            :         -2.5609608            3.4942497            0.9332889
 Magnitude           :                                                    0.9332889

 ------------------------------------------------------------------------------------

*** tstop() called on cics-quant-001 at Tue Dec 23 11:50:57 2025
Module time:
	user time   =       0.73 seconds =       0.01 minutes
	system time =       0.09 seconds =       0.00 minutes
	total time  =          0 seconds =       0.00 minutes
Total time:
	user time   =      12.17 seconds =       0.20 minutes
	system time =       2.19 seconds =       0.04 minutes
	total time  =          7 seconds =       0.12 minutes

*** tstart() called on cics-quant-001
*** at Tue Dec 23 11:50:57 2025


         ------------------------------------------------------------
                                   SCF GRAD                          
                          Rob Parrish, Justin Turney,                
                       Andy Simmonett, and Alex Sokolov              
         ------------------------------------------------------------

  ==> Geometry <==

    Molecular point group: c2v
    Full point group: C_inf_v

    Geometry (in Angstrom), charge = 1, multiplicity = 4:

       Center              X                  Y                   Z               Mass       
    ------------   -----------------  -----------------  -----------------  -----------------
         SI           0.000000000000     0.000000000000     1.322155522806    27.976926534650
         AR           0.000000000000     0.000000000000    -0.925616668416    39.962383123700

  Nuclear repulsion =   59.326589059893379

  ==> Basis Set <==

  Basis Set: CC-PVDZ
    Blend: CC-PVDZ
    Number of shells: 16
    Number of basis functions: 36
    Number of Cartesian functions: 38
    Spherical Harmonics?: true
    Max angular momentum: 2

  ==> DFJKGrad: Density-Fitted SCF Gradients <==

    Gradient:                    1
    J tasked:                  Yes
    K tasked:                  Yes
    wK tasked:                  No
    OpenMP threads:              5
    Integrals threads:           5
    Memory [MiB]:             5722
    Schwarz Cutoff:          1E-12
    Fitting Condition:       1E-10

   => Auxiliary Basis Set <=

  Basis Set: (CC-PVDZ AUX)
    Blend: CC-PVDZ-JKFIT
    Number of shells: 72
    Number of basis functions: 224
    Number of Cartesian functions: 260
    Spherical Harmonics?: true
    Max angular momentum: 3

  ==> DFT Potential <==

   => LibXC <=

    Version 7.0.0
    S. Lehtola, C. Steigemann, M. J.T. Oliveira, and M. A.L. Marques.,  SoftwareX 7, 1–5 (2018) (10.1016/j.softx.2017.11.002)

   => Composite Functional: B3LYP <= 

    B3LYP Hyb-GGA Exchange-Correlation Functional

    P. J. Stephens, F. J. Devlin, C. F. Chabalowski, and M. J. Frisch.,  J. Phys. Chem. 98, 11623 (1994) (10.1021/j100096a001)

    Deriv               =              1
    GGA                 =           TRUE
    Meta                =          FALSE

    Exchange Hybrid     =           TRUE
    MP2 Hybrid          =          FALSE

   => Exchange Functionals <=

    0.0800   Slater exchange
    0.7200         Becke 88

   => Exact (HF) Exchange <=

    0.2000               HF 

   => Correlation Functionals <=

    0.1900   Vosko, Wilk & Nusair (VWN5_RPA)
    0.8100   Lee, Yang & Parr

   => LibXC Density Thresholds  <==

    XC_HYB_GGA_XC_B3LYP:  1.00E-15 

   => Molecular Quadrature <=

    Radial Scheme          =       TREUTLER
    Pruning Scheme         =           NONE
    Nuclear Scheme         =       TREUTLER

    Blocking Scheme        =         OCTREE
    BS radius alpha        =              1
    Pruning alpha          =              1
    Radial Points          =             75
    Spherical Points       =            302
    Total Points           =          41626
    Total Blocks           =            384
    Max Points             =            256
    Max Functions          =             36
    Weights Tolerance      =       1.00E-15


  -Total Gradient:
     Atom            X                  Y                   Z
    ------   -----------------  -----------------  -----------------
       1        0.000000000000     0.000000000000    -0.007705156705
       2        0.000000000000    -0.000000000000     0.007729686589


*** tstop() called on cics-quant-001 at Tue Dec 23 11:50:57 2025
Module time:
	user time   =       0.23 seconds =       0.00 minutes
	system time =       0.12 seconds =       0.00 minutes
	total time  =          0 seconds =       0.00 minutes
Total time:
	user time   =      12.40 seconds =       0.21 minutes
	system time =       2.31 seconds =       0.04 minutes
	total time  =          7 seconds =       0.12 minutes

    			-----------------------------------------

    			 OPTKING 3.0: for geometry optimizations 

    			     By R.A. King, Bethel University     

    			        with contributions from          

    			    A.V. Copan, J. Cayton, A. Heide      

    			-----------------------------------------

    
	                            ===> Fragment 1 <== 

	 Z (Atomic Numbers)          Masses                          Geom                  
	      14.000000            27.976927          0.00000000  0.00000000  2.49851183   
	      18.000000            39.962383          0.00000000  0.00000000 -1.74916200   

	 - Coordinate -           - BOHR/RAD -       - ANG/DEG -
	 R(1,2)           =         4.247674           2.247772


	        --- Internal Coordinate Step in ANG or DEG, aJ/ANG or AJ/DEG ---
	-------------------------------------------------------------------------------
	           Coordinate      Previous         Force          Change          New 
	           ----------      --------        ------          ------        ------
	               R(1,2)       2.24777        0.06358        0.02774       2.27551
	-------------------------------------------------------------------------------

	                                 ==> Convergence Check <==                                  
    
	Measures of convergence in internal coordinates in au.
    
	Criteria marked as inactive (o), active & met (*), and active & unmet ( ).

	----------------------------------------------------------------------------------------------
	   Step    Total Energy     Delta E     Max Force     RMS Force      Max Disp      RMS Disp   
	----------------------------------------------------------------------------------------------
	  Convergence Criteria     1.00e-06 *    3.00e-04 *             o    1.20e-03 *             o
	----------------------------------------------------------------------------------------------
	    12    -816.47687698   -1.33e-03      7.72e-03      7.72e-03 o    5.24e-02      5.24e-02 o  ~
	----------------------------------------------------------------------------------------------

Next Geometry in Ang 
	Fragment 1 (Ang)

	   Si   0.0000000000   0.0000000000   1.3360259702
	   Ar   0.0000000000   0.0000000000  -0.9394871158


    Structure for next step:
    Molecular point group: c2v
    Full point group: C_inf_v

    Geometry (in Angstrom), charge = 1, multiplicity = 4:

    SI           0.000000000000     0.000000000000     1.338472913609
    AR           0.000000000000     0.000000000000    -0.937040172423


Scratch directory: /tmp/
gradient() will perform analytic gradient computation.
   => Libint2 <=

    Primary   basis highest AM E, G, H:  6, 6, 3
    Auxiliary basis highest AM E, G, H:  7, 7, 4
    Onebody   basis highest AM E, G, H:  -, -, -
    Solid Harmonics ordering:            Gaussian

*** tstart() called on cics-quant-001
*** at Tue Dec 23 11:50:57 2025

   => Loading Basis Set <=

    Name: CC-PVDZ
    Role: ORBITAL
    Keyword: BASIS
    atoms 1 entry SI         line   478 file /home/jrodriguesro/psi4conda/share/psi4/basis/cc-pvdz.gbs 
    atoms 2 entry AR         line   718 file /home/jrodriguesro/psi4conda/share/psi4/basis/cc-pvdz.gbs 


         ---------------------------------------------------------
                                   SCF
               by Justin Turney, Rob Parrish, Andy Simmonett
                          and Daniel G. A. Smith
                              UKS Reference
                        5 Threads,   7629 MiB Core
         ---------------------------------------------------------

  ==> Geometry <==

    Molecular point group: c2v
    Full point group: C_inf_v

    Geometry (in Angstrom), charge = 1, multiplicity = 4:

       Center              X                  Y                   Z               Mass       
    ------------   -----------------  -----------------  -----------------  -----------------
         SI           0.000000000000     0.000000000000     1.338472913609    27.976926534650
         AR           0.000000000000     0.000000000000    -0.937040172423    39.962383123700

  Running in c2v symmetry.

  Rotational constants: A = ************  B =      0.19784  C =      0.19784 [cm^-1]
  Rotational constants: A = ************  B =   5931.00476  C =   5931.00476 [MHz]
  Nuclear repulsion =   58.603335620164756

  Charge       = 1
  Multiplicity = 4
  Electrons    = 31
  Nalpha       = 17
  Nbeta        = 14

  ==> Algorithm <==

  SCF Algorithm Type is DF.
  DIIS enabled.
  MOM disabled.
  Fractional occupation disabled.
  Guess Type is READ.
  Energy threshold   = 1.00e-08
  Density threshold  = 1.00e-08
  Integral threshold = 1.00e-12

  ==> Primary Basis <==

  Basis Set: CC-PVDZ
    Blend: CC-PVDZ
    Number of shells: 16
    Number of basis functions: 36
    Number of Cartesian functions: 38
    Spherical Harmonics?: true
    Max angular momentum: 2

  ==> DFT Potential <==

   => LibXC <=

    Version 7.0.0
    S. Lehtola, C. Steigemann, M. J.T. Oliveira, and M. A.L. Marques.,  SoftwareX 7, 1–5 (2018) (10.1016/j.softx.2017.11.002)

   => Composite Functional: B3LYP <= 

    B3LYP Hyb-GGA Exchange-Correlation Functional

    P. J. Stephens, F. J. Devlin, C. F. Chabalowski, and M. J. Frisch.,  J. Phys. Chem. 98, 11623 (1994) (10.1021/j100096a001)

    Deriv               =              1
    GGA                 =           TRUE
    Meta                =          FALSE

    Exchange Hybrid     =           TRUE
    MP2 Hybrid          =          FALSE

   => Exchange Functionals <=

    0.0800   Slater exchange
    0.7200         Becke 88

   => Exact (HF) Exchange <=

    0.2000               HF 

   => Correlation Functionals <=

    0.1900   Vosko, Wilk & Nusair (VWN5_RPA)
    0.8100   Lee, Yang & Parr

   => LibXC Density Thresholds  <==

    XC_HYB_GGA_XC_B3LYP:  1.00E-15 

   => Molecular Quadrature <=

    Radial Scheme          =       TREUTLER
    Pruning Scheme         =           NONE
    Nuclear Scheme         =       TREUTLER

    Blocking Scheme        =         OCTREE
    BS radius alpha        =              1
    Pruning alpha          =              1
    Radial Points          =             75
    Spherical Points       =            302
    Total Points           =          41626
    Total Blocks           =            385
    Max Points             =            253
    Max Functions          =             36
    Weights Tolerance      =       1.00E-15

   => Loading Basis Set <=

    Name: (CC-PVDZ AUX)
    Role: JKFIT
    Keyword: DF_BASIS_SCF
    atoms 1 entry SI         line   445 file /home/jrodriguesro/psi4conda/share/psi4/basis/cc-pvdz-jkfit.gbs 
    atoms 2 entry AR         line   741 file /home/jrodriguesro/psi4conda/share/psi4/basis/cc-pvdz-jkfit.gbs 

   => Loading Basis Set <=

    Name: CC-PVDZ
    Role: ORBITAL
    Keyword: BASIS
    atoms 1 entry SI         line   478 file /home/jrodriguesro/psi4conda/share/psi4/basis/cc-pvdz.gbs 
    atoms 2 entry AR         line   718 file /home/jrodriguesro/psi4conda/share/psi4/basis/cc-pvdz.gbs 

  Reading orbitals from file /tmp/quartet_SiAr.default.423046.180.npy, no projection.

  ==> Integral Setup <==

  DFHelper Memory: AOs need 0.003 GiB; user supplied 5.547 GiB. 
  SCF_SUBTYPE=INCORE selected. In-core MEM_DF algorithm will be used.
  Using in-core AOs.

  ==> MemDFJK: Density-Fitted J/K Matrices <==

    J tasked:                   Yes
    K tasked:                   Yes
    wK tasked:                   No
    OpenMP threads:               5
    Memory [MiB]:              5679
    Algorithm:                 Core
    Schwarz Cutoff:           1E-12
    Mask sparsity (%):       0.0000
    Fitting Condition:        1E-10

   => Auxiliary Basis Set <=

  Basis Set: (CC-PVDZ AUX)
    Blend: CC-PVDZ-JKFIT
    Number of shells: 72
    Number of basis functions: 224
    Number of Cartesian functions: 260
    Spherical Harmonics?: true
    Max angular momentum: 3

  Cached 100.0% of DFT collocation blocks in 0.041 [GiB].

  Minimum eigenvalue in the overlap matrix is 4.2952905496E-02.
  Reciprocal condition number of the overlap matrix is 1.6622436827E-02.
    Using symmetric orthogonalization.

  ==> Pre-Iterations <==

  SCF Guess: Orbitals guess was supplied from a previous computation.

   -------------------------------------------------------
    Irrep   Nso     Nmo     Nalpha   Nbeta   Ndocc  Nsocc
   -------------------------------------------------------
     A1        18      18       9       8       8       1
     A2         2       2       0       0       0       0
     B1         8       8       4       3       3       1
     B2         8       8       4       3       3       1
   -------------------------------------------------------
    Total      36      36      17      14      14       3
   -------------------------------------------------------

  ==> Iterations <==

                           Total Energy        Delta E     RMS |[F,P]|

   @DF-UKS iter   0:  -816.46757908012853   -8.16468e+02   1.43387e-03 
   @DF-UKS iter   1:  -816.47715069896435   -9.57162e-03   2.66808e-04 ADIIS/DIIS
   @DF-UKS iter   2:  -816.47715653766716   -5.83870e-06   2.57829e-04 ADIIS/DIIS/DAMP=1%
   @DF-UKS iter   3:  -816.47689717635478    2.59361e-04   2.15983e-05 DIIS/DAMP=1%
   @DF-UKS iter   4:  -816.47717513349710   -2.77957e-04   7.28093e-06 DIIS/DAMP=1%
   @DF-UKS iter   5:  -816.47717094583061    4.18767e-06   1.03971e-06 DIIS/DAMP=1%
   @DF-UKS iter   6:  -816.47717400049692   -3.05467e-06   1.85700e-07 DIIS/DAMP=1%
   @DF-UKS iter   7:  -816.47717454827580   -5.47779e-07   2.39637e-08 DIIS/DAMP=1%
   @DF-UKS iter   8:  -816.47717442403894    1.24237e-07   3.53406e-09 DIIS/DAMP=1%
   @DF-UKS iter   9:  -816.47717443265446   -8.61553e-09   3.28811e-10 DIIS/DAMP=1%
  Energy and wave function converged.


  ==> Post-Iterations <==

   Electrons on quadrature grid:
      Nalpha   =   17.0000023633 ; deviation = 2.363e-06
      Nbeta    =   14.0000023836 ; deviation = 2.384e-06
      Ntotal   =   31.0000047469 ; deviation = 4.747e-06 

   @Spin Contamination Metric:   7.182777981E-04
   @S^2 Expected:                3.750000000E+00
   @S^2 Observed:                3.750718278E+00
   @S   Expected:                1.500000000E+00
   @S   Observed:                1.500000000E+00

    Orbital Energies [Eh]
    ---------------------

    Alpha Occupied:                                                       

       1A1  -115.432735     2A1   -66.501165     3A1   -11.468500  
       4A1    -9.024045     1B2    -9.015906     1B1    -9.015906  
       5A1    -5.640905     6A1    -4.003039     2B2    -3.998943  
       2B1    -3.998943     7A1    -1.298004     8A1    -0.830045  
       3B2    -0.733426     3B1    -0.733426     9A1    -0.691341  
       4B2    -0.463748     4B1    -0.463748  

    Alpha Virtual:                                                        

      10A1    -0.332695    11A1    -0.019076     5B1     0.038323  
       5B2     0.038323    12A1     0.039671     1A2     0.056463  
      13A1     0.056464     6B1     0.065811     6B2     0.065811  
      14A1     0.141658     7B2     0.358209     7B1     0.358209  
      15A1     0.370409    16A1     0.528065     2A2     0.528068  
      17A1     0.553055     8B1     0.575830     8B2     0.575830  
      18A1     0.960541  

    Beta Occupied:                                                        

       1A1  -115.430886     2A1   -66.487612     3A1   -11.466729  
       4A1    -9.019518     1B2    -9.014285     1B1    -9.014285  
       5A1    -5.623022     6A1    -3.991878     2B2    -3.976394  
       2B1    -3.976394     7A1    -1.287504     8A1    -0.789515  
       3B2    -0.727128     3B1    -0.727128  

    Beta Virtual:                                                         

       9A1    -0.524078     4B2    -0.295109     4B1    -0.295109  
      10A1    -0.273154    11A1     0.008767    12A1     0.078151  
       5B1     0.110000     5B2     0.110000     6B1     0.124874  
       6B2     0.124874    13A1     0.181589     1A2     0.181590  
      14A1     0.187887     7B2     0.363484     7B1     0.363484  
      15A1     0.389455    16A1     0.532652     2A2     0.532656  
      17A1     0.565691     8B1     0.595143     8B2     0.595143  
      18A1     0.976092  

    Final Occupation by Irrep:
             A1    A2    B1    B2 
    DOCC [     8,    0,    3,    3 ]
    SOCC [     1,    0,    1,    1 ]
    NA   [     9,    0,    4,    4 ]
    NB   [     8,    0,    3,    3 ]

  @DF-UKS Final Energy:  -816.47717443265446

   => Energetics <=

    Nuclear Repulsion Energy =             58.6033356201647564
    One-Electron Energy =               -1235.8318524711560258
    Two-Electron Energy =                 402.2232141613455383
    DFT Exchange-Correlation Energy =     -41.4718717430086343
    Empirical Dispersion Energy =           0.0000000000000000
    VV10 Nonlocal Energy =                  0.0000000000000000
    Total Energy =                       -816.4771744326543512

  UHF NO Occupations:
  HONO-2 :    4 B1 1.0000000
  HONO-1 :    9 A1 1.0000000
  HONO-0 :    4 B2 1.0000000
  LUNO+0 :   10 A1 0.0002939
  LUNO+1 :    5 B2 0.0000262
  LUNO+2 :    5 B1 0.0000262
  LUNO+3 :   11 A1 0.0000119


Computation Completed


Properties will be evaluated at   0.000000,   0.000000,   0.000000 [a0]

Properties computed using the SCF density matrix


 Multipole Moments:

 ------------------------------------------------------------------------------------
     Multipole            Electronic (a.u.)      Nuclear  (a.u.)        Total (a.u.)
 ------------------------------------------------------------------------------------

 L = 1.  Multiply by 2.5417464519 to convert [e a0] to [Debye]
 Dipole X            :          0.0000000            0.0000000            0.0000000
 Dipole Y            :          0.0000000            0.0000000            0.0000000
 Dipole Z            :         -2.5578813            3.5373740            0.9794926
 Magnitude           :                                                    0.9794926

 ------------------------------------------------------------------------------------

*** tstop() called on cics-quant-001 at Tue Dec 23 11:50:58 2025
Module time:
	user time   =       0.80 seconds =       0.01 minutes
	system time =       0.08 seconds =       0.00 minutes
	total time  =          1 seconds =       0.02 minutes
Total time:
	user time   =      13.22 seconds =       0.22 minutes
	system time =       2.39 seconds =       0.04 minutes
	total time  =          8 seconds =       0.13 minutes

*** tstart() called on cics-quant-001
*** at Tue Dec 23 11:50:58 2025


         ------------------------------------------------------------
                                   SCF GRAD                          
                          Rob Parrish, Justin Turney,                
                       Andy Simmonett, and Alex Sokolov              
         ------------------------------------------------------------

  ==> Geometry <==

    Molecular point group: c2v
    Full point group: C_inf_v

    Geometry (in Angstrom), charge = 1, multiplicity = 4:

       Center              X                  Y                   Z               Mass       
    ------------   -----------------  -----------------  -----------------  -----------------
         SI           0.000000000000     0.000000000000     1.338472913609    27.976926534650
         AR           0.000000000000     0.000000000000    -0.937040172423    39.962383123700

  Nuclear repulsion =   58.603335620164756

  ==> Basis Set <==

  Basis Set: CC-PVDZ
    Blend: CC-PVDZ
    Number of shells: 16
    Number of basis functions: 36
    Number of Cartesian functions: 38
    Spherical Harmonics?: true
    Max angular momentum: 2

  ==> DFJKGrad: Density-Fitted SCF Gradients <==

    Gradient:                    1
    J tasked:                  Yes
    K tasked:                  Yes
    wK tasked:                  No
    OpenMP threads:              5
    Integrals threads:           5
    Memory [MiB]:             5722
    Schwarz Cutoff:          1E-12
    Fitting Condition:       1E-10

   => Auxiliary Basis Set <=

  Basis Set: (CC-PVDZ AUX)
    Blend: CC-PVDZ-JKFIT
    Number of shells: 72
    Number of basis functions: 224
    Number of Cartesian functions: 260
    Spherical Harmonics?: true
    Max angular momentum: 3

  ==> DFT Potential <==

   => LibXC <=

    Version 7.0.0
    S. Lehtola, C. Steigemann, M. J.T. Oliveira, and M. A.L. Marques.,  SoftwareX 7, 1–5 (2018) (10.1016/j.softx.2017.11.002)

   => Composite Functional: B3LYP <= 

    B3LYP Hyb-GGA Exchange-Correlation Functional

    P. J. Stephens, F. J. Devlin, C. F. Chabalowski, and M. J. Frisch.,  J. Phys. Chem. 98, 11623 (1994) (10.1021/j100096a001)

    Deriv               =              1
    GGA                 =           TRUE
    Meta                =          FALSE

    Exchange Hybrid     =           TRUE
    MP2 Hybrid          =          FALSE

   => Exchange Functionals <=

    0.0800   Slater exchange
    0.7200         Becke 88

   => Exact (HF) Exchange <=

    0.2000               HF 

   => Correlation Functionals <=

    0.1900   Vosko, Wilk & Nusair (VWN5_RPA)
    0.8100   Lee, Yang & Parr

   => LibXC Density Thresholds  <==

    XC_HYB_GGA_XC_B3LYP:  1.00E-15 

   => Molecular Quadrature <=

    Radial Scheme          =       TREUTLER
    Pruning Scheme         =           NONE
    Nuclear Scheme         =       TREUTLER

    Blocking Scheme        =         OCTREE
    BS radius alpha        =              1
    Pruning alpha          =              1
    Radial Points          =             75
    Spherical Points       =            302
    Total Points           =          41626
    Total Blocks           =            385
    Max Points             =            253
    Max Functions          =             36
    Weights Tolerance      =       1.00E-15


  -Total Gradient:
     Atom            X                  Y                   Z
    ------   -----------------  -----------------  -----------------
       1       -0.000000000000     0.000000000000    -0.003725107546
       2        0.000000000000    -0.000000000000     0.003745810390


*** tstop() called on cics-quant-001 at Tue Dec 23 11:50:58 2025
Module time:
	user time   =       0.24 seconds =       0.00 minutes
	system time =       0.12 seconds =       0.00 minutes
	total time  =          0 seconds =       0.00 minutes
Total time:
	user time   =      13.46 seconds =       0.22 minutes
	system time =       2.51 seconds =       0.04 minutes
	total time  =          8 seconds =       0.13 minutes

    			-----------------------------------------

    			 OPTKING 3.0: for geometry optimizations 

    			     By R.A. King, Bethel University     

    			        with contributions from          

    			    A.V. Copan, J. Cayton, A. Heide      

    			-----------------------------------------

    
	                            ===> Fragment 1 <== 

	 Z (Atomic Numbers)          Masses                          Geom                  
	      14.000000            27.976927          0.00000000  0.00000000  2.52934723   
	      18.000000            39.962383          0.00000000  0.00000000 -1.77074929   

	 - Coordinate -           - BOHR/RAD -       - ANG/DEG -
	 R(1,2)           =         4.300097           2.275513


	        --- Internal Coordinate Step in ANG or DEG, aJ/ANG or AJ/DEG ---
	-------------------------------------------------------------------------------
	           Coordinate      Previous         Force          Change          New 
	           ----------      --------        ------          ------        ------
	               R(1,2)       2.27551        0.03078        0.01912       2.29464
	-------------------------------------------------------------------------------

	                                 ==> Convergence Check <==                                  
    
	Measures of convergence in internal coordinates in au.
    
	Criteria marked as inactive (o), active & met (*), and active & unmet ( ).

	----------------------------------------------------------------------------------------------
	   Step    Total Energy     Delta E     Max Force     RMS Force      Max Disp      RMS Disp   
	----------------------------------------------------------------------------------------------
	  Convergence Criteria     1.00e-06 *    3.00e-04 *             o    1.20e-03 *             o
	----------------------------------------------------------------------------------------------
	    13    -816.47717443   -2.97e-04      3.74e-03      3.74e-03 o    3.61e-02      3.61e-02 o  ~
	----------------------------------------------------------------------------------------------

Next Geometry in Ang 
	Fragment 1 (Ang)

	   Si   0.0000000000   0.0000000000   1.3480351347
	   Ar   0.0000000000   0.0000000000  -0.9466023935


    Structure for next step:
    Molecular point group: c2v
    Full point group: C_inf_v

    Geometry (in Angstrom), charge = 1, multiplicity = 4:

    SI           0.000000000000     0.000000000000     1.349722045906
    AR           0.000000000000     0.000000000000    -0.944915482233


Scratch directory: /tmp/
gradient() will perform analytic gradient computation.
   => Libint2 <=

    Primary   basis highest AM E, G, H:  6, 6, 3
    Auxiliary basis highest AM E, G, H:  7, 7, 4
    Onebody   basis highest AM E, G, H:  -, -, -
    Solid Harmonics ordering:            Gaussian

*** tstart() called on cics-quant-001
*** at Tue Dec 23 11:50:58 2025

   => Loading Basis Set <=

    Name: CC-PVDZ
    Role: ORBITAL
    Keyword: BASIS
    atoms 1 entry SI         line   478 file /home/jrodriguesro/psi4conda/share/psi4/basis/cc-pvdz.gbs 
    atoms 2 entry AR         line   718 file /home/jrodriguesro/psi4conda/share/psi4/basis/cc-pvdz.gbs 


         ---------------------------------------------------------
                                   SCF
               by Justin Turney, Rob Parrish, Andy Simmonett
                          and Daniel G. A. Smith
                              UKS Reference
                        5 Threads,   7629 MiB Core
         ---------------------------------------------------------

  ==> Geometry <==

    Molecular point group: c2v
    Full point group: C_inf_v

    Geometry (in Angstrom), charge = 1, multiplicity = 4:

       Center              X                  Y                   Z               Mass       
    ------------   -----------------  -----------------  -----------------  -----------------
         SI           0.000000000000     0.000000000000     1.349722045906    27.976926534650
         AR           0.000000000000     0.000000000000    -0.944915482233    39.962383123700

  Running in c2v symmetry.

  Rotational constants: A = ************  B =      0.19455  C =      0.19455 [cm^-1]
  Rotational constants: A = ************  B =   5832.55393  C =   5832.55393 [MHz]
  Nuclear repulsion =   58.114911594316787

  Charge       = 1
  Multiplicity = 4
  Electrons    = 31
  Nalpha       = 17
  Nbeta        = 14

  ==> Algorithm <==

  SCF Algorithm Type is DF.
  DIIS enabled.
  MOM disabled.
  Fractional occupation disabled.
  Guess Type is READ.
  Energy threshold   = 1.00e-08
  Density threshold  = 1.00e-08
  Integral threshold = 1.00e-12

  ==> Primary Basis <==

  Basis Set: CC-PVDZ
    Blend: CC-PVDZ
    Number of shells: 16
    Number of basis functions: 36
    Number of Cartesian functions: 38
    Spherical Harmonics?: true
    Max angular momentum: 2

  ==> DFT Potential <==

   => LibXC <=

    Version 7.0.0
    S. Lehtola, C. Steigemann, M. J.T. Oliveira, and M. A.L. Marques.,  SoftwareX 7, 1–5 (2018) (10.1016/j.softx.2017.11.002)

   => Composite Functional: B3LYP <= 

    B3LYP Hyb-GGA Exchange-Correlation Functional

    P. J. Stephens, F. J. Devlin, C. F. Chabalowski, and M. J. Frisch.,  J. Phys. Chem. 98, 11623 (1994) (10.1021/j100096a001)

    Deriv               =              1
    GGA                 =           TRUE
    Meta                =          FALSE

    Exchange Hybrid     =           TRUE
    MP2 Hybrid          =          FALSE

   => Exchange Functionals <=

    0.0800   Slater exchange
    0.7200         Becke 88

   => Exact (HF) Exchange <=

    0.2000               HF 

   => Correlation Functionals <=

    0.1900   Vosko, Wilk & Nusair (VWN5_RPA)
    0.8100   Lee, Yang & Parr

   => LibXC Density Thresholds  <==

    XC_HYB_GGA_XC_B3LYP:  1.00E-15 

   => Molecular Quadrature <=

    Radial Scheme          =       TREUTLER
    Pruning Scheme         =           NONE
    Nuclear Scheme         =       TREUTLER

    Blocking Scheme        =         OCTREE
    BS radius alpha        =              1
    Pruning alpha          =              1
    Radial Points          =             75
    Spherical Points       =            302
    Total Points           =          41626
    Total Blocks           =            386
    Max Points             =            253
    Max Functions          =             36
    Weights Tolerance      =       1.00E-15

   => Loading Basis Set <=

    Name: (CC-PVDZ AUX)
    Role: JKFIT
    Keyword: DF_BASIS_SCF
    atoms 1 entry SI         line   445 file /home/jrodriguesro/psi4conda/share/psi4/basis/cc-pvdz-jkfit.gbs 
    atoms 2 entry AR         line   741 file /home/jrodriguesro/psi4conda/share/psi4/basis/cc-pvdz-jkfit.gbs 

   => Loading Basis Set <=

    Name: CC-PVDZ
    Role: ORBITAL
    Keyword: BASIS
    atoms 1 entry SI         line   478 file /home/jrodriguesro/psi4conda/share/psi4/basis/cc-pvdz.gbs 
    atoms 2 entry AR         line   718 file /home/jrodriguesro/psi4conda/share/psi4/basis/cc-pvdz.gbs 

  Reading orbitals from file /tmp/quartet_SiAr.default.423046.180.npy, no projection.

  ==> Integral Setup <==

  DFHelper Memory: AOs need 0.003 GiB; user supplied 5.547 GiB. 
  SCF_SUBTYPE=INCORE selected. In-core MEM_DF algorithm will be used.
  Using in-core AOs.

  ==> MemDFJK: Density-Fitted J/K Matrices <==

    J tasked:                   Yes
    K tasked:                   Yes
    wK tasked:                   No
    OpenMP threads:               5
    Memory [MiB]:              5679
    Algorithm:                 Core
    Schwarz Cutoff:           1E-12
    Mask sparsity (%):       0.0000
    Fitting Condition:        1E-10

   => Auxiliary Basis Set <=

  Basis Set: (CC-PVDZ AUX)
    Blend: CC-PVDZ-JKFIT
    Number of shells: 72
    Number of basis functions: 224
    Number of Cartesian functions: 260
    Spherical Harmonics?: true
    Max angular momentum: 3

  Cached 100.0% of DFT collocation blocks in 0.041 [GiB].

  Minimum eigenvalue in the overlap matrix is 4.3749929892E-02.
  Reciprocal condition number of the overlap matrix is 1.7020978725E-02.
    Using symmetric orthogonalization.

  ==> Pre-Iterations <==

  SCF Guess: Orbitals guess was supplied from a previous computation.

   -------------------------------------------------------
    Irrep   Nso     Nmo     Nalpha   Nbeta   Ndocc  Nsocc
   -------------------------------------------------------
     A1        18      18       9       8       8       1
     A2         2       2       0       0       0       0
     B1         8       8       4       3       3       1
     B2         8       8       4       3       3       1
   -------------------------------------------------------
    Total      36      36      17      14      14       3
   -------------------------------------------------------

  ==> Iterations <==

                           Total Energy        Delta E     RMS |[F,P]|

   @DF-UKS iter   0:  -816.47083753804236   -8.16471e+02   9.46761e-04 
   @DF-UKS iter   1:  -816.47725328609602   -6.41575e-03   1.78572e-04 ADIIS/DIIS
   @DF-UKS iter   2:  -816.47725579447149   -2.50838e-06   1.73976e-04 ADIIS/DIIS/DAMP=1%
   @DF-UKS iter   3:  -816.47707717015192    1.78624e-04   1.46695e-05 DIIS/DAMP=1%
   @DF-UKS iter   4:  -816.47726446707725   -1.87297e-04   4.99528e-06 DIIS/DAMP=1%
   @DF-UKS iter   5:  -816.47726155015494    2.91692e-06   7.24819e-07 DIIS/DAMP=1%
   @DF-UKS iter   6:  -816.47726368403278   -2.13388e-06   1.29037e-07 DIIS/DAMP=1%
   @DF-UKS iter   7:  -816.47726405544927   -3.71416e-07   1.68325e-08 DIIS/DAMP=1%
   @DF-UKS iter   8:  -816.47726397315648    8.22928e-08   2.42076e-09 DIIS/DAMP=1%
   @DF-UKS iter   9:  -816.47726397881104   -5.65456e-09   2.14886e-10 DIIS/DAMP=1%
  Energy and wave function converged.


  ==> Post-Iterations <==

   Electrons on quadrature grid:
      Nalpha   =   17.0000023468 ; deviation = 2.347e-06
      Nbeta    =   14.0000023605 ; deviation = 2.360e-06
      Ntotal   =   31.0000047073 ; deviation = 4.707e-06 

   @Spin Contamination Metric:   7.291311659E-04
   @S^2 Expected:                3.750000000E+00
   @S^2 Observed:                3.750729131E+00
   @S   Expected:                1.500000000E+00
   @S   Observed:                1.500000000E+00

    Orbital Energies [Eh]
    ---------------------

    Alpha Occupied:                                                       

       1A1  -115.430678     2A1   -66.502304     3A1   -11.466319  
       4A1    -9.021881     1B2    -9.013740     1B1    -9.013740  
       5A1    -5.641805     6A1    -4.003940     2B1    -3.999853  
       2B2    -3.999853     7A1    -1.295129     8A1    -0.826926  
       3B2    -0.730976     3B1    -0.730976     9A1    -0.692230  
       4B2    -0.464229     4B1    -0.464229  

    Alpha Virtual:                                                        

      10A1    -0.335577    11A1    -0.017298     5B1     0.038872  
       5B2     0.038872    12A1     0.039138     1A2     0.056398  
      13A1     0.056399     6B1     0.065486     6B2     0.065486  
      14A1     0.141234     7B1     0.359909     7B2     0.359909  
      15A1     0.370383    16A1     0.530153     2A2     0.530156  
      17A1     0.551591     8B1     0.574199     8B2     0.574199  
      18A1     0.953563  

    Beta Occupied:                                                        

       1A1  -115.428832     2A1   -66.488747     3A1   -11.464553  
       4A1    -9.017312     1B2    -9.012145     1B1    -9.012145  
       5A1    -5.623912     6A1    -3.992807     2B1    -3.977294  
       2B2    -3.977294     7A1    -1.284642     8A1    -0.785668  
       3B2    -0.724819     3B1    -0.724819  

    Beta Virtual:                                                         

       9A1    -0.525892     4B2    -0.295479     4B1    -0.295479  
      10A1    -0.276013    11A1     0.011150    12A1     0.077321  
       5B1     0.111147     5B2     0.111147     6B1     0.124046  
       6B2     0.124046    13A1     0.181584     1A2     0.181586  
      14A1     0.187941     7B1     0.365293     7B2     0.365293  
      15A1     0.388363    16A1     0.534586     2A2     0.534589  
      17A1     0.564261     8B1     0.593103     8B2     0.593103  
      18A1     0.969188  

    Final Occupation by Irrep:
             A1    A2    B1    B2 
    DOCC [     8,    0,    3,    3 ]
    SOCC [     1,    0,    1,    1 ]
    NA   [     9,    0,    4,    4 ]
    NB   [     8,    0,    3,    3 ]

  @DF-UKS Final Energy:  -816.47726397881104

   => Energetics <=

    Nuclear Repulsion Energy =             58.1149115943167871
    One-Electron Energy =               -1234.8889079114517244
    Two-Electron Energy =                 401.7664303181716718
    DFT Exchange-Correlation Energy =     -41.4696979798476661
    Empirical Dispersion Energy =           0.0000000000000000
    VV10 Nonlocal Energy =                  0.0000000000000000
    Total Energy =                       -816.4772639788110382

  UHF NO Occupations:
  HONO-2 :    4 B2 1.0000000
  HONO-1 :    4 B1 1.0000000
  HONO-0 :    9 A1 1.0000000
  LUNO+0 :   10 A1 0.0003012
  LUNO+1 :    5 B1 0.0000251
  LUNO+2 :    5 B2 0.0000251
  LUNO+3 :   11 A1 0.0000123


Computation Completed


Properties will be evaluated at   0.000000,   0.000000,   0.000000 [a0]

Properties computed using the SCF density matrix


 Multipole Moments:

 ------------------------------------------------------------------------------------
     Multipole            Electronic (a.u.)      Nuclear  (a.u.)        Total (a.u.)
 ------------------------------------------------------------------------------------

 L = 1.  Multiply by 2.5417464519 to convert [e a0] to [Debye]
 Dipole X            :          0.0000000            0.0000000            0.0000000
 Dipole Y            :          0.0000000            0.0000000            0.0000000
 Dipole Z            :         -2.5559861            3.5671037            1.0111176
 Magnitude           :                                                    1.0111176

 ------------------------------------------------------------------------------------

*** tstop() called on cics-quant-001 at Tue Dec 23 11:50:58 2025
Module time:
	user time   =       0.67 seconds =       0.01 minutes
	system time =       0.08 seconds =       0.00 minutes
	total time  =          0 seconds =       0.00 minutes
Total time:
	user time   =      14.14 seconds =       0.24 minutes
	system time =       2.59 seconds =       0.04 minutes
	total time  =          8 seconds =       0.13 minutes

*** tstart() called on cics-quant-001
*** at Tue Dec 23 11:50:58 2025


         ------------------------------------------------------------
                                   SCF GRAD                          
                          Rob Parrish, Justin Turney,                
                       Andy Simmonett, and Alex Sokolov              
         ------------------------------------------------------------

  ==> Geometry <==

    Molecular point group: c2v
    Full point group: C_inf_v

    Geometry (in Angstrom), charge = 1, multiplicity = 4:

       Center              X                  Y                   Z               Mass       
    ------------   -----------------  -----------------  -----------------  -----------------
         SI           0.000000000000     0.000000000000     1.349722045906    27.976926534650
         AR           0.000000000000     0.000000000000    -0.944915482233    39.962383123700

  Nuclear repulsion =   58.114911594316787

  ==> Basis Set <==

  Basis Set: CC-PVDZ
    Blend: CC-PVDZ
    Number of shells: 16
    Number of basis functions: 36
    Number of Cartesian functions: 38
    Spherical Harmonics?: true
    Max angular momentum: 2

  ==> DFJKGrad: Density-Fitted SCF Gradients <==

    Gradient:                    1
    J tasked:                  Yes
    K tasked:                  Yes
    wK tasked:                  No
    OpenMP threads:              5
    Integrals threads:           5
    Memory [MiB]:             5722
    Schwarz Cutoff:          1E-12
    Fitting Condition:       1E-10

   => Auxiliary Basis Set <=

  Basis Set: (CC-PVDZ AUX)
    Blend: CC-PVDZ-JKFIT
    Number of shells: 72
    Number of basis functions: 224
    Number of Cartesian functions: 260
    Spherical Harmonics?: true
    Max angular momentum: 3

  ==> DFT Potential <==

   => LibXC <=

    Version 7.0.0
    S. Lehtola, C. Steigemann, M. J.T. Oliveira, and M. A.L. Marques.,  SoftwareX 7, 1–5 (2018) (10.1016/j.softx.2017.11.002)

   => Composite Functional: B3LYP <= 

    B3LYP Hyb-GGA Exchange-Correlation Functional

    P. J. Stephens, F. J. Devlin, C. F. Chabalowski, and M. J. Frisch.,  J. Phys. Chem. 98, 11623 (1994) (10.1021/j100096a001)

    Deriv               =              1
    GGA                 =           TRUE
    Meta                =          FALSE

    Exchange Hybrid     =           TRUE
    MP2 Hybrid          =          FALSE

   => Exchange Functionals <=

    0.0800   Slater exchange
    0.7200         Becke 88

   => Exact (HF) Exchange <=

    0.2000               HF 

   => Correlation Functionals <=

    0.1900   Vosko, Wilk & Nusair (VWN5_RPA)
    0.8100   Lee, Yang & Parr

   => LibXC Density Thresholds  <==

    XC_HYB_GGA_XC_B3LYP:  1.00E-15 

   => Molecular Quadrature <=

    Radial Scheme          =       TREUTLER
    Pruning Scheme         =           NONE
    Nuclear Scheme         =       TREUTLER

    Blocking Scheme        =         OCTREE
    BS radius alpha        =              1
    Pruning alpha          =              1
    Radial Points          =             75
    Spherical Points       =            302
    Total Points           =          41626
    Total Blocks           =            386
    Max Points             =            253
    Max Functions          =             36
    Weights Tolerance      =       1.00E-15


  -Total Gradient:
     Atom            X                  Y                   Z
    ------   -----------------  -----------------  -----------------
       1       -0.000000000000     0.000000000000    -0.001277146628
       2       -0.000000000000     0.000000000000     0.001296351753


*** tstop() called on cics-quant-001 at Tue Dec 23 11:50:58 2025
Module time:
	user time   =       0.23 seconds =       0.00 minutes
	system time =       0.12 seconds =       0.00 minutes
	total time  =          0 seconds =       0.00 minutes
Total time:
	user time   =      14.38 seconds =       0.24 minutes
	system time =       2.71 seconds =       0.05 minutes
	total time  =          8 seconds =       0.13 minutes

    			-----------------------------------------

    			 OPTKING 3.0: for geometry optimizations 

    			     By R.A. King, Bethel University     

    			        with contributions from          

    			    A.V. Copan, J. Cayton, A. Heide      

    			-----------------------------------------

    
	                            ===> Fragment 1 <== 

	 Z (Atomic Numbers)          Masses                          Geom                  
	      14.000000            27.976927          0.00000000  0.00000000  2.55060501   
	      18.000000            39.962383          0.00000000  0.00000000 -1.78563147   

	 - Coordinate -           - BOHR/RAD -       - ANG/DEG -
	 R(1,2)           =         4.336236           2.294638


	        --- Internal Coordinate Step in ANG or DEG, aJ/ANG or AJ/DEG ---
	-------------------------------------------------------------------------------
	           Coordinate      Previous         Force          Change          New 
	           ----------      --------        ------          ------        ------
	               R(1,2)       2.29464        0.01060        0.00686       2.30150
	-------------------------------------------------------------------------------

	                                 ==> Convergence Check <==                                  
    
	Measures of convergence in internal coordinates in au.
    
	Criteria marked as inactive (o), active & met (*), and active & unmet ( ).

	----------------------------------------------------------------------------------------------
	   Step    Total Energy     Delta E     Max Force     RMS Force      Max Disp      RMS Disp   
	----------------------------------------------------------------------------------------------
	  Convergence Criteria     1.00e-06 *    3.00e-04 *             o    1.20e-03 *             o
	----------------------------------------------------------------------------------------------
	    14    -816.47726398   -8.95e-05      1.29e-03      1.29e-03 o    1.30e-02      1.30e-02 o  ~
	----------------------------------------------------------------------------------------------

Next Geometry in Ang 
	Fragment 1 (Ang)

	   Si   0.0000000000   0.0000000000   1.3531514825
	   Ar   0.0000000000   0.0000000000  -0.9483449188


    Structure for next step:
    Molecular point group: c2v
    Full point group: C_inf_v

    Geometry (in Angstrom), charge = 1, multiplicity = 4:

    SI           0.000000000000     0.000000000000     1.353756483713
    AR           0.000000000000     0.000000000000    -0.947739917647


Scratch directory: /tmp/
gradient() will perform analytic gradient computation.
   => Libint2 <=

    Primary   basis highest AM E, G, H:  6, 6, 3
    Auxiliary basis highest AM E, G, H:  7, 7, 4
    Onebody   basis highest AM E, G, H:  -, -, -
    Solid Harmonics ordering:            Gaussian

*** tstart() called on cics-quant-001
*** at Tue Dec 23 11:50:58 2025

   => Loading Basis Set <=

    Name: CC-PVDZ
    Role: ORBITAL
    Keyword: BASIS
    atoms 1 entry SI         line   478 file /home/jrodriguesro/psi4conda/share/psi4/basis/cc-pvdz.gbs 
    atoms 2 entry AR         line   718 file /home/jrodriguesro/psi4conda/share/psi4/basis/cc-pvdz.gbs 


         ---------------------------------------------------------
                                   SCF
               by Justin Turney, Rob Parrish, Andy Simmonett
                          and Daniel G. A. Smith
                              UKS Reference
                        5 Threads,   7629 MiB Core
         ---------------------------------------------------------

  ==> Geometry <==

    Molecular point group: c2v
    Full point group: C_inf_v

    Geometry (in Angstrom), charge = 1, multiplicity = 4:

       Center              X                  Y                   Z               Mass       
    ------------   -----------------  -----------------  -----------------  -----------------
         SI           0.000000000000     0.000000000000     1.353756483713    27.976926534650
         AR           0.000000000000     0.000000000000    -0.947739917647    39.962383123700

  Running in c2v symmetry.

  Rotational constants: A = ************  B =      0.19340  C =      0.19340 [cm^-1]
  Rotational constants: A = ************  B =   5797.84161  C =   5797.84161 [MHz]
  Nuclear repulsion =   57.941718705292310

  Charge       = 1
  Multiplicity = 4
  Electrons    = 31
  Nalpha       = 17
  Nbeta        = 14

  ==> Algorithm <==

  SCF Algorithm Type is DF.
  DIIS enabled.
  MOM disabled.
  Fractional occupation disabled.
  Guess Type is READ.
  Energy threshold   = 1.00e-08
  Density threshold  = 1.00e-08
  Integral threshold = 1.00e-12

  ==> Primary Basis <==

  Basis Set: CC-PVDZ
    Blend: CC-PVDZ
    Number of shells: 16
    Number of basis functions: 36
    Number of Cartesian functions: 38
    Spherical Harmonics?: true
    Max angular momentum: 2

  ==> DFT Potential <==

   => LibXC <=

    Version 7.0.0
    S. Lehtola, C. Steigemann, M. J.T. Oliveira, and M. A.L. Marques.,  SoftwareX 7, 1–5 (2018) (10.1016/j.softx.2017.11.002)

   => Composite Functional: B3LYP <= 

    B3LYP Hyb-GGA Exchange-Correlation Functional

    P. J. Stephens, F. J. Devlin, C. F. Chabalowski, and M. J. Frisch.,  J. Phys. Chem. 98, 11623 (1994) (10.1021/j100096a001)

    Deriv               =              1
    GGA                 =           TRUE
    Meta                =          FALSE

    Exchange Hybrid     =           TRUE
    MP2 Hybrid          =          FALSE

   => Exchange Functionals <=

    0.0800   Slater exchange
    0.7200         Becke 88

   => Exact (HF) Exchange <=

    0.2000               HF 

   => Correlation Functionals <=

    0.1900   Vosko, Wilk & Nusair (VWN5_RPA)
    0.8100   Lee, Yang & Parr

   => LibXC Density Thresholds  <==

    XC_HYB_GGA_XC_B3LYP:  1.00E-15 

   => Molecular Quadrature <=

    Radial Scheme          =       TREUTLER
    Pruning Scheme         =           NONE
    Nuclear Scheme         =       TREUTLER

    Blocking Scheme        =         OCTREE
    BS radius alpha        =              1
    Pruning alpha          =              1
    Radial Points          =             75
    Spherical Points       =            302
    Total Points           =          41627
    Total Blocks           =            385
    Max Points             =            253
    Max Functions          =             36
    Weights Tolerance      =       1.00E-15

   => Loading Basis Set <=

    Name: (CC-PVDZ AUX)
    Role: JKFIT
    Keyword: DF_BASIS_SCF
    atoms 1 entry SI         line   445 file /home/jrodriguesro/psi4conda/share/psi4/basis/cc-pvdz-jkfit.gbs 
    atoms 2 entry AR         line   741 file /home/jrodriguesro/psi4conda/share/psi4/basis/cc-pvdz-jkfit.gbs 

   => Loading Basis Set <=

    Name: CC-PVDZ
    Role: ORBITAL
    Keyword: BASIS
    atoms 1 entry SI         line   478 file /home/jrodriguesro/psi4conda/share/psi4/basis/cc-pvdz.gbs 
    atoms 2 entry AR         line   718 file /home/jrodriguesro/psi4conda/share/psi4/basis/cc-pvdz.gbs 

  Reading orbitals from file /tmp/quartet_SiAr.default.423046.180.npy, no projection.

  ==> Integral Setup <==

  DFHelper Memory: AOs need 0.003 GiB; user supplied 5.547 GiB. 
  SCF_SUBTYPE=INCORE selected. In-core MEM_DF algorithm will be used.
  Using in-core AOs.

  ==> MemDFJK: Density-Fitted J/K Matrices <==

    J tasked:                   Yes
    K tasked:                   Yes
    wK tasked:                   No
    OpenMP threads:               5
    Memory [MiB]:              5679
    Algorithm:                 Core
    Schwarz Cutoff:           1E-12
    Mask sparsity (%):       0.0000
    Fitting Condition:        1E-10

   => Auxiliary Basis Set <=

  Basis Set: (CC-PVDZ AUX)
    Blend: CC-PVDZ-JKFIT
    Number of shells: 72
    Number of basis functions: 224
    Number of Cartesian functions: 260
    Spherical Harmonics?: true
    Max angular momentum: 3

  Cached 100.0% of DFT collocation blocks in 0.041 [GiB].

  Minimum eigenvalue in the overlap matrix is 4.4037636884E-02.
  Reciprocal condition number of the overlap matrix is 1.7165673029E-02.
    Using symmetric orthogonalization.

  ==> Pre-Iterations <==

  SCF Guess: Orbitals guess was supplied from a previous computation.

   -------------------------------------------------------
    Irrep   Nso     Nmo     Nalpha   Nbeta   Ndocc  Nsocc
   -------------------------------------------------------
     A1        18      18       9       8       8       1
     A2         2       2       0       0       0       0
     B1         8       8       4       3       3       1
     B2         8       8       4       3       3       1
   -------------------------------------------------------
    Total      36      36      17      14      14       3
   -------------------------------------------------------

  ==> Iterations <==

                           Total Energy        Delta E     RMS |[F,P]|

   @DF-UKS iter   0:  -816.47500568270766   -8.16475e+02   3.31948e-04 
   @DF-UKS iter   1:  -816.47727373571684   -2.26805e-03   6.28084e-05 DIIS
   @DF-UKS iter   2:  -816.47727404284024   -3.07123e-07   6.13601e-05 DIIS/DAMP=1%
   @DF-UKS iter   3:  -816.47720923320685    6.48096e-05   5.17606e-06 DIIS/DAMP=1%
   @DF-UKS iter   4:  -816.47727522372554   -6.59905e-05   1.78133e-06 DIIS/DAMP=1%
   @DF-UKS iter   5:  -816.47727419211503    1.03161e-06   2.60317e-07 DIIS/DAMP=1%
   @DF-UKS iter   6:  -816.47727495762888   -7.65514e-07   4.62733e-08 DIIS/DAMP=1%
   @DF-UKS iter   7:  -816.47727508935452   -1.31726e-07   6.06436e-09 DIIS/DAMP=1%
   @DF-UKS iter   8:  -816.47727506039871    2.89558e-08   8.61519e-10 DIIS/DAMP=1%
   @DF-UKS iter   9:  -816.47727506239755   -1.99884e-09   7.60009e-11 DIIS/DAMP=1%
  Energy and wave function converged.


  ==> Post-Iterations <==

   Electrons on quadrature grid:
      Nalpha   =   17.0000023227 ; deviation = 2.323e-06
      Nbeta    =   14.0000023343 ; deviation = 2.334e-06
      Ntotal   =   31.0000046570 ; deviation = 4.657e-06 

   @Spin Contamination Metric:   7.332558289E-04
   @S^2 Expected:                3.750000000E+00
   @S^2 Observed:                3.750733256E+00
   @S   Expected:                1.500000000E+00
   @S   Observed:                1.500000000E+00

    Orbital Energies [Eh]
    ---------------------

    Alpha Occupied:                                                       

       1A1  -115.429943     2A1   -66.502707     3A1   -11.465542  
       4A1    -9.021109     1B1    -9.012968     1B2    -9.012968  
       5A1    -5.642125     6A1    -4.004261     2B1    -4.000177  
       2B2    -4.000177     7A1    -1.294114     8A1    -0.825825  
       3B1    -0.730108     3B2    -0.730108     9A1    -0.692536  
       4B1    -0.464399     4B2    -0.464399  

    Alpha Virtual:                                                        

      10A1    -0.336589    11A1    -0.016668    12A1     0.038952  
       5B2     0.039060     5B1     0.039060     1A2     0.056371  
      13A1     0.056371     6B1     0.065374     6B2     0.065374  
      14A1     0.141055     7B1     0.360506     7B2     0.360506  
      15A1     0.370417    16A1     0.530899     2A2     0.530901  
      17A1     0.551090     8B2     0.573648     8B1     0.573648  
      18A1     0.951071  

    Beta Occupied:                                                        

       1A1  -115.428098     2A1   -66.489148     3A1   -11.463777  
       4A1    -9.016525     1B1    -9.011381     1B2    -9.011381  
       5A1    -5.624228     6A1    -3.993137     2B1    -3.977614  
       2B2    -3.977614     7A1    -1.283629     8A1    -0.784300  
       3B1    -0.723999     3B2    -0.723999  

    Beta Virtual:                                                         

       9A1    -0.526535     4B1    -0.295612     4B2    -0.295612  
      10A1    -0.277020    11A1     0.012000    12A1     0.077029  
       5B2     0.111546     5B1     0.111546     6B1     0.123756  
       6B2     0.123756    13A1     0.181575     1A2     0.181576  
      14A1     0.187920     7B1     0.365929     7B2     0.365929  
      15A1     0.388025    16A1     0.535278     2A2     0.535281  
      17A1     0.563772     8B2     0.592408     8B1     0.592408  
      18A1     0.966721  

    Final Occupation by Irrep:
             A1    A2    B1    B2 
    DOCC [     8,    0,    3,    3 ]
    SOCC [     1,    0,    1,    1 ]
    NA   [     9,    0,    4,    4 ]
    NB   [     8,    0,    3,    3 ]

  @DF-UKS Final Energy:  -816.47727506239755

   => Energetics <=

    Nuclear Repulsion Energy =             57.9417187052923097
    One-Electron Energy =               -1234.5545329356527873
    Two-Electron Energy =                 401.6044812685371426
    DFT Exchange-Correlation Energy =     -41.4689421005741750
    Empirical Dispersion Energy =           0.0000000000000000
    VV10 Nonlocal Energy =                  0.0000000000000000
    Total Energy =                       -816.4772750623975526

  UHF NO Occupations:
  HONO-2 :    9 A1 1.0000000
  HONO-1 :    4 B1 1.0000000
  HONO-0 :    4 B2 1.0000000
  LUNO+0 :   10 A1 0.0003039
  LUNO+1 :    5 B2 0.0000247
  LUNO+2 :    5 B1 0.0000247
  LUNO+3 :   11 A1 0.0000124


Computation Completed


Properties will be evaluated at   0.000000,   0.000000,   0.000000 [a0]

Properties computed using the SCF density matrix


 Multipole Moments:

 ------------------------------------------------------------------------------------
     Multipole            Electronic (a.u.)      Nuclear  (a.u.)        Total (a.u.)
 ------------------------------------------------------------------------------------

 L = 1.  Multiply by 2.5417464519 to convert [e a0] to [Debye]
 Dipole X            :          0.0000000            0.0000000            0.0000000
 Dipole Y            :          0.0000000            0.0000000            0.0000000
 Dipole Z            :         -2.5553545            3.5777660            1.0224115
 Magnitude           :                                                    1.0224115

 ------------------------------------------------------------------------------------

*** tstop() called on cics-quant-001 at Tue Dec 23 11:50:59 2025
Module time:
	user time   =       0.69 seconds =       0.01 minutes
	system time =       0.08 seconds =       0.00 minutes
	total time  =          1 seconds =       0.02 minutes
Total time:
	user time   =      15.09 seconds =       0.25 minutes
	system time =       2.79 seconds =       0.05 minutes
	total time  =          9 seconds =       0.15 minutes

*** tstart() called on cics-quant-001
*** at Tue Dec 23 11:50:59 2025


         ------------------------------------------------------------
                                   SCF GRAD                          
                          Rob Parrish, Justin Turney,                
                       Andy Simmonett, and Alex Sokolov              
         ------------------------------------------------------------

  ==> Geometry <==

    Molecular point group: c2v
    Full point group: C_inf_v

    Geometry (in Angstrom), charge = 1, multiplicity = 4:

       Center              X                  Y                   Z               Mass       
    ------------   -----------------  -----------------  -----------------  -----------------
         SI           0.000000000000     0.000000000000     1.353756483713    27.976926534650
         AR           0.000000000000     0.000000000000    -0.947739917647    39.962383123700

  Nuclear repulsion =   57.941718705292310

  ==> Basis Set <==

  Basis Set: CC-PVDZ
    Blend: CC-PVDZ
    Number of shells: 16
    Number of basis functions: 36
    Number of Cartesian functions: 38
    Spherical Harmonics?: true
    Max angular momentum: 2

  ==> DFJKGrad: Density-Fitted SCF Gradients <==

    Gradient:                    1
    J tasked:                  Yes
    K tasked:                  Yes
    wK tasked:                  No
    OpenMP threads:              5
    Integrals threads:           5
    Memory [MiB]:             5722
    Schwarz Cutoff:          1E-12
    Fitting Condition:       1E-10

   => Auxiliary Basis Set <=

  Basis Set: (CC-PVDZ AUX)
    Blend: CC-PVDZ-JKFIT
    Number of shells: 72
    Number of basis functions: 224
    Number of Cartesian functions: 260
    Spherical Harmonics?: true
    Max angular momentum: 3

  ==> DFT Potential <==

   => LibXC <=

    Version 7.0.0
    S. Lehtola, C. Steigemann, M. J.T. Oliveira, and M. A.L. Marques.,  SoftwareX 7, 1–5 (2018) (10.1016/j.softx.2017.11.002)

   => Composite Functional: B3LYP <= 

    B3LYP Hyb-GGA Exchange-Correlation Functional

    P. J. Stephens, F. J. Devlin, C. F. Chabalowski, and M. J. Frisch.,  J. Phys. Chem. 98, 11623 (1994) (10.1021/j100096a001)

    Deriv               =              1
    GGA                 =           TRUE
    Meta                =          FALSE

    Exchange Hybrid     =           TRUE
    MP2 Hybrid          =          FALSE

   => Exchange Functionals <=

    0.0800   Slater exchange
    0.7200         Becke 88

   => Exact (HF) Exchange <=

    0.2000               HF 

   => Correlation Functionals <=

    0.1900   Vosko, Wilk & Nusair (VWN5_RPA)
    0.8100   Lee, Yang & Parr

   => LibXC Density Thresholds  <==

    XC_HYB_GGA_XC_B3LYP:  1.00E-15 

   => Molecular Quadrature <=

    Radial Scheme          =       TREUTLER
    Pruning Scheme         =           NONE
    Nuclear Scheme         =       TREUTLER

    Blocking Scheme        =         OCTREE
    BS radius alpha        =              1
    Pruning alpha          =              1
    Radial Points          =             75
    Spherical Points       =            302
    Total Points           =          41627
    Total Blocks           =            385
    Max Points             =            253
    Max Functions          =             36
    Weights Tolerance      =       1.00E-15


  -Total Gradient:
     Atom            X                  Y                   Z
    ------   -----------------  -----------------  -----------------
       1       -0.000000000000    -0.000000000000    -0.000454037533
       2       -0.000000000000     0.000000000000     0.000473262696


*** tstop() called on cics-quant-001 at Tue Dec 23 11:50:59 2025
Module time:
	user time   =       0.26 seconds =       0.00 minutes
	system time =       0.13 seconds =       0.00 minutes
	total time  =          0 seconds =       0.00 minutes
Total time:
	user time   =      15.35 seconds =       0.26 minutes
	system time =       2.92 seconds =       0.05 minutes
	total time  =          9 seconds =       0.15 minutes

    			-----------------------------------------

    			 OPTKING 3.0: for geometry optimizations 

    			     By R.A. King, Bethel University     

    			        with contributions from          

    			    A.V. Copan, J. Cayton, A. Heide      

    			-----------------------------------------

    
	                            ===> Fragment 1 <== 

	 Z (Atomic Numbers)          Masses                          Geom                  
	      14.000000            27.976927          0.00000000  0.00000000  2.55822899   
	      18.000000            39.962383          0.00000000  0.00000000 -1.79096888   

	 - Coordinate -           - BOHR/RAD -       - ANG/DEG -
	 R(1,2)           =         4.349198           2.301496


	        --- Internal Coordinate Step in ANG or DEG, aJ/ANG or AJ/DEG ---
	-------------------------------------------------------------------------------
	           Coordinate      Previous         Force          Change          New 
	           ----------      --------        ------          ------        ------
	               R(1,2)       2.30150        0.00382        0.00298       2.30447
	-------------------------------------------------------------------------------

	                                 ==> Convergence Check <==                                  
    
	Measures of convergence in internal coordinates in au.
    
	Criteria marked as inactive (o), active & met (*), and active & unmet ( ).

	----------------------------------------------------------------------------------------------
	   Step    Total Energy     Delta E     Max Force     RMS Force      Max Disp      RMS Disp   
	----------------------------------------------------------------------------------------------
	  Convergence Criteria     1.00e-06 *    3.00e-04 *             o    1.20e-03 *             o
	----------------------------------------------------------------------------------------------
	    15    -816.47727506   -1.11e-05      4.64e-04      4.64e-04 o    5.63e-03      5.63e-03 o  ~
	----------------------------------------------------------------------------------------------

Next Geometry in Ang 
	Fragment 1 (Ang)

	   Si   0.0000000000   0.0000000000   1.3552457064
	   Ar   0.0000000000   0.0000000000  -0.9492291403


    Structure for next step:
    Molecular point group: c2v
    Full point group: C_inf_v

    Geometry (in Angstrom), charge = 1, multiplicity = 4:

    SI           0.000000000000     0.000000000000     1.355508426374
    AR           0.000000000000     0.000000000000    -0.948966420355


Scratch directory: /tmp/
gradient() will perform analytic gradient computation.
   => Libint2 <=

    Primary   basis highest AM E, G, H:  6, 6, 3
    Auxiliary basis highest AM E, G, H:  7, 7, 4
    Onebody   basis highest AM E, G, H:  -, -, -
    Solid Harmonics ordering:            Gaussian

*** tstart() called on cics-quant-001
*** at Tue Dec 23 11:50:59 2025

   => Loading Basis Set <=

    Name: CC-PVDZ
    Role: ORBITAL
    Keyword: BASIS
    atoms 1 entry SI         line   478 file /home/jrodriguesro/psi4conda/share/psi4/basis/cc-pvdz.gbs 
    atoms 2 entry AR         line   718 file /home/jrodriguesro/psi4conda/share/psi4/basis/cc-pvdz.gbs 


         ---------------------------------------------------------
                                   SCF
               by Justin Turney, Rob Parrish, Andy Simmonett
                          and Daniel G. A. Smith
                              UKS Reference
                        5 Threads,   7629 MiB Core
         ---------------------------------------------------------

  ==> Geometry <==

    Molecular point group: c2v
    Full point group: C_inf_v

    Geometry (in Angstrom), charge = 1, multiplicity = 4:

       Center              X                  Y                   Z               Mass       
    ------------   -----------------  -----------------  -----------------  -----------------
         SI           0.000000000000     0.000000000000     1.355508426374    27.976926534650
         AR           0.000000000000     0.000000000000    -0.948966420355    39.962383123700

  Running in c2v symmetry.

  Rotational constants: A = ************  B =      0.19290  C =      0.19290 [cm^-1]
  Rotational constants: A = ************  B =   5782.86432  C =   5782.86432 [MHz]
  Nuclear repulsion =   57.866831255784682

  Charge       = 1
  Multiplicity = 4
  Electrons    = 31
  Nalpha       = 17
  Nbeta        = 14

  ==> Algorithm <==

  SCF Algorithm Type is DF.
  DIIS enabled.
  MOM disabled.
  Fractional occupation disabled.
  Guess Type is READ.
  Energy threshold   = 1.00e-08
  Density threshold  = 1.00e-08
  Integral threshold = 1.00e-12

  ==> Primary Basis <==

  Basis Set: CC-PVDZ
    Blend: CC-PVDZ
    Number of shells: 16
    Number of basis functions: 36
    Number of Cartesian functions: 38
    Spherical Harmonics?: true
    Max angular momentum: 2

  ==> DFT Potential <==

   => LibXC <=

    Version 7.0.0
    S. Lehtola, C. Steigemann, M. J.T. Oliveira, and M. A.L. Marques.,  SoftwareX 7, 1–5 (2018) (10.1016/j.softx.2017.11.002)

   => Composite Functional: B3LYP <= 

    B3LYP Hyb-GGA Exchange-Correlation Functional

    P. J. Stephens, F. J. Devlin, C. F. Chabalowski, and M. J. Frisch.,  J. Phys. Chem. 98, 11623 (1994) (10.1021/j100096a001)

    Deriv               =              1
    GGA                 =           TRUE
    Meta                =          FALSE

    Exchange Hybrid     =           TRUE
    MP2 Hybrid          =          FALSE

   => Exchange Functionals <=

    0.0800   Slater exchange
    0.7200         Becke 88

   => Exact (HF) Exchange <=

    0.2000               HF 

   => Correlation Functionals <=

    0.1900   Vosko, Wilk & Nusair (VWN5_RPA)
    0.8100   Lee, Yang & Parr

   => LibXC Density Thresholds  <==

    XC_HYB_GGA_XC_B3LYP:  1.00E-15 

   => Molecular Quadrature <=

    Radial Scheme          =       TREUTLER
    Pruning Scheme         =           NONE
    Nuclear Scheme         =       TREUTLER

    Blocking Scheme        =         OCTREE
    BS radius alpha        =              1
    Pruning alpha          =              1
    Radial Points          =             75
    Spherical Points       =            302
    Total Points           =          41627
    Total Blocks           =            384
    Max Points             =            255
    Max Functions          =             36
    Weights Tolerance      =       1.00E-15

   => Loading Basis Set <=

    Name: (CC-PVDZ AUX)
    Role: JKFIT
    Keyword: DF_BASIS_SCF
    atoms 1 entry SI         line   445 file /home/jrodriguesro/psi4conda/share/psi4/basis/cc-pvdz-jkfit.gbs 
    atoms 2 entry AR         line   741 file /home/jrodriguesro/psi4conda/share/psi4/basis/cc-pvdz-jkfit.gbs 

   => Loading Basis Set <=

    Name: CC-PVDZ
    Role: ORBITAL
    Keyword: BASIS
    atoms 1 entry SI         line   478 file /home/jrodriguesro/psi4conda/share/psi4/basis/cc-pvdz.gbs 
    atoms 2 entry AR         line   718 file /home/jrodriguesro/psi4conda/share/psi4/basis/cc-pvdz.gbs 

  Reading orbitals from file /tmp/quartet_SiAr.default.423046.180.npy, no projection.

  ==> Integral Setup <==

  DFHelper Memory: AOs need 0.003 GiB; user supplied 5.547 GiB. 
  SCF_SUBTYPE=INCORE selected. In-core MEM_DF algorithm will be used.
  Using in-core AOs.

  ==> MemDFJK: Density-Fitted J/K Matrices <==

    J tasked:                   Yes
    K tasked:                   Yes
    wK tasked:                   No
    OpenMP threads:               5
    Memory [MiB]:              5679
    Algorithm:                 Core
    Schwarz Cutoff:           1E-12
    Mask sparsity (%):       0.0000
    Fitting Condition:        1E-10

   => Auxiliary Basis Set <=

  Basis Set: (CC-PVDZ AUX)
    Blend: CC-PVDZ-JKFIT
    Number of shells: 72
    Number of basis functions: 224
    Number of Cartesian functions: 260
    Spherical Harmonics?: true
    Max angular momentum: 3

  Cached 100.0% of DFT collocation blocks in 0.041 [GiB].

  Minimum eigenvalue in the overlap matrix is 4.4162873319E-02.
  Reciprocal condition number of the overlap matrix is 1.7228794671E-02.
    Using symmetric orthogonalization.

  ==> Pre-Iterations <==

  SCF Guess: Orbitals guess was supplied from a previous computation.

   -------------------------------------------------------
    Irrep   Nso     Nmo     Nalpha   Nbeta   Ndocc  Nsocc
   -------------------------------------------------------
     A1        18      18       9       8       8       1
     A2         2       2       0       0       0       0
     B1         8       8       4       3       3       1
     B2         8       8       4       3       3       1
   -------------------------------------------------------
    Total      36      36      17      14      14       3
   -------------------------------------------------------

  ==> Iterations <==

                           Total Energy        Delta E     RMS |[F,P]|

   @DF-UKS iter   0:  -816.47629702275140   -8.16476e+02   1.42899e-04 
   @DF-UKS iter   1:  -816.47727633501222   -9.79312e-04   2.70809e-05 DIIS
   @DF-UKS iter   2:  -816.47727639179050   -5.67783e-08   2.64895e-05 DIIS/DAMP=1%
   @DF-UKS iter   3:  -816.47724817259177    2.82192e-05   2.23554e-06 DIIS/DAMP=1%
   @DF-UKS iter   4:  -816.47727665013986   -2.84775e-05   7.72143e-07 DIIS/DAMP=1%
   @DF-UKS iter   5:  -816.47727620385274    4.46287e-07   1.13160e-07 DIIS/DAMP=1%
   @DF-UKS iter   6:  -816.47727653650168   -3.32649e-07   2.01034e-08 DIIS/DAMP=1%
   @DF-UKS iter   7:  -816.47727659347265   -5.69710e-08   2.64011e-09 DIIS/DAMP=1%
   @DF-UKS iter   8:  -816.47727658099279    1.24799e-08   3.73338e-10 DIIS/DAMP=1%
   @DF-UKS iter   9:  -816.47727658185534   -8.62542e-10   3.28050e-11 DIIS/DAMP=1%
  Energy and wave function converged.


  ==> Post-Iterations <==

   Electrons on quadrature grid:
      Nalpha   =   17.0000023094 ; deviation = 2.309e-06
      Nbeta    =   14.0000023203 ; deviation = 2.320e-06
      Ntotal   =   31.0000046297 ; deviation = 4.630e-06 

   @Spin Contamination Metric:   7.350854690E-04
   @S^2 Expected:                3.750000000E+00
   @S^2 Observed:                3.750735085E+00
   @S   Expected:                1.500000000E+00
   @S   Observed:                1.500000000E+00

    Orbital Energies [Eh]
    ---------------------

    Alpha Occupied:                                                       

       1A1  -115.429624     2A1   -66.502881     3A1   -11.465205  
       4A1    -9.020775     1B2    -9.012633     1B1    -9.012633  
       5A1    -5.642263     6A1    -4.004400     2B1    -4.000317  
       2B2    -4.000317     7A1    -1.293675     8A1    -0.825350  
       3B2    -0.729733     3B1    -0.729733     9A1    -0.692667  
       4B2    -0.464472     4B1    -0.464472  

    Alpha Virtual:                                                        

      10A1    -0.337026    11A1    -0.016395    12A1     0.038872  
       5B2     0.039141     5B1     0.039141     1A2     0.056358  
      13A1     0.056359     6B2     0.065326     6B1     0.065326  
      14A1     0.140973     7B2     0.360762     7B1     0.360762  
      15A1     0.370438    16A1     0.531222     2A2     0.531224  
      17A1     0.550877     8B1     0.573414     8B2     0.573414  
      18A1     0.949990  

    Beta Occupied:                                                        

       1A1  -115.427780     2A1   -66.489322     3A1   -11.463441  
       4A1    -9.016184     1B1    -9.011050     1B2    -9.011050  
       5A1    -5.624365     6A1    -3.993281     2B1    -3.977752  
       2B2    -3.977752     7A1    -1.283192     8A1    -0.783708  
       3B2    -0.723645     3B1    -0.723645  

    Beta Virtual:                                                         

       9A1    -0.526812     4B2    -0.295670     4B1    -0.295670  
      10A1    -0.277454    11A1     0.012368    12A1     0.076903  
       5B1     0.111717     5B2     0.111717     6B2     0.123632  
       6B1     0.123632    13A1     0.181569     1A2     0.181571  
      14A1     0.187904     7B2     0.366203     7B1     0.366203  
      15A1     0.387888    16A1     0.535579     2A2     0.535581  
      17A1     0.563564     8B1     0.592112     8B2     0.592112  
      18A1     0.965652  

    Final Occupation by Irrep:
             A1    A2    B1    B2 
    DOCC [     8,    0,    3,    3 ]
    SOCC [     1,    0,    1,    1 ]
    NA   [     9,    0,    4,    4 ]
    NB   [     8,    0,    3,    3 ]

  @DF-UKS Final Energy:  -816.47727658185534

   => Energetics <=

    Nuclear Repulsion Energy =             57.8668312557846818
    One-Electron Energy =               -1234.4099497892766522
    Two-Electron Energy =                 401.5344596406812343
    DFT Exchange-Correlation Energy =     -41.4686176890446134
    Empirical Dispersion Energy =           0.0000000000000000
    VV10 Nonlocal Energy =                  0.0000000000000000
    Total Energy =                       -816.4772765818553353

  UHF NO Occupations:
  HONO-2 :    4 B2 1.0000000
  HONO-1 :    4 B1 1.0000000
  HONO-0 :    9 A1 1.0000000
  LUNO+0 :   10 A1 0.0003051
  LUNO+1 :    5 B1 0.0000246
  LUNO+2 :    5 B2 0.0000246
  LUNO+3 :   11 A1 0.0000125


Computation Completed


Properties will be evaluated at   0.000000,   0.000000,   0.000000 [a0]

Properties computed using the SCF density matrix


 Multipole Moments:

 ------------------------------------------------------------------------------------
     Multipole            Electronic (a.u.)      Nuclear  (a.u.)        Total (a.u.)
 ------------------------------------------------------------------------------------

 L = 1.  Multiply by 2.5417464519 to convert [e a0] to [Debye]
 Dipole X            :          0.0000000            0.0000000            0.0000000
 Dipole Y            :          0.0000000            0.0000000            0.0000000
 Dipole Z            :         -2.5550885            3.5823962            1.0273077
 Magnitude           :                                                    1.0273077

 ------------------------------------------------------------------------------------

*** tstop() called on cics-quant-001 at Tue Dec 23 11:50:59 2025
Module time:
	user time   =       0.68 seconds =       0.01 minutes
	system time =       0.08 seconds =       0.00 minutes
	total time  =          0 seconds =       0.00 minutes
Total time:
	user time   =      16.05 seconds =       0.27 minutes
	system time =       3.00 seconds =       0.05 minutes
	total time  =          9 seconds =       0.15 minutes

*** tstart() called on cics-quant-001
*** at Tue Dec 23 11:50:59 2025


         ------------------------------------------------------------
                                   SCF GRAD                          
                          Rob Parrish, Justin Turney,                
                       Andy Simmonett, and Alex Sokolov              
         ------------------------------------------------------------

  ==> Geometry <==

    Molecular point group: c2v
    Full point group: C_inf_v

    Geometry (in Angstrom), charge = 1, multiplicity = 4:

       Center              X                  Y                   Z               Mass       
    ------------   -----------------  -----------------  -----------------  -----------------
         SI           0.000000000000     0.000000000000     1.355508426374    27.976926534650
         AR           0.000000000000     0.000000000000    -0.948966420355    39.962383123700

  Nuclear repulsion =   57.866831255784682

  ==> Basis Set <==

  Basis Set: CC-PVDZ
    Blend: CC-PVDZ
    Number of shells: 16
    Number of basis functions: 36
    Number of Cartesian functions: 38
    Spherical Harmonics?: true
    Max angular momentum: 2

  ==> DFJKGrad: Density-Fitted SCF Gradients <==

    Gradient:                    1
    J tasked:                  Yes
    K tasked:                  Yes
    wK tasked:                  No
    OpenMP threads:              5
    Integrals threads:           5
    Memory [MiB]:             5722
    Schwarz Cutoff:          1E-12
    Fitting Condition:       1E-10

   => Auxiliary Basis Set <=

  Basis Set: (CC-PVDZ AUX)
    Blend: CC-PVDZ-JKFIT
    Number of shells: 72
    Number of basis functions: 224
    Number of Cartesian functions: 260
    Spherical Harmonics?: true
    Max angular momentum: 3

  ==> DFT Potential <==

   => LibXC <=

    Version 7.0.0
    S. Lehtola, C. Steigemann, M. J.T. Oliveira, and M. A.L. Marques.,  SoftwareX 7, 1–5 (2018) (10.1016/j.softx.2017.11.002)

   => Composite Functional: B3LYP <= 

    B3LYP Hyb-GGA Exchange-Correlation Functional

    P. J. Stephens, F. J. Devlin, C. F. Chabalowski, and M. J. Frisch.,  J. Phys. Chem. 98, 11623 (1994) (10.1021/j100096a001)

    Deriv               =              1
    GGA                 =           TRUE
    Meta                =          FALSE

    Exchange Hybrid     =           TRUE
    MP2 Hybrid          =          FALSE

   => Exchange Functionals <=

    0.0800   Slater exchange
    0.7200         Becke 88

   => Exact (HF) Exchange <=

    0.2000               HF 

   => Correlation Functionals <=

    0.1900   Vosko, Wilk & Nusair (VWN5_RPA)
    0.8100   Lee, Yang & Parr

   => LibXC Density Thresholds  <==

    XC_HYB_GGA_XC_B3LYP:  1.00E-15 

   => Molecular Quadrature <=

    Radial Scheme          =       TREUTLER
    Pruning Scheme         =           NONE
    Nuclear Scheme         =       TREUTLER

    Blocking Scheme        =         OCTREE
    BS radius alpha        =              1
    Pruning alpha          =              1
    Radial Points          =             75
    Spherical Points       =            302
    Total Points           =          41627
    Total Blocks           =            384
    Max Points             =            255
    Max Functions          =             36
    Weights Tolerance      =       1.00E-15


  -Total Gradient:
     Atom            X                  Y                   Z
    ------   -----------------  -----------------  -----------------
       1        0.000000000000     0.000000000000    -0.000105285105
       2       -0.000000000000     0.000000000000     0.000124617691


*** tstop() called on cics-quant-001 at Tue Dec 23 11:51:00 2025
Module time:
	user time   =       0.29 seconds =       0.00 minutes
	system time =       0.11 seconds =       0.00 minutes
	total time  =          1 seconds =       0.02 minutes
Total time:
	user time   =      16.34 seconds =       0.27 minutes
	system time =       3.11 seconds =       0.05 minutes
	total time  =         10 seconds =       0.17 minutes

    			-----------------------------------------

    			 OPTKING 3.0: for geometry optimizations 

    			     By R.A. King, Bethel University     

    			        with contributions from          

    			    A.V. Copan, J. Cayton, A. Heide      

    			-----------------------------------------

    
	                            ===> Fragment 1 <== 

	 Z (Atomic Numbers)          Masses                          Geom                  
	      14.000000            27.976927          0.00000000  0.00000000  2.56153969   
	      18.000000            39.962383          0.00000000  0.00000000 -1.79328664   

	 - Coordinate -           - BOHR/RAD -       - ANG/DEG -
	 R(1,2)           =         4.354826           2.304475


	        --- Internal Coordinate Step in ANG or DEG, aJ/ANG or AJ/DEG ---
	-------------------------------------------------------------------------------
	           Coordinate      Previous         Force          Change          New 
	           ----------      --------        ------          ------        ------
	               R(1,2)       2.30447        0.00095        0.00086       2.30533
	-------------------------------------------------------------------------------

	                                 ==> Convergence Check <==                                  
    
	Measures of convergence in internal coordinates in au.
    
	Criteria marked as inactive (o), active & met (*), and active & unmet ( ).

	----------------------------------------------------------------------------------------------
	   Step    Total Energy     Delta E     Max Force     RMS Force      Max Disp      RMS Disp   
	----------------------------------------------------------------------------------------------
	  Convergence Criteria     1.00e-06 *    3.00e-04 *             o    1.20e-03 *             o
	----------------------------------------------------------------------------------------------
	    16    -816.47727658   -1.52e-06      1.15e-04 *    1.15e-04 o    1.62e-03      1.62e-03 o  ~
	----------------------------------------------------------------------------------------------

Next Geometry in Ang 
	Fragment 1 (Ang)

	   Si   0.0000000000   0.0000000000   1.3559371050
	   Ar   0.0000000000   0.0000000000  -0.9493950989


    Structure for next step:
    Molecular point group: c2v
    Full point group: C_inf_v

    Geometry (in Angstrom), charge = 1, multiplicity = 4:

    SI           0.000000000000     0.000000000000     1.356012729935
    AR           0.000000000000     0.000000000000    -0.949319473967


Scratch directory: /tmp/
gradient() will perform analytic gradient computation.
   => Libint2 <=

    Primary   basis highest AM E, G, H:  6, 6, 3
    Auxiliary basis highest AM E, G, H:  7, 7, 4
    Onebody   basis highest AM E, G, H:  -, -, -
    Solid Harmonics ordering:            Gaussian

*** tstart() called on cics-quant-001
*** at Tue Dec 23 11:51:00 2025

   => Loading Basis Set <=

    Name: CC-PVDZ
    Role: ORBITAL
    Keyword: BASIS
    atoms 1 entry SI         line   478 file /home/jrodriguesro/psi4conda/share/psi4/basis/cc-pvdz.gbs 
    atoms 2 entry AR         line   718 file /home/jrodriguesro/psi4conda/share/psi4/basis/cc-pvdz.gbs 


         ---------------------------------------------------------
                                   SCF
               by Justin Turney, Rob Parrish, Andy Simmonett
                          and Daniel G. A. Smith
                              UKS Reference
                        5 Threads,   7629 MiB Core
         ---------------------------------------------------------

  ==> Geometry <==

    Molecular point group: c2v
    Full point group: C_inf_v

    Geometry (in Angstrom), charge = 1, multiplicity = 4:

       Center              X                  Y                   Z               Mass       
    ------------   -----------------  -----------------  -----------------  -----------------
         SI           0.000000000000     0.000000000000     1.356012729935    27.976926534650
         AR           0.000000000000     0.000000000000    -0.949319473967    39.962383123700

  Running in c2v symmetry.

  Rotational constants: A = ************  B =      0.19275  C =      0.19275 [cm^-1]
  Rotational constants: A = ************  B =   5778.56381  C =   5778.56381 [MHz]
  Nuclear repulsion =   57.845310477659673

  Charge       = 1
  Multiplicity = 4
  Electrons    = 31
  Nalpha       = 17
  Nbeta        = 14

  ==> Algorithm <==

  SCF Algorithm Type is DF.
  DIIS enabled.
  MOM disabled.
  Fractional occupation disabled.
  Guess Type is READ.
  Energy threshold   = 1.00e-08
  Density threshold  = 1.00e-08
  Integral threshold = 1.00e-12

  ==> Primary Basis <==

  Basis Set: CC-PVDZ
    Blend: CC-PVDZ
    Number of shells: 16
    Number of basis functions: 36
    Number of Cartesian functions: 38
    Spherical Harmonics?: true
    Max angular momentum: 2

  ==> DFT Potential <==

   => LibXC <=

    Version 7.0.0
    S. Lehtola, C. Steigemann, M. J.T. Oliveira, and M. A.L. Marques.,  SoftwareX 7, 1–5 (2018) (10.1016/j.softx.2017.11.002)

   => Composite Functional: B3LYP <= 

    B3LYP Hyb-GGA Exchange-Correlation Functional

    P. J. Stephens, F. J. Devlin, C. F. Chabalowski, and M. J. Frisch.,  J. Phys. Chem. 98, 11623 (1994) (10.1021/j100096a001)

    Deriv               =              1
    GGA                 =           TRUE
    Meta                =          FALSE

    Exchange Hybrid     =           TRUE
    MP2 Hybrid          =          FALSE

   => Exchange Functionals <=

    0.0800   Slater exchange
    0.7200         Becke 88

   => Exact (HF) Exchange <=

    0.2000               HF 

   => Correlation Functionals <=

    0.1900   Vosko, Wilk & Nusair (VWN5_RPA)
    0.8100   Lee, Yang & Parr

   => LibXC Density Thresholds  <==

    XC_HYB_GGA_XC_B3LYP:  1.00E-15 

   => Molecular Quadrature <=

    Radial Scheme          =       TREUTLER
    Pruning Scheme         =           NONE
    Nuclear Scheme         =       TREUTLER

    Blocking Scheme        =         OCTREE
    BS radius alpha        =              1
    Pruning alpha          =              1
    Radial Points          =             75
    Spherical Points       =            302
    Total Points           =          41627
    Total Blocks           =            384
    Max Points             =            255
    Max Functions          =             36
    Weights Tolerance      =       1.00E-15

   => Loading Basis Set <=

    Name: (CC-PVDZ AUX)
    Role: JKFIT
    Keyword: DF_BASIS_SCF
    atoms 1 entry SI         line   445 file /home/jrodriguesro/psi4conda/share/psi4/basis/cc-pvdz-jkfit.gbs 
    atoms 2 entry AR         line   741 file /home/jrodriguesro/psi4conda/share/psi4/basis/cc-pvdz-jkfit.gbs 

   => Loading Basis Set <=

    Name: CC-PVDZ
    Role: ORBITAL
    Keyword: BASIS
    atoms 1 entry SI         line   478 file /home/jrodriguesro/psi4conda/share/psi4/basis/cc-pvdz.gbs 
    atoms 2 entry AR         line   718 file /home/jrodriguesro/psi4conda/share/psi4/basis/cc-pvdz.gbs 

  Reading orbitals from file /tmp/quartet_SiAr.default.423046.180.npy, no projection.

  ==> Integral Setup <==

  DFHelper Memory: AOs need 0.003 GiB; user supplied 5.547 GiB. 
  SCF_SUBTYPE=INCORE selected. In-core MEM_DF algorithm will be used.
  Using in-core AOs.

  ==> MemDFJK: Density-Fitted J/K Matrices <==

    J tasked:                   Yes
    K tasked:                   Yes
    wK tasked:                   No
    OpenMP threads:               5
    Memory [MiB]:              5679
    Algorithm:                 Core
    Schwarz Cutoff:           1E-12
    Mask sparsity (%):       0.0000
    Fitting Condition:        1E-10

   => Auxiliary Basis Set <=

  Basis Set: (CC-PVDZ AUX)
    Blend: CC-PVDZ-JKFIT
    Number of shells: 72
    Number of basis functions: 224
    Number of Cartesian functions: 260
    Spherical Harmonics?: true
    Max angular momentum: 3

  Cached 100.0% of DFT collocation blocks in 0.041 [GiB].

  Minimum eigenvalue in the overlap matrix is 4.4198956635E-02.
  Reciprocal condition number of the overlap matrix is 1.7246996839E-02.
    Using symmetric orthogonalization.

  ==> Pre-Iterations <==

  SCF Guess: Orbitals guess was supplied from a previous computation.

   -------------------------------------------------------
    Irrep   Nso     Nmo     Nalpha   Nbeta   Ndocc  Nsocc
   -------------------------------------------------------
     A1        18      18       9       8       8       1
     A2         2       2       0       0       0       0
     B1         8       8       4       3       3       1
     B2         8       8       4       3       3       1
   -------------------------------------------------------
    Total      36      36      17      14      14       3
   -------------------------------------------------------

  ==> Iterations <==

                           Total Energy        Delta E     RMS |[F,P]|

   @DF-UKS iter   0:  -816.47699533037894   -8.16477e+02   4.09991e-05 
   @DF-UKS iter   1:  -816.47727663605531   -2.81306e-04   7.77193e-06 DIIS
   @DF-UKS iter   2:  -816.47727664072670   -4.67139e-09   7.60477e-06 DIIS/DAMP=1%
   @DF-UKS iter   3:  -816.47726850153583    8.13919e-06   6.41753e-07 DIIS/DAMP=1%
   @DF-UKS iter   4:  -816.47727667568267   -8.17415e-06   2.22051e-07 DIIS/DAMP=1%
   @DF-UKS iter   5:  -816.47727654759797    1.28085e-07   3.25727e-08 DIIS/DAMP=1%
   @DF-UKS iter   6:  -816.47727664332876   -9.57308e-08   5.78586e-09 DIIS/DAMP=1%
   @DF-UKS iter   7:  -816.47727665969740   -1.63686e-08   7.60358e-10 DIIS/DAMP=1%
   @DF-UKS iter   8:  -816.47727665611501    3.58239e-09   1.07338e-10 DIIS/DAMP=1%
  Energy and wave function converged.


  ==> Post-Iterations <==

   Electrons on quadrature grid:
      Nalpha   =   17.0000023053 ; deviation = 2.305e-06
      Nbeta    =   14.0000023159 ; deviation = 2.316e-06
      Ntotal   =   31.0000046212 ; deviation = 4.621e-06 

   @Spin Contamination Metric:   7.356164762E-04
   @S^2 Expected:                3.750000000E+00
   @S^2 Observed:                3.750735616E+00
   @S   Expected:                1.500000000E+00
   @S   Observed:                1.500000000E+00

    Orbital Energies [Eh]
    ---------------------

    Alpha Occupied:                                                       

       1A1  -115.429533     2A1   -66.502931     3A1   -11.465108  
       4A1    -9.020679     1B1    -9.012537     1B2    -9.012537  
       5A1    -5.642303     6A1    -4.004440     2B2    -4.000357  
       2B1    -4.000357     7A1    -1.293549     8A1    -0.825214  
       3B1    -0.729625     3B2    -0.729625     9A1    -0.692704  
       4B1    -0.464493     4B2    -0.464493  

    Alpha Virtual:                                                        

      10A1    -0.337151    11A1    -0.016317    12A1     0.038850  
       5B1     0.039164     5B2     0.039164     1A2     0.056355  
      13A1     0.056355     6B1     0.065313     6B2     0.065313  
      14A1     0.140949     7B2     0.360836     7B1     0.360836  
      15A1     0.370445    16A1     0.531315     2A2     0.531317  
      17A1     0.550816     8B1     0.573347     8B2     0.573347  
      18A1     0.949679  

    Beta Occupied:                                                        

       1A1  -115.427688     2A1   -66.489372     3A1   -11.463345  
       4A1    -9.016086     1B1    -9.010955     1B2    -9.010955  
       5A1    -5.624405     6A1    -3.993322     2B2    -3.977792  
       2B1    -3.977792     7A1    -1.283066     8A1    -0.783538  
       3B1    -0.723543     3B2    -0.723543  

    Beta Virtual:                                                         

       9A1    -0.526892     4B1    -0.295686     4B2    -0.295686  
      10A1    -0.277578    11A1     0.012474    12A1     0.076867  
       5B1     0.111766     5B2     0.111766     6B1     0.123596  
       6B2     0.123596    13A1     0.181568     1A2     0.181569  
      14A1     0.187899     7B2     0.366282     7B1     0.366282  
      15A1     0.387849    16A1     0.535665     2A2     0.535668  
      17A1     0.563504     8B1     0.592028     8B2     0.592028  
      18A1     0.965344  

    Final Occupation by Irrep:
             A1    A2    B1    B2 
    DOCC [     8,    0,    3,    3 ]
    SOCC [     1,    0,    1,    1 ]
    NA   [     9,    0,    4,    4 ]
    NB   [     8,    0,    3,    3 ]

  @DF-UKS Final Energy:  -816.47727665611501

   => Energetics <=

    Nuclear Repulsion Energy =             57.8453104776596732
    One-Electron Energy =               -1234.3684000312437092
    Two-Electron Energy =                 401.5143376297439204
    DFT Exchange-Correlation Energy =     -41.4685247322748651
    Empirical Dispersion Energy =           0.0000000000000000
    VV10 Nonlocal Energy =                  0.0000000000000000
    Total Energy =                       -816.4772766561148956

  UHF NO Occupations:
  HONO-2 :    9 A1 1.0000000
  HONO-1 :    4 B1 1.0000000
  HONO-0 :    4 B2 1.0000000
  LUNO+0 :   10 A1 0.0003054
  LUNO+1 :    5 B1 0.0000245
  LUNO+2 :    5 B2 0.0000245
  LUNO+3 :   11 A1 0.0000125


Computation Completed


Properties will be evaluated at   0.000000,   0.000000,   0.000000 [a0]

Properties computed using the SCF density matrix


 Multipole Moments:

 ------------------------------------------------------------------------------------
     Multipole            Electronic (a.u.)      Nuclear  (a.u.)        Total (a.u.)
 ------------------------------------------------------------------------------------

 L = 1.  Multiply by 2.5417464519 to convert [e a0] to [Debye]
 Dipole X            :          0.0000000            0.0000000            0.0000000
 Dipole Y            :          0.0000000            0.0000000            0.0000000
 Dipole Z            :         -2.5550128            3.5837289            1.0287161
 Magnitude           :                                                    1.0287161

 ------------------------------------------------------------------------------------

*** tstop() called on cics-quant-001 at Tue Dec 23 11:51:00 2025
Module time:
	user time   =       0.76 seconds =       0.01 minutes
	system time =       0.08 seconds =       0.00 minutes
	total time  =          0 seconds =       0.00 minutes
Total time:
	user time   =      17.12 seconds =       0.29 minutes
	system time =       3.19 seconds =       0.05 minutes
	total time  =         10 seconds =       0.17 minutes

*** tstart() called on cics-quant-001
*** at Tue Dec 23 11:51:00 2025


         ------------------------------------------------------------
                                   SCF GRAD                          
                          Rob Parrish, Justin Turney,                
                       Andy Simmonett, and Alex Sokolov              
         ------------------------------------------------------------

  ==> Geometry <==

    Molecular point group: c2v
    Full point group: C_inf_v

    Geometry (in Angstrom), charge = 1, multiplicity = 4:

       Center              X                  Y                   Z               Mass       
    ------------   -----------------  -----------------  -----------------  -----------------
         SI           0.000000000000     0.000000000000     1.356012729935    27.976926534650
         AR           0.000000000000     0.000000000000    -0.949319473967    39.962383123700

  Nuclear repulsion =   57.845310477659673

  ==> Basis Set <==

  Basis Set: CC-PVDZ
    Blend: CC-PVDZ
    Number of shells: 16
    Number of basis functions: 36
    Number of Cartesian functions: 38
    Spherical Harmonics?: true
    Max angular momentum: 2

  ==> DFJKGrad: Density-Fitted SCF Gradients <==

    Gradient:                    1
    J tasked:                  Yes
    K tasked:                  Yes
    wK tasked:                  No
    OpenMP threads:              5
    Integrals threads:           5
    Memory [MiB]:             5722
    Schwarz Cutoff:          1E-12
    Fitting Condition:       1E-10

   => Auxiliary Basis Set <=

  Basis Set: (CC-PVDZ AUX)
    Blend: CC-PVDZ-JKFIT
    Number of shells: 72
    Number of basis functions: 224
    Number of Cartesian functions: 260
    Spherical Harmonics?: true
    Max angular momentum: 3

  ==> DFT Potential <==

   => LibXC <=

    Version 7.0.0
    S. Lehtola, C. Steigemann, M. J.T. Oliveira, and M. A.L. Marques.,  SoftwareX 7, 1–5 (2018) (10.1016/j.softx.2017.11.002)

   => Composite Functional: B3LYP <= 

    B3LYP Hyb-GGA Exchange-Correlation Functional

    P. J. Stephens, F. J. Devlin, C. F. Chabalowski, and M. J. Frisch.,  J. Phys. Chem. 98, 11623 (1994) (10.1021/j100096a001)

    Deriv               =              1
    GGA                 =           TRUE
    Meta                =          FALSE

    Exchange Hybrid     =           TRUE
    MP2 Hybrid          =          FALSE

   => Exchange Functionals <=

    0.0800   Slater exchange
    0.7200         Becke 88

   => Exact (HF) Exchange <=

    0.2000               HF 

   => Correlation Functionals <=

    0.1900   Vosko, Wilk & Nusair (VWN5_RPA)
    0.8100   Lee, Yang & Parr

   => LibXC Density Thresholds  <==

    XC_HYB_GGA_XC_B3LYP:  1.00E-15 

   => Molecular Quadrature <=

    Radial Scheme          =       TREUTLER
    Pruning Scheme         =           NONE
    Nuclear Scheme         =       TREUTLER

    Blocking Scheme        =         OCTREE
    BS radius alpha        =              1
    Pruning alpha          =              1
    Radial Points          =             75
    Spherical Points       =            302
    Total Points           =          41627
    Total Blocks           =            384
    Max Points             =            255
    Max Functions          =             36
    Weights Tolerance      =       1.00E-15


  -Total Gradient:
     Atom            X                  Y                   Z
    ------   -----------------  -----------------  -----------------
       1        0.000000000000     0.000000000000    -0.000005856086
       2        0.000000000000    -0.000000000000     0.000025230380


*** tstop() called on cics-quant-001 at Tue Dec 23 11:51:00 2025
Module time:
	user time   =       0.24 seconds =       0.00 minutes
	system time =       0.11 seconds =       0.00 minutes
	total time  =          0 seconds =       0.00 minutes
Total time:
	user time   =      17.36 seconds =       0.29 minutes
	system time =       3.30 seconds =       0.06 minutes
	total time  =         10 seconds =       0.17 minutes

    			-----------------------------------------

    			 OPTKING 3.0: for geometry optimizations 

    			     By R.A. King, Bethel University     

    			        with contributions from          

    			    A.V. Copan, J. Cayton, A. Heide      

    			-----------------------------------------

    
	                            ===> Fragment 1 <== 

	 Z (Atomic Numbers)          Masses                          Geom                  
	      14.000000            27.976927          0.00000000  0.00000000  2.56249268   
	      18.000000            39.962383          0.00000000  0.00000000 -1.79395381   

	 - Coordinate -           - BOHR/RAD -       - ANG/DEG -
	 R(1,2)           =         4.356446           2.305332


	        --- Internal Coordinate Step in ANG or DEG, aJ/ANG or AJ/DEG ---
	-------------------------------------------------------------------------------
	           Coordinate      Previous         Force          Change          New 
	           ----------      --------        ------          ------        ------
	               R(1,2)       2.30533        0.00013        0.00012       2.30546
	-------------------------------------------------------------------------------

	                                 ==> Convergence Check <==                                  
    
	Measures of convergence in internal coordinates in au.
    
	Criteria marked as inactive (o), active & met (*), and active & unmet ( ).

	----------------------------------------------------------------------------------------------
	   Step    Total Energy     Delta E     Max Force     RMS Force      Max Disp      RMS Disp   
	----------------------------------------------------------------------------------------------
	  Convergence Criteria     1.00e-06 *    3.00e-04 *             o    1.20e-03 *             o
	----------------------------------------------------------------------------------------------
	    17    -816.47727666   -7.43e-08 *    1.55e-05 *    1.55e-05 o    2.35e-04 *    2.35e-04 o  ~
	----------------------------------------------------------------------------------------------

Next Geometry in Ang 
	Fragment 1 (Ang)

	   Si   0.0000000000   0.0000000000   1.3560750278
	   Ar   0.0000000000   0.0000000000  -0.9493817718


    Final optimized geometry and variables:
    Molecular point group: c2v
    Full point group: C_inf_v

    Geometry (in Angstrom), charge = 1, multiplicity = 4:

    SI           0.000000000000     0.000000000000     1.356012729935
    AR           0.000000000000     0.000000000000    -0.949319473967


    Psi4 stopped on: Tuesday, 23 December 2025 11:51AM
    Psi4 wall time for execution: 0:00:10.31

*** Psi4 exiting successfully. Buy a developer a beer!
