
    -----------------------------------------------------------------------
          Psi4: An Open-Source Ab Initio Electronic Structure Package
                               Psi4 1.10 release

                         Git: Rev {} zzzzzzz 


    D. G. A. Smith, L. A. Burns, A. C. Simmonett, R. M. Parrish,
    M. C. Schieber, R. Galvelis, P. Kraus, H. Kruse, R. Di Remigio,
    A. Alenaizan, A. M. James, S. Lehtola, J. P. Misiewicz, M. Scheurer,
    R. A. Shaw, J. B. Schriber, Y. Xie, Z. L. Glick, D. A. Sirianni,
    J. S. O'Brien, J. M. Waldrop, A. Kumar, E. G. Hohenstein,
    B. P. Pritchard, B. R. Brooks, H. F. Schaefer III, A. Yu. Sokolov,
    K. Patkowski, A. E. DePrince III, U. Bozkaya, R. A. King,
    F. A. Evangelista, J. M. Turney, T. D. Crawford, C. D. Sherrill,
    J. Chem. Phys. 152(18) 184108 (2020). https://doi.org/10.1063/5.0006002

                            Additional Code Authors
    E. T. Seidl, C. L. Janssen, E. F. Valeev, M. L. Leininger,
    J. F. Gonthier, R. M. Richard, H. R. McAlexander, M. Saitow, X. Wang,
    P. Verma, M. H. Lechner, A. Jiang, S. Behnle, A. G. Heide,
    M. F. Herbst, D. L. Poole, T. Győri, E. C. Mitchell, J. P. Pederson,
    and A. M. Wallace

             Previous Authors, Complete List of Code Contributors,
                       and Citations for Specific Modules
    https://github.com/psi4/psi4/blob/master/codemeta.json
    https://github.com/psi4/psi4/graphs/contributors
    https://psicode.org/psi4manual/master/introduction.html#citing-psifour

    -----------------------------------------------------------------------


    Psi4 started on: Tuesday, 23 December 2025 10:51AM

    Process ID: 356927
    Host:       cics-quant-001
    PSIDATADIR: /home/jrodriguesro/psi4conda/share/psi4
    Memory:     500.0 MiB
    Threads:    5
    Addons:     adcc, a̶m̶b̶i̶t̶, b̶s̶e̶, c̶c̶t̶3̶, c̶f̶o̶u̶r̶, c̶h̶e̶m̶p̶s̶2̶, c̶p̶p̶e̶, ddx, dftd3, dftd4,
                dkh, ecpint, einsums, f̶o̶r̶t̶e̶, g̶a̶u̶x̶c̶, gcp, g̶d̶m̶a̶, geometric,
                g̶p̶u̶_̶d̶f̶c̶c̶, i̶n̶t̶e̶g̶r̶a̶t̶o̶r̶x̶x̶, i̶p̶i̶, libefp, m̶d̶i̶, m̶p̶2̶d̶,
                m̶r̶c̶c̶, ooo, o̶p̶e̶n̶f̶e̶r̶m̶i̶o̶n̶p̶s̶i̶4̶, pcmsolver, p̶s̶i̶4̶f̶o̶c̶k̶c̶i̶,
                p̶s̶i̶x̶a̶s̶, r̶e̶s̶p̶, s̶i̶m̶i̶n̶t̶, s̶n̶s̶m̶p̶2̶, v̶2̶r̶d̶m̶_̶c̶a̶s̶s̶c̶f̶

  ==> Input File <==

--------------------------------------------------------------------------
memory 8 Gb

molecule { 
0 6
B   0.00000        0.60000        0.00000
S   0.00000       -0.60000        0.00000
}

set { 
basis              cc-pvdz
reference          uks
maxiter            500
geom_maxiter       500
DAMPING_PERCENTAGE 1
guess              SAP
}

optimize('b3lyp')
--------------------------------------------------------------------------

  Memory set to   7.451 GiB by Python driver.

Scratch directory: /tmp/
gradient() will perform analytic gradient computation.
   => Libint2 <=

    Primary   basis highest AM E, G, H:  6, 6, 3
    Auxiliary basis highest AM E, G, H:  7, 7, 4
    Onebody   basis highest AM E, G, H:  -, -, -
    Solid Harmonics ordering:            Gaussian

*** tstart() called on cics-quant-001
*** at Tue Dec 23 10:51:45 2025

   => Loading Basis Set <=

    Name: CC-PVDZ
    Role: ORBITAL
    Keyword: BASIS
    atoms 1 entry B          line   108 file /home/jrodriguesro/psi4conda/share/psi4/basis/cc-pvdz.gbs 
    atoms 2 entry S          line   598 file /home/jrodriguesro/psi4conda/share/psi4/basis/cc-pvdz.gbs 


         ---------------------------------------------------------
                                   SCF
               by Justin Turney, Rob Parrish, Andy Simmonett
                          and Daniel G. A. Smith
                              UKS Reference
                        5 Threads,   7629 MiB Core
         ---------------------------------------------------------

  ==> Geometry <==

    Molecular point group: c2v
    Full point group: C_inf_v

    Geometry (in Angstrom), charge = 0, multiplicity = 6:

       Center              X                  Y                   Z               Mass       
    ------------   -----------------  -----------------  -----------------  -----------------
         B            0.000000000000     0.000000000000     0.892630448412    11.009305360000
         S            0.000000000000     0.000000000000    -0.307369551588    31.972071174400

  Running in c2v symmetry.

  Rotational constants: A = ************  B =      1.42950  C =      1.42950 [cm^-1]
  Rotational constants: A = ************  B =  42855.28017  C =  42855.28017 [MHz]
  Nuclear repulsion =   35.278480711333337

  Charge       = 0
  Multiplicity = 6
  Electrons    = 21
  Nalpha       = 13
  Nbeta        = 8

  ==> Algorithm <==

  SCF Algorithm Type is DF.
  DIIS enabled.
  MOM disabled.
  Fractional occupation disabled.
  Guess Type is SAP.
  Energy threshold   = 1.00e-08
  Density threshold  = 1.00e-08
  Integral threshold = 1.00e-12

  ==> Primary Basis <==

  Basis Set: CC-PVDZ
    Blend: CC-PVDZ
    Number of shells: 14
    Number of basis functions: 32
    Number of Cartesian functions: 34
    Spherical Harmonics?: true
    Max angular momentum: 2

  ==> DFT Potential <==

   => LibXC <=

    Version 7.0.0
    S. Lehtola, C. Steigemann, M. J.T. Oliveira, and M. A.L. Marques.,  SoftwareX 7, 1–5 (2018) (10.1016/j.softx.2017.11.002)

   => Composite Functional: B3LYP <= 

    B3LYP Hyb-GGA Exchange-Correlation Functional

    P. J. Stephens, F. J. Devlin, C. F. Chabalowski, and M. J. Frisch.,  J. Phys. Chem. 98, 11623 (1994) (10.1021/j100096a001)

    Deriv               =              1
    GGA                 =           TRUE
    Meta                =          FALSE

    Exchange Hybrid     =           TRUE
    MP2 Hybrid          =          FALSE

   => Exchange Functionals <=

    0.0800   Slater exchange
    0.7200         Becke 88

   => Exact (HF) Exchange <=

    0.2000               HF 

   => Correlation Functionals <=

    0.1900   Vosko, Wilk & Nusair (VWN5_RPA)
    0.8100   Lee, Yang & Parr

   => LibXC Density Thresholds  <==

    XC_HYB_GGA_XC_B3LYP:  1.00E-15 

   => Molecular Quadrature <=

    Radial Scheme          =       TREUTLER
    Pruning Scheme         =           NONE
    Nuclear Scheme         =       TREUTLER

    Blocking Scheme        =         OCTREE
    BS radius alpha        =              1
    Pruning alpha          =              1
    Radial Points          =             75
    Spherical Points       =            302
    Total Points           =          41918
    Total Blocks           =            383
    Max Points             =            252
    Max Functions          =             32
    Weights Tolerance      =       1.00E-15

   => Loading Basis Set <=

    Name: (CC-PVDZ AUX)
    Role: JKFIT
    Keyword: DF_BASIS_SCF
    atoms 1 entry B          line    71 file /home/jrodriguesro/psi4conda/share/psi4/basis/cc-pvdz-jkfit.gbs 
    atoms 2 entry S          line   593 file /home/jrodriguesro/psi4conda/share/psi4/basis/cc-pvdz-jkfit.gbs 

  ==> Integral Setup <==

  DFHelper Memory: AOs need 0.002 GiB; user supplied 5.549 GiB. 
  SCF_SUBTYPE=INCORE selected. In-core MEM_DF algorithm will be used.
  Using in-core AOs.

  ==> MemDFJK: Density-Fitted J/K Matrices <==

    J tasked:                   Yes
    K tasked:                   Yes
    wK tasked:                   No
    OpenMP threads:               5
    Memory [MiB]:              5682
    Algorithm:                 Core
    Schwarz Cutoff:           1E-12
    Mask sparsity (%):       0.0000
    Fitting Condition:        1E-10

   => Auxiliary Basis Set <=

  Basis Set: (CC-PVDZ AUX)
    Blend: CC-PVDZ-JKFIT
    Number of shells: 60
    Number of basis functions: 182
    Number of Cartesian functions: 211
    Spherical Harmonics?: true
    Max angular momentum: 3

  Cached 100.0% of DFT collocation blocks in 0.039 [GiB].

  Minimum eigenvalue in the overlap matrix is 7.3653458956E-03.
  Reciprocal condition number of the overlap matrix is 2.2997397409E-03.
    Using symmetric orthogonalization.

  ==> Pre-Iterations <==

  SCF Guess: Superposition of Atomic Potentials (doi:10.1021/acs.jctc.8b01089).

  ==> SAP guess <==

   => Molecular Quadrature <=

    Radial Scheme          =       TREUTLER
    Pruning Scheme         =           NONE
    Nuclear Scheme         =       TREUTLER

    Blocking Scheme        =         OCTREE
    BS radius alpha        =              1
    Pruning alpha          =              1
    Radial Points          =             75
    Spherical Points       =            302
    Total Points           =          41918
    Total Blocks           =            383
    Max Points             =            252
    Max Functions          =             32
    Weights Tolerance      =       1.00E-15

   -------------------------------------------------------
    Irrep   Nso     Nmo     Nalpha   Nbeta   Ndocc  Nsocc
   -------------------------------------------------------
     A1        16      16       7       5       5       2
     A2         2       2       0       0       0       0
     B1         7       7       3       2       2       1
     B2         7       7       3       1       1       2
   -------------------------------------------------------
    Total      32      32      13       8       8       5
   -------------------------------------------------------

  ==> Iterations <==

                           Total Energy        Delta E     RMS |[F,P]|

    Occupation by irrep:
             A1    A2    B1    B2 
    DOCC [     6,    0,    1,    1 ]
    SOCC [     1,    0,    2,    2 ]
    NA   [     7,    0,    3,    3 ]
    NB   [     6,    0,    1,    1 ]

   @DF-UKS iter   1:  -421.74571795986947   -4.21746e+02   3.51347e-02 ADIIS/DIIS
   @DF-UKS iter   2:  -421.80133651488359   -5.56186e-02   3.44485e-02 ADIIS/DIIS/DAMP=1%
   @DF-UKS iter   3:  -422.08735607612556   -2.86020e-01   4.86771e-03 ADIIS/DIIS/DAMP=1%
   @DF-UKS iter   4:  -422.11199670175426   -2.46406e-02   1.10724e-03 ADIIS/DIIS/DAMP=1%
   @DF-UKS iter   5:  -422.11006846417274    1.92824e-03   4.00209e-04 ADIIS/DIIS/DAMP=1%
   @DF-UKS iter   6:  -422.11174655603162   -1.67809e-03   4.66780e-05 DIIS/DAMP=1%
   @DF-UKS iter   7:  -422.11151579167017    2.30764e-04   4.09431e-06 DIIS/DAMP=1%
   @DF-UKS iter   8:  -422.11152032667104   -4.53500e-06   4.58629e-07 DIIS/DAMP=1%
   @DF-UKS iter   9:  -422.11151965599970    6.70671e-07   9.99973e-08 DIIS/DAMP=1%
   @DF-UKS iter  10:  -422.11151983244974   -1.76450e-07   5.98675e-09 DIIS/DAMP=1%
   @DF-UKS iter  11:  -422.11151982031669    1.21331e-08   1.01318e-09 DIIS/DAMP=1%
   @DF-UKS iter  12:  -422.11151982024325    7.34417e-11   6.89402e-11 DIIS/DAMP=1%
  Energy and wave function converged.


  ==> Post-Iterations <==

   Electrons on quadrature grid:
      Nalpha   =   12.9999993394 ; deviation = -6.606e-07
      Nbeta    =    7.9999994380 ; deviation = -5.620e-07
      Ntotal   =   20.9999987774 ; deviation = -1.223e-06 

   @Spin Contamination Metric:   4.154746966E-03
   @S^2 Expected:                8.750000000E+00
   @S^2 Observed:                8.754154747E+00
   @S   Expected:                2.500000000E+00
   @S   Observed:                2.500000000E+00

    Orbital Energies [Eh]
    ---------------------

    Alpha Occupied:                                                       

       1A1   -89.003797     2A1    -8.088896     3A1    -6.766946  
       1B2    -6.049799     1B1    -6.049799     4A1    -6.045022  
       5A1    -0.947539     2B1    -0.499309     2B2    -0.499309  
       6A1    -0.490320     7A1    -0.269572     3B2    -0.111577  
       3B1    -0.111577  

    Alpha Virtual:                                                        

       8A1     0.128549     4B1     0.188094     4B2     0.188094  
       9A1     0.234139    10A1     0.327871     1A2     0.366099  
      11A1     0.366100     5B1     0.473128     5B2     0.473128  
      12A1     0.567170     6B2     0.631125     6B1     0.631125  
       2A2     0.786575    13A1     0.786575    14A1     0.790382  
      15A1     1.191373     7B1     1.253510     7B2     1.253510  
      16A1     2.386787  

    Beta Occupied:                                                        

       1A1   -88.991427     2A1    -8.075994     3A1    -6.734302  
       4A1    -6.036616     1B2    -6.025705     1B1    -6.025705  
       5A1    -0.833131     6A1    -0.409585  

    Beta Virtual:                                                         

       2B2    -0.306371     2B1    -0.306371     7A1    -0.054983  
       3B2     0.058979     3B1     0.058979     8A1     0.150311  
       4B2     0.242941     4B1     0.242941     9A1     0.279365  
      10A1     0.427524    11A1     0.480560     1A2     0.480561  
       5B2     0.545675     5B1     0.545675    12A1     0.626085  
       6B2     0.741986     6B1     0.741986    13A1     0.866775  
       2A2     0.900687    14A1     0.900687    15A1     1.263108  
       7B2     1.349268     7B1     1.349268    16A1     2.446245  

    Final Occupation by Irrep:
             A1    A2    B1    B2 
    DOCC [     6,    0,    1,    1 ]
    SOCC [     1,    0,    2,    2 ]
    NA   [     7,    0,    3,    3 ]
    NB   [     6,    0,    1,    1 ]

  @DF-UKS Final Energy:  -422.11151982024325

   => Energetics <=

    Nuclear Repulsion Energy =             35.2784807113333372
    One-Electron Energy =                -649.4800219545227264
    Two-Electron Energy =                 216.2943333619350881
    DFT Exchange-Correlation Energy =     -24.2043119389889512
    Empirical Dispersion Energy =           0.0000000000000000
    VV10 Nonlocal Energy =                  0.0000000000000000
    Total Energy =                       -422.1115198202432452

  UHF NO Occupations:
  HONO-2 :    3 B2 1.0000000
  HONO-1 :    2 B1 1.0000000
  HONO-0 :    3 B1 1.0000000
  LUNO+0 :    8 A1 0.0019155
  LUNO+1 :    9 A1 0.0001633
  LUNO+2 :   10 A1 0.0000004
  LUNO+3 :   11 A1 0.0000001


Computation Completed


Properties will be evaluated at   0.000000,   0.000000,   0.000000 [a0]

Properties computed using the SCF density matrix


 Multipole Moments:

 ------------------------------------------------------------------------------------
     Multipole            Electronic (a.u.)      Nuclear  (a.u.)        Total (a.u.)
 ------------------------------------------------------------------------------------

 L = 1.  Multiply by 2.5417464519 to convert [e a0] to [Debye]
 Dipole X            :          0.0000000            0.0000000            0.0000000
 Dipole Y            :          0.0000000            0.0000000            0.0000000
 Dipole Z            :          0.0478928           -0.8593730           -0.8114801
 Magnitude           :                                                    0.8114801

 ------------------------------------------------------------------------------------

*** tstop() called on cics-quant-001 at Tue Dec 23 10:51:45 2025
Module time:
	user time   =       0.77 seconds =       0.01 minutes
	system time =       0.08 seconds =       0.00 minutes
	total time  =          0 seconds =       0.00 minutes
Total time:
	user time   =       0.77 seconds =       0.01 minutes
	system time =       0.08 seconds =       0.00 minutes
	total time  =          0 seconds =       0.00 minutes

*** tstart() called on cics-quant-001
*** at Tue Dec 23 10:51:45 2025


         ------------------------------------------------------------
                                   SCF GRAD                          
                          Rob Parrish, Justin Turney,                
                       Andy Simmonett, and Alex Sokolov              
         ------------------------------------------------------------

  ==> Geometry <==

    Molecular point group: c2v
    Full point group: C_inf_v

    Geometry (in Angstrom), charge = 0, multiplicity = 6:

       Center              X                  Y                   Z               Mass       
    ------------   -----------------  -----------------  -----------------  -----------------
         B            0.000000000000     0.000000000000     0.892630448412    11.009305360000
         S            0.000000000000     0.000000000000    -0.307369551588    31.972071174400

  Nuclear repulsion =   35.278480711333337

  ==> Basis Set <==

  Basis Set: CC-PVDZ
    Blend: CC-PVDZ
    Number of shells: 14
    Number of basis functions: 32
    Number of Cartesian functions: 34
    Spherical Harmonics?: true
    Max angular momentum: 2

  ==> DFJKGrad: Density-Fitted SCF Gradients <==

    Gradient:                    1
    J tasked:                  Yes
    K tasked:                  Yes
    wK tasked:                  No
    OpenMP threads:              5
    Integrals threads:           5
    Memory [MiB]:             5722
    Schwarz Cutoff:          1E-12
    Fitting Condition:       1E-10

   => Auxiliary Basis Set <=

  Basis Set: (CC-PVDZ AUX)
    Blend: CC-PVDZ-JKFIT
    Number of shells: 60
    Number of basis functions: 182
    Number of Cartesian functions: 211
    Spherical Harmonics?: true
    Max angular momentum: 3

  ==> DFT Potential <==

   => LibXC <=

    Version 7.0.0
    S. Lehtola, C. Steigemann, M. J.T. Oliveira, and M. A.L. Marques.,  SoftwareX 7, 1–5 (2018) (10.1016/j.softx.2017.11.002)

   => Composite Functional: B3LYP <= 

    B3LYP Hyb-GGA Exchange-Correlation Functional

    P. J. Stephens, F. J. Devlin, C. F. Chabalowski, and M. J. Frisch.,  J. Phys. Chem. 98, 11623 (1994) (10.1021/j100096a001)

    Deriv               =              1
    GGA                 =           TRUE
    Meta                =          FALSE

    Exchange Hybrid     =           TRUE
    MP2 Hybrid          =          FALSE

   => Exchange Functionals <=

    0.0800   Slater exchange
    0.7200         Becke 88

   => Exact (HF) Exchange <=

    0.2000               HF 

   => Correlation Functionals <=

    0.1900   Vosko, Wilk & Nusair (VWN5_RPA)
    0.8100   Lee, Yang & Parr

   => LibXC Density Thresholds  <==

    XC_HYB_GGA_XC_B3LYP:  1.00E-15 

   => Molecular Quadrature <=

    Radial Scheme          =       TREUTLER
    Pruning Scheme         =           NONE
    Nuclear Scheme         =       TREUTLER

    Blocking Scheme        =         OCTREE
    BS radius alpha        =              1
    Pruning alpha          =              1
    Radial Points          =             75
    Spherical Points       =            302
    Total Points           =          41918
    Total Blocks           =            383
    Max Points             =            252
    Max Functions          =             32
    Weights Tolerance      =       1.00E-15


  -Total Gradient:
     Atom            X                  Y                   Z
    ------   -----------------  -----------------  -----------------
       1        0.000000000000     0.000000000000    -1.462817386190
       2        0.000000000000     0.000000000000     1.462840051472


*** tstop() called on cics-quant-001 at Tue Dec 23 10:51:46 2025
Module time:
	user time   =       0.23 seconds =       0.00 minutes
	system time =       0.12 seconds =       0.00 minutes
	total time  =          1 seconds =       0.02 minutes
Total time:
	user time   =       1.01 seconds =       0.02 minutes
	system time =       0.20 seconds =       0.00 minutes
	total time  =          1 seconds =       0.02 minutes

    			-----------------------------------------

    			 OPTKING 3.0: for geometry optimizations 

    			     By R.A. King, Bethel University     

    			        with contributions from          

    			    A.V. Copan, J. Cayton, A. Heide      

    			-----------------------------------------

    
	                            ===> Fragment 1 <== 

	 Z (Atomic Numbers)          Masses                          Geom                  
	       5.000000            11.009305          0.00000000  0.00000000  1.68682708   
	      16.000000            31.972071          0.00000000  0.00000000 -0.58084427   

	 - Coordinate -           - BOHR/RAD -       - ANG/DEG -
	 R(1,2)           =         2.267671           1.200000


	        --- Internal Coordinate Step in ANG or DEG, aJ/ANG or AJ/DEG ---
	-------------------------------------------------------------------------------
	           Coordinate      Previous         Force          Change          New 
	           ----------      --------        ------          ------        ------
	               R(1,2)       1.20000       12.05184        0.16672       1.36672
	-------------------------------------------------------------------------------

	                                 ==> Convergence Check <==                                  
    
	Measures of convergence in internal coordinates in au.
    
	Criteria marked as inactive (o), active & met (*), and active & unmet ( ).

	----------------------------------------------------------------------------------------------~
	   Step    Total Energy     Delta E     Max Force     RMS Force      Max Disp      RMS Disp   ~
	----------------------------------------------------------------------------------------------~
	  Convergence Criteria     1.00e-06 *    3.00e-04 *             o    1.20e-03 *             o~
	----------------------------------------------------------------------------------------------~
	     1    -422.11151982   -4.22e+02      1.46e+00      1.46e+00 o    3.15e-01      3.15e-01 o  ~
	----------------------------------------------------------------------------------------------

Next Geometry in Ang 
	Fragment 1 (Ang)

	    B   0.0000000000   0.0000000000   0.9759904110
	    S   0.0000000000   0.0000000000  -0.3907295142


    Structure for next step:
    Molecular point group: c2v
    Full point group: C_inf_v

    Geometry (in Angstrom), charge = 0, multiplicity = 6:

    B            0.000000000000     0.000000000000     1.016646516424
    S            0.000000000000     0.000000000000    -0.350073408802


Scratch directory: /tmp/
gradient() will perform analytic gradient computation.
   => Libint2 <=

    Primary   basis highest AM E, G, H:  6, 6, 3
    Auxiliary basis highest AM E, G, H:  7, 7, 4
    Onebody   basis highest AM E, G, H:  -, -, -
    Solid Harmonics ordering:            Gaussian

*** tstart() called on cics-quant-001
*** at Tue Dec 23 10:51:46 2025

   => Loading Basis Set <=

    Name: CC-PVDZ
    Role: ORBITAL
    Keyword: BASIS
    atoms 1 entry B          line   108 file /home/jrodriguesro/psi4conda/share/psi4/basis/cc-pvdz.gbs 
    atoms 2 entry S          line   598 file /home/jrodriguesro/psi4conda/share/psi4/basis/cc-pvdz.gbs 


         ---------------------------------------------------------
                                   SCF
               by Justin Turney, Rob Parrish, Andy Simmonett
                          and Daniel G. A. Smith
                              UKS Reference
                        5 Threads,   7629 MiB Core
         ---------------------------------------------------------

  ==> Geometry <==

    Molecular point group: c2v
    Full point group: C_inf_v

    Geometry (in Angstrom), charge = 0, multiplicity = 6:

       Center              X                  Y                   Z               Mass       
    ------------   -----------------  -----------------  -----------------  -----------------
         B            0.000000000000     0.000000000000     1.016646516424    11.009305360000
         S            0.000000000000     0.000000000000    -0.350073408802    31.972071174400

  Running in c2v symmetry.

  Rotational constants: A = ************  B =      1.10201  C =      1.10201 [cm^-1]
  Rotational constants: A = ************  B =  33037.54584  C =  33037.54584 [MHz]
  Nuclear repulsion =   30.975019879495406

  Charge       = 0
  Multiplicity = 6
  Electrons    = 21
  Nalpha       = 13
  Nbeta        = 8

  ==> Algorithm <==

  SCF Algorithm Type is DF.
  DIIS enabled.
  MOM disabled.
  Fractional occupation disabled.
  Guess Type is READ.
  Energy threshold   = 1.00e-08
  Density threshold  = 1.00e-08
  Integral threshold = 1.00e-12

  ==> Primary Basis <==

  Basis Set: CC-PVDZ
    Blend: CC-PVDZ
    Number of shells: 14
    Number of basis functions: 32
    Number of Cartesian functions: 34
    Spherical Harmonics?: true
    Max angular momentum: 2

  ==> DFT Potential <==

   => LibXC <=

    Version 7.0.0
    S. Lehtola, C. Steigemann, M. J.T. Oliveira, and M. A.L. Marques.,  SoftwareX 7, 1–5 (2018) (10.1016/j.softx.2017.11.002)

   => Composite Functional: B3LYP <= 

    B3LYP Hyb-GGA Exchange-Correlation Functional

    P. J. Stephens, F. J. Devlin, C. F. Chabalowski, and M. J. Frisch.,  J. Phys. Chem. 98, 11623 (1994) (10.1021/j100096a001)

    Deriv               =              1
    GGA                 =           TRUE
    Meta                =          FALSE

    Exchange Hybrid     =           TRUE
    MP2 Hybrid          =          FALSE

   => Exchange Functionals <=

    0.0800   Slater exchange
    0.7200         Becke 88

   => Exact (HF) Exchange <=

    0.2000               HF 

   => Correlation Functionals <=

    0.1900   Vosko, Wilk & Nusair (VWN5_RPA)
    0.8100   Lee, Yang & Parr

   => LibXC Density Thresholds  <==

    XC_HYB_GGA_XC_B3LYP:  1.00E-15 

   => Molecular Quadrature <=

    Radial Scheme          =       TREUTLER
    Pruning Scheme         =           NONE
    Nuclear Scheme         =       TREUTLER

    Blocking Scheme        =         OCTREE
    BS radius alpha        =              1
    Pruning alpha          =              1
    Radial Points          =             75
    Spherical Points       =            302
    Total Points           =          41948
    Total Blocks           =            385
    Max Points             =            254
    Max Functions          =             32
    Weights Tolerance      =       1.00E-15

   => Loading Basis Set <=

    Name: (CC-PVDZ AUX)
    Role: JKFIT
    Keyword: DF_BASIS_SCF
    atoms 1 entry B          line    71 file /home/jrodriguesro/psi4conda/share/psi4/basis/cc-pvdz-jkfit.gbs 
    atoms 2 entry S          line   593 file /home/jrodriguesro/psi4conda/share/psi4/basis/cc-pvdz-jkfit.gbs 

   => Loading Basis Set <=

    Name: CC-PVDZ
    Role: ORBITAL
    Keyword: BASIS
    atoms 1 entry B          line   108 file /home/jrodriguesro/psi4conda/share/psi4/basis/cc-pvdz.gbs 
    atoms 2 entry S          line   598 file /home/jrodriguesro/psi4conda/share/psi4/basis/cc-pvdz.gbs 

  Reading orbitals from file /tmp/sextet_BS.default.356927.180.npy, no projection.

  ==> Integral Setup <==

  DFHelper Memory: AOs need 0.002 GiB; user supplied 5.549 GiB. 
  SCF_SUBTYPE=INCORE selected. In-core MEM_DF algorithm will be used.
  Using in-core AOs.

  ==> MemDFJK: Density-Fitted J/K Matrices <==

    J tasked:                   Yes
    K tasked:                   Yes
    wK tasked:                   No
    OpenMP threads:               5
    Memory [MiB]:              5682
    Algorithm:                 Core
    Schwarz Cutoff:           1E-12
    Mask sparsity (%):       0.0000
    Fitting Condition:        1E-10

   => Auxiliary Basis Set <=

  Basis Set: (CC-PVDZ AUX)
    Blend: CC-PVDZ-JKFIT
    Number of shells: 60
    Number of basis functions: 182
    Number of Cartesian functions: 211
    Spherical Harmonics?: true
    Max angular momentum: 3

  Cached 100.0% of DFT collocation blocks in 0.039 [GiB].

  Minimum eigenvalue in the overlap matrix is 9.2909438588E-03.
  Reciprocal condition number of the overlap matrix is 2.9360082525E-03.
    Using symmetric orthogonalization.

  ==> Pre-Iterations <==

  SCF Guess: Orbitals guess was supplied from a previous computation.

   -------------------------------------------------------
    Irrep   Nso     Nmo     Nalpha   Nbeta   Ndocc  Nsocc
   -------------------------------------------------------
     A1        16      16       7       6       6       1
     A2         2       2       0       0       0       0
     B1         7       7       3       1       1       2
     B2         7       7       3       1       1       2
   -------------------------------------------------------
    Total      32      32      13       8       8       5
   -------------------------------------------------------

  ==> Iterations <==

                           Total Energy        Delta E     RMS |[F,P]|

   @DF-UKS iter   0:  -422.54345361587889   -4.22543e+02   5.04006e-02 
   @DF-UKS iter   1:  -422.43052527357884    1.12928e-01   5.87891e-03 ADIIS/DIIS
   @DF-UKS iter   2:  -422.43754780868665   -7.02254e-03   3.68989e-03 ADIIS/DIIS/DAMP=1%
   @DF-UKS iter   3:  -422.44531864638617   -7.77084e-03   2.46204e-04 ADIIS/DIIS/DAMP=1%
   @DF-UKS iter   4:  -422.44165358148825    3.66506e-03   5.58326e-05 DIIS/DAMP=1%
   @DF-UKS iter   5:  -422.44157033537277    8.32461e-05   9.78541e-06 DIIS/DAMP=1%
   @DF-UKS iter   6:  -422.44158685658448   -1.65212e-05   8.25132e-07 DIIS/DAMP=1%
   @DF-UKS iter   7:  -422.44157746752825    9.38906e-06   1.57396e-07 DIIS/DAMP=1%
   @DF-UKS iter   8:  -422.44157843513642   -9.67608e-07   1.04972e-08 DIIS/DAMP=1%
   @DF-UKS iter   9:  -422.44157833346594    1.01670e-07   1.39512e-09 DIIS/DAMP=1%
   @DF-UKS iter  10:  -422.44157833101769    2.44825e-09   1.48306e-10 DIIS/DAMP=1%
  Energy and wave function converged.


  ==> Post-Iterations <==

   Electrons on quadrature grid:
      Nalpha   =   13.0000004287 ; deviation = 4.287e-07
      Nbeta    =    8.0000000525 ; deviation = 5.248e-08
      Ntotal   =   21.0000004812 ; deviation = 4.812e-07 

   @Spin Contamination Metric:   4.077014285E-03
   @S^2 Expected:                8.750000000E+00
   @S^2 Observed:                8.754077014E+00
   @S   Expected:                2.500000000E+00
   @S   Observed:                2.500000000E+00

    Orbital Energies [Eh]
    ---------------------

    Alpha Occupied:                                                       

       1A1   -89.011737     2A1    -8.082448     3A1    -6.738972  
       1B1    -6.047535     1B2    -6.047535     4A1    -6.036467  
       5A1    -0.916609     6A1    -0.507809     2B1    -0.464566  
       2B2    -0.464566     7A1    -0.262862     3B1    -0.125182  
       3B2    -0.125182  

    Alpha Virtual:                                                        

       8A1     0.131006     9A1     0.206123     4B2     0.222181  
       4B1     0.222181    10A1     0.341943    11A1     0.386568  
       1A2     0.386569     5B2     0.447745     5B1     0.447745  
      12A1     0.502390     6B1     0.572289     6B2     0.572289  
      13A1     0.758013     2A2     0.758013    14A1     0.767689  
      15A1     1.097881     7B1     1.150677     7B2     1.150677  
      16A1     1.729288  

    Beta Occupied:                                                        

       1A1   -88.999388     2A1    -8.069636     3A1    -6.707701  
       4A1    -6.028286     1B1    -6.023476     1B2    -6.023476  
       5A1    -0.810508     6A1    -0.431691  

    Beta Virtual:                                                         

       2B1    -0.281839     2B2    -0.281839     7A1    -0.049393  
       3B2     0.046412     3B1     0.046412     8A1     0.155670  
       9A1     0.255610     4B2     0.280481     4B1     0.280481  
      10A1     0.434058     1A2     0.500654    11A1     0.500655  
       5B2     0.520746     5B1     0.520746    12A1     0.565750  
       6B1     0.674776     6B2     0.674776    13A1     0.834450  
       2A2     0.874749    14A1     0.874749    15A1     1.177343  
       7B1     1.248874     7B2     1.248874    16A1     1.785998  

    Final Occupation by Irrep:
             A1    A2    B1    B2 
    DOCC [     6,    0,    1,    1 ]
    SOCC [     1,    0,    2,    2 ]
    NA   [     7,    0,    3,    3 ]
    NB   [     6,    0,    1,    1 ]

  @DF-UKS Final Energy:  -422.44157833101769

   => Energetics <=

    Nuclear Repulsion Energy =             30.9750198794954059
    One-Electron Energy =                -641.7520500241537320
    Two-Electron Energy =                 212.4255746433512968
    DFT Exchange-Correlation Energy =     -24.0901228297106940
    Empirical Dispersion Energy =           0.0000000000000000
    VV10 Nonlocal Energy =                  0.0000000000000000
    Total Energy =                       -422.4415783310176948

  UHF NO Occupations:
  HONO-2 :    3 B1 1.0000000
  HONO-1 :    7 A1 1.0000000
  HONO-0 :    3 B2 1.0000000
  LUNO+0 :    8 A1 0.0018642
  LUNO+1 :    9 A1 0.0001757
  LUNO+2 :   10 A1 0.0000004
  LUNO+3 :   11 A1 0.0000001


Computation Completed


Properties will be evaluated at   0.000000,   0.000000,   0.000000 [a0]

Properties computed using the SCF density matrix


 Multipole Moments:

 ------------------------------------------------------------------------------------
     Multipole            Electronic (a.u.)      Nuclear  (a.u.)        Total (a.u.)
 ------------------------------------------------------------------------------------

 L = 1.  Multiply by 2.5417464519 to convert [e a0] to [Debye]
 Dipole X            :          0.0000000            0.0000000            0.0000000
 Dipole Y            :          0.0000000            0.0000000            0.0000000
 Dipole Z            :         -0.1844719           -0.9787685           -1.1632403
 Magnitude           :                                                    1.1632403

 ------------------------------------------------------------------------------------

*** tstop() called on cics-quant-001 at Tue Dec 23 10:51:46 2025
Module time:
	user time   =       0.79 seconds =       0.01 minutes
	system time =       0.07 seconds =       0.00 minutes
	total time  =          0 seconds =       0.00 minutes
Total time:
	user time   =       1.82 seconds =       0.03 minutes
	system time =       0.27 seconds =       0.00 minutes
	total time  =          1 seconds =       0.02 minutes

*** tstart() called on cics-quant-001
*** at Tue Dec 23 10:51:46 2025


         ------------------------------------------------------------
                                   SCF GRAD                          
                          Rob Parrish, Justin Turney,                
                       Andy Simmonett, and Alex Sokolov              
         ------------------------------------------------------------

  ==> Geometry <==

    Molecular point group: c2v
    Full point group: C_inf_v

    Geometry (in Angstrom), charge = 0, multiplicity = 6:

       Center              X                  Y                   Z               Mass       
    ------------   -----------------  -----------------  -----------------  -----------------
         B            0.000000000000     0.000000000000     1.016646516424    11.009305360000
         S            0.000000000000     0.000000000000    -0.350073408802    31.972071174400

  Nuclear repulsion =   30.975019879495406

  ==> Basis Set <==

  Basis Set: CC-PVDZ
    Blend: CC-PVDZ
    Number of shells: 14
    Number of basis functions: 32
    Number of Cartesian functions: 34
    Spherical Harmonics?: true
    Max angular momentum: 2

  ==> DFJKGrad: Density-Fitted SCF Gradients <==

    Gradient:                    1
    J tasked:                  Yes
    K tasked:                  Yes
    wK tasked:                  No
    OpenMP threads:              5
    Integrals threads:           5
    Memory [MiB]:             5722
    Schwarz Cutoff:          1E-12
    Fitting Condition:       1E-10

   => Auxiliary Basis Set <=

  Basis Set: (CC-PVDZ AUX)
    Blend: CC-PVDZ-JKFIT
    Number of shells: 60
    Number of basis functions: 182
    Number of Cartesian functions: 211
    Spherical Harmonics?: true
    Max angular momentum: 3

  ==> DFT Potential <==

   => LibXC <=

    Version 7.0.0
    S. Lehtola, C. Steigemann, M. J.T. Oliveira, and M. A.L. Marques.,  SoftwareX 7, 1–5 (2018) (10.1016/j.softx.2017.11.002)

   => Composite Functional: B3LYP <= 

    B3LYP Hyb-GGA Exchange-Correlation Functional

    P. J. Stephens, F. J. Devlin, C. F. Chabalowski, and M. J. Frisch.,  J. Phys. Chem. 98, 11623 (1994) (10.1021/j100096a001)

    Deriv               =              1
    GGA                 =           TRUE
    Meta                =          FALSE

    Exchange Hybrid     =           TRUE
    MP2 Hybrid          =          FALSE

   => Exchange Functionals <=

    0.0800   Slater exchange
    0.7200         Becke 88

   => Exact (HF) Exchange <=

    0.2000               HF 

   => Correlation Functionals <=

    0.1900   Vosko, Wilk & Nusair (VWN5_RPA)
    0.8100   Lee, Yang & Parr

   => LibXC Density Thresholds  <==

    XC_HYB_GGA_XC_B3LYP:  1.00E-15 

   => Molecular Quadrature <=

    Radial Scheme          =       TREUTLER
    Pruning Scheme         =           NONE
    Nuclear Scheme         =       TREUTLER

    Blocking Scheme        =         OCTREE
    BS radius alpha        =              1
    Pruning alpha          =              1
    Radial Points          =             75
    Spherical Points       =            302
    Total Points           =          41948
    Total Blocks           =            385
    Max Points             =            254
    Max Functions          =             32
    Weights Tolerance      =       1.00E-15


  -Total Gradient:
     Atom            X                  Y                   Z
    ------   -----------------  -----------------  -----------------
       1       -0.000000000000     0.000000000000    -0.713818838662
       2       -0.000000000000     0.000000000000     0.713797586407


*** tstop() called on cics-quant-001 at Tue Dec 23 10:51:46 2025
Module time:
	user time   =       0.23 seconds =       0.00 minutes
	system time =       0.12 seconds =       0.00 minutes
	total time  =          0 seconds =       0.00 minutes
Total time:
	user time   =       2.05 seconds =       0.03 minutes
	system time =       0.39 seconds =       0.01 minutes
	total time  =          1 seconds =       0.02 minutes

    			-----------------------------------------

    			 OPTKING 3.0: for geometry optimizations 

    			     By R.A. King, Bethel University     

    			        with contributions from          

    			    A.V. Copan, J. Cayton, A. Heide      

    			-----------------------------------------

    
	                            ===> Fragment 1 <== 

	 Z (Atomic Numbers)          Masses                          Geom                  
	       5.000000            11.009305          0.00000000  0.00000000  1.92118348   
	      16.000000            31.972071          0.00000000  0.00000000 -0.66154287   

	 - Coordinate -           - BOHR/RAD -       - ANG/DEG -
	 R(1,2)           =         2.582726           1.366720


	        --- Internal Coordinate Step in ANG or DEG, aJ/ANG or AJ/DEG ---
	-------------------------------------------------------------------------------
	           Coordinate      Previous         Force          Change          New 
	           ----------      --------        ------          ------        ------
	               R(1,2)       1.36672        5.88087        0.14668       1.51340
	-------------------------------------------------------------------------------

	                                 ==> Convergence Check <==                                  
    
	Measures of convergence in internal coordinates in au.
    
	Criteria marked as inactive (o), active & met (*), and active & unmet ( ).

	----------------------------------------------------------------------------------------------
	   Step    Total Energy     Delta E     Max Force     RMS Force      Max Disp      RMS Disp   
	----------------------------------------------------------------------------------------------
	  Convergence Criteria     1.00e-06 *    3.00e-04 *             o    1.20e-03 *             o
	----------------------------------------------------------------------------------------------
	     2    -422.44157833   -3.30e-01      7.14e-01      7.14e-01 o    2.77e-01      2.77e-01 o  ~
	----------------------------------------------------------------------------------------------

Next Geometry in Ang 
	Fragment 1 (Ang)

	    B   0.0000000000   0.0000000000   1.0899844023
	    S   0.0000000000   0.0000000000  -0.4234112946


    Structure for next step:
    Molecular point group: c2v
    Full point group: C_inf_v

    Geometry (in Angstrom), charge = 0, multiplicity = 6:

    B            0.000000000000     0.000000000000     1.125752566290
    S            0.000000000000     0.000000000000    -0.387643130609


Scratch directory: /tmp/
gradient() will perform analytic gradient computation.
   => Libint2 <=

    Primary   basis highest AM E, G, H:  6, 6, 3
    Auxiliary basis highest AM E, G, H:  7, 7, 4
    Onebody   basis highest AM E, G, H:  -, -, -
    Solid Harmonics ordering:            Gaussian

*** tstart() called on cics-quant-001
*** at Tue Dec 23 10:51:46 2025

   => Loading Basis Set <=

    Name: CC-PVDZ
    Role: ORBITAL
    Keyword: BASIS
    atoms 1 entry B          line   108 file /home/jrodriguesro/psi4conda/share/psi4/basis/cc-pvdz.gbs 
    atoms 2 entry S          line   598 file /home/jrodriguesro/psi4conda/share/psi4/basis/cc-pvdz.gbs 


         ---------------------------------------------------------
                                   SCF
               by Justin Turney, Rob Parrish, Andy Simmonett
                          and Daniel G. A. Smith
                              UKS Reference
                        5 Threads,   7629 MiB Core
         ---------------------------------------------------------

  ==> Geometry <==

    Molecular point group: c2v
    Full point group: C_inf_v

    Geometry (in Angstrom), charge = 0, multiplicity = 6:

       Center              X                  Y                   Z               Mass       
    ------------   -----------------  -----------------  -----------------  -----------------
         B            0.000000000000     0.000000000000     1.125752566290    11.009305360000
         S            0.000000000000     0.000000000000    -0.387643130609    31.972071174400

  Running in c2v symmetry.

  Rotational constants: A = ************  B =      0.89875  C =      0.89875 [cm^-1]
  Rotational constants: A = ************  B =  26943.98581  C =  26943.98581 [MHz]
  Nuclear repulsion =   27.972972924637624

  Charge       = 0
  Multiplicity = 6
  Electrons    = 21
  Nalpha       = 13
  Nbeta        = 8

  ==> Algorithm <==

  SCF Algorithm Type is DF.
  DIIS enabled.
  MOM disabled.
  Fractional occupation disabled.
  Guess Type is READ.
  Energy threshold   = 1.00e-08
  Density threshold  = 1.00e-08
  Integral threshold = 1.00e-12

  ==> Primary Basis <==

  Basis Set: CC-PVDZ
    Blend: CC-PVDZ
    Number of shells: 14
    Number of basis functions: 32
    Number of Cartesian functions: 34
    Spherical Harmonics?: true
    Max angular momentum: 2

  ==> DFT Potential <==

   => LibXC <=

    Version 7.0.0
    S. Lehtola, C. Steigemann, M. J.T. Oliveira, and M. A.L. Marques.,  SoftwareX 7, 1–5 (2018) (10.1016/j.softx.2017.11.002)

   => Composite Functional: B3LYP <= 

    B3LYP Hyb-GGA Exchange-Correlation Functional

    P. J. Stephens, F. J. Devlin, C. F. Chabalowski, and M. J. Frisch.,  J. Phys. Chem. 98, 11623 (1994) (10.1021/j100096a001)

    Deriv               =              1
    GGA                 =           TRUE
    Meta                =          FALSE

    Exchange Hybrid     =           TRUE
    MP2 Hybrid          =          FALSE

   => Exchange Functionals <=

    0.0800   Slater exchange
    0.7200         Becke 88

   => Exact (HF) Exchange <=

    0.2000               HF 

   => Correlation Functionals <=

    0.1900   Vosko, Wilk & Nusair (VWN5_RPA)
    0.8100   Lee, Yang & Parr

   => LibXC Density Thresholds  <==

    XC_HYB_GGA_XC_B3LYP:  1.00E-15 

   => Molecular Quadrature <=

    Radial Scheme          =       TREUTLER
    Pruning Scheme         =           NONE
    Nuclear Scheme         =       TREUTLER

    Blocking Scheme        =         OCTREE
    BS radius alpha        =              1
    Pruning alpha          =              1
    Radial Points          =             75
    Spherical Points       =            302
    Total Points           =          41964
    Total Blocks           =            381
    Max Points             =            255
    Max Functions          =             32
    Weights Tolerance      =       1.00E-15

   => Loading Basis Set <=

    Name: (CC-PVDZ AUX)
    Role: JKFIT
    Keyword: DF_BASIS_SCF
    atoms 1 entry B          line    71 file /home/jrodriguesro/psi4conda/share/psi4/basis/cc-pvdz-jkfit.gbs 
    atoms 2 entry S          line   593 file /home/jrodriguesro/psi4conda/share/psi4/basis/cc-pvdz-jkfit.gbs 

   => Loading Basis Set <=

    Name: CC-PVDZ
    Role: ORBITAL
    Keyword: BASIS
    atoms 1 entry B          line   108 file /home/jrodriguesro/psi4conda/share/psi4/basis/cc-pvdz.gbs 
    atoms 2 entry S          line   598 file /home/jrodriguesro/psi4conda/share/psi4/basis/cc-pvdz.gbs 

  Reading orbitals from file /tmp/sextet_BS.default.356927.180.npy, no projection.

  ==> Integral Setup <==

  DFHelper Memory: AOs need 0.002 GiB; user supplied 5.549 GiB. 
  SCF_SUBTYPE=INCORE selected. In-core MEM_DF algorithm will be used.
  Using in-core AOs.

  ==> MemDFJK: Density-Fitted J/K Matrices <==

    J tasked:                   Yes
    K tasked:                   Yes
    wK tasked:                   No
    OpenMP threads:               5
    Memory [MiB]:              5682
    Algorithm:                 Core
    Schwarz Cutoff:           1E-12
    Mask sparsity (%):       0.0000
    Fitting Condition:        1E-10

   => Auxiliary Basis Set <=

  Basis Set: (CC-PVDZ AUX)
    Blend: CC-PVDZ-JKFIT
    Number of shells: 60
    Number of basis functions: 182
    Number of Cartesian functions: 211
    Spherical Harmonics?: true
    Max angular momentum: 3

  Cached 100.0% of DFT collocation blocks in 0.039 [GiB].

  Minimum eigenvalue in the overlap matrix is 1.1264315635E-02.
  Reciprocal condition number of the overlap matrix is 3.6168465223E-03.
    Using symmetric orthogonalization.

  ==> Pre-Iterations <==

  SCF Guess: Orbitals guess was supplied from a previous computation.

   -------------------------------------------------------
    Irrep   Nso     Nmo     Nalpha   Nbeta   Ndocc  Nsocc
   -------------------------------------------------------
     A1        16      16       7       6       6       1
     A2         2       2       0       0       0       0
     B1         7       7       3       1       1       2
     B2         7       7       3       1       1       2
   -------------------------------------------------------
    Total      32      32      13       8       8       5
   -------------------------------------------------------

  ==> Iterations <==

                           Total Energy        Delta E     RMS |[F,P]|

   @DF-UKS iter   0:  -422.60597204334886   -4.22606e+02   3.05444e-02 
   @DF-UKS iter   1:  -422.58434239983137    2.16296e-02   2.36359e-03 ADIIS/DIIS
   @DF-UKS iter   2:  -422.58559542596288   -1.25303e-03   1.42137e-03 ADIIS/DIIS/DAMP=1%
   @DF-UKS iter   3:  -422.58739246885409   -1.79704e-03   1.69553e-04 ADIIS/DIIS/DAMP=1%
   @DF-UKS iter   4:  -422.58625413319066    1.13834e-03   2.56582e-05 DIIS/DAMP=1%
   @DF-UKS iter   5:  -422.58620121512121    5.29181e-05   8.24909e-06 DIIS/DAMP=1%
   @DF-UKS iter   6:  -422.58622333861695   -2.21235e-05   7.92991e-07 DIIS/DAMP=1%
   @DF-UKS iter   7:  -422.58621623798143    7.10064e-06   1.28613e-07 DIIS/DAMP=1%
   @DF-UKS iter   8:  -422.58621692593999   -6.87959e-07   9.07219e-09 DIIS/DAMP=1%
   @DF-UKS iter   9:  -422.58621681127011    1.14670e-07   6.94300e-10 DIIS/DAMP=1%
   @DF-UKS iter  10:  -422.58621681564466   -4.37456e-09   6.52599e-11 DIIS/DAMP=1%
  Energy and wave function converged.


  ==> Post-Iterations <==

   Electrons on quadrature grid:
      Nalpha   =   13.0000004516 ; deviation = 4.516e-07
      Nbeta    =    8.0000003024 ; deviation = 3.024e-07
      Ntotal   =   21.0000007539 ; deviation = 7.539e-07 

   @Spin Contamination Metric:   3.851468370E-03
   @S^2 Expected:                8.750000000E+00
   @S^2 Observed:                8.753851468E+00
   @S   Expected:                2.500000000E+00
   @S   Observed:                2.500000000E+00

    Orbital Energies [Eh]
    ---------------------

    Alpha Occupied:                                                       

       1A1   -89.022507     2A1    -8.085808     3A1    -6.737444  
       1B1    -6.052501     1B2    -6.052501     4A1    -6.039165  
       5A1    -0.888102     6A1    -0.510732     2B1    -0.445527  
       2B2    -0.445527     7A1    -0.261674     3B2    -0.133054  
       3B1    -0.133054  

    Alpha Virtual:                                                        

       8A1     0.129958     9A1     0.187155     4B2     0.250319  
       4B1     0.250319    10A1     0.350608    11A1     0.401200  
       1A2     0.401200     5B1     0.427294     5B2     0.427294  
      12A1     0.456885     6B1     0.529850     6B2     0.529850  
      13A1     0.737045    14A1     0.740058     2A2     0.740058  
      15A1     1.039514     7B2     1.080925     7B1     1.080925  
      16A1     1.427264  

    Beta Occupied:                                                        

       1A1   -89.010072     2A1    -8.072941     3A1    -6.706697  
       4A1    -6.030817     1B1    -6.028412     1B2    -6.028412  
       5A1    -0.786021     6A1    -0.438381  

    Beta Virtual:                                                         

       2B1    -0.268860     2B2    -0.268860     7A1    -0.050477  
       3B1     0.039254     3B2     0.039254     8A1     0.161056  
       9A1     0.237085     4B2     0.310519     4B1     0.310519  
      10A1     0.433875     5B1     0.501541     5B2     0.501541  
       1A2     0.515222    11A1     0.515223    12A1     0.522340  
       6B1     0.623753     6B2     0.623753    13A1     0.796642  
      14A1     0.858402     2A2     0.858403    15A1     1.121390  
       7B2     1.179565     7B1     1.179565    16A1     1.483884  

    Final Occupation by Irrep:
             A1    A2    B1    B2 
    DOCC [     6,    0,    1,    1 ]
    SOCC [     1,    0,    2,    2 ]
    NA   [     7,    0,    3,    3 ]
    NB   [     6,    0,    1,    1 ]

  @DF-UKS Final Energy:  -422.58621681564466

   => Energetics <=

    Nuclear Repulsion Energy =             27.9729729246376237
    One-Electron Energy =                -636.1066432719454724
    Two-Electron Energy =                 209.5600186789155543
    DFT Exchange-Correlation Energy =     -24.0125651472522890
    Empirical Dispersion Energy =           0.0000000000000000
    VV10 Nonlocal Energy =                  0.0000000000000000
    Total Energy =                       -422.5862168156446614

  UHF NO Occupations:
  HONO-2 :    3 B2 1.0000000
  HONO-1 :    3 B1 1.0000000
  HONO-0 :    7 A1 1.0000000
  LUNO+0 :    8 A1 0.0017232
  LUNO+1 :    9 A1 0.0002036
  LUNO+2 :   10 A1 0.0000003
  LUNO+3 :   11 A1 0.0000000


Computation Completed


Properties will be evaluated at   0.000000,   0.000000,   0.000000 [a0]

Properties computed using the SCF density matrix


 Multipole Moments:

 ------------------------------------------------------------------------------------
     Multipole            Electronic (a.u.)      Nuclear  (a.u.)        Total (a.u.)
 ------------------------------------------------------------------------------------

 L = 1.  Multiply by 2.5417464519 to convert [e a0] to [Debye]
 Dipole X            :          0.0000000            0.0000000            0.0000000
 Dipole Y            :          0.0000000            0.0000000            0.0000000
 Dipole Z            :         -0.3016672           -1.0838094           -1.3854766
 Magnitude           :                                                    1.3854766

 ------------------------------------------------------------------------------------

*** tstop() called on cics-quant-001 at Tue Dec 23 10:51:47 2025
Module time:
	user time   =       0.72 seconds =       0.01 minutes
	system time =       0.07 seconds =       0.00 minutes
	total time  =          1 seconds =       0.02 minutes
Total time:
	user time   =       2.79 seconds =       0.05 minutes
	system time =       0.46 seconds =       0.01 minutes
	total time  =          2 seconds =       0.03 minutes

*** tstart() called on cics-quant-001
*** at Tue Dec 23 10:51:47 2025


         ------------------------------------------------------------
                                   SCF GRAD                          
                          Rob Parrish, Justin Turney,                
                       Andy Simmonett, and Alex Sokolov              
         ------------------------------------------------------------

  ==> Geometry <==

    Molecular point group: c2v
    Full point group: C_inf_v

    Geometry (in Angstrom), charge = 0, multiplicity = 6:

       Center              X                  Y                   Z               Mass       
    ------------   -----------------  -----------------  -----------------  -----------------
         B            0.000000000000     0.000000000000     1.125752566290    11.009305360000
         S            0.000000000000     0.000000000000    -0.387643130609    31.972071174400

  Nuclear repulsion =   27.972972924637624

  ==> Basis Set <==

  Basis Set: CC-PVDZ
    Blend: CC-PVDZ
    Number of shells: 14
    Number of basis functions: 32
    Number of Cartesian functions: 34
    Spherical Harmonics?: true
    Max angular momentum: 2

  ==> DFJKGrad: Density-Fitted SCF Gradients <==

    Gradient:                    1
    J tasked:                  Yes
    K tasked:                  Yes
    wK tasked:                  No
    OpenMP threads:              5
    Integrals threads:           5
    Memory [MiB]:             5722
    Schwarz Cutoff:          1E-12
    Fitting Condition:       1E-10

   => Auxiliary Basis Set <=

  Basis Set: (CC-PVDZ AUX)
    Blend: CC-PVDZ-JKFIT
    Number of shells: 60
    Number of basis functions: 182
    Number of Cartesian functions: 211
    Spherical Harmonics?: true
    Max angular momentum: 3

  ==> DFT Potential <==

   => LibXC <=

    Version 7.0.0
    S. Lehtola, C. Steigemann, M. J.T. Oliveira, and M. A.L. Marques.,  SoftwareX 7, 1–5 (2018) (10.1016/j.softx.2017.11.002)

   => Composite Functional: B3LYP <= 

    B3LYP Hyb-GGA Exchange-Correlation Functional

    P. J. Stephens, F. J. Devlin, C. F. Chabalowski, and M. J. Frisch.,  J. Phys. Chem. 98, 11623 (1994) (10.1021/j100096a001)

    Deriv               =              1
    GGA                 =           TRUE
    Meta                =          FALSE

    Exchange Hybrid     =           TRUE
    MP2 Hybrid          =          FALSE

   => Exchange Functionals <=

    0.0800   Slater exchange
    0.7200         Becke 88

   => Exact (HF) Exchange <=

    0.2000               HF 

   => Correlation Functionals <=

    0.1900   Vosko, Wilk & Nusair (VWN5_RPA)
    0.8100   Lee, Yang & Parr

   => LibXC Density Thresholds  <==

    XC_HYB_GGA_XC_B3LYP:  1.00E-15 

   => Molecular Quadrature <=

    Radial Scheme          =       TREUTLER
    Pruning Scheme         =           NONE
    Nuclear Scheme         =       TREUTLER

    Blocking Scheme        =         OCTREE
    BS radius alpha        =              1
    Pruning alpha          =              1
    Radial Points          =             75
    Spherical Points       =            302
    Total Points           =          41964
    Total Blocks           =            381
    Max Points             =            255
    Max Functions          =             32
    Weights Tolerance      =       1.00E-15


  -Total Gradient:
     Atom            X                  Y                   Z
    ------   -----------------  -----------------  -----------------
       1        0.000000000000     0.000000000000    -0.364686775707
       2        0.000000000000     0.000000000000     0.364666181899


*** tstop() called on cics-quant-001 at Tue Dec 23 10:51:47 2025
Module time:
	user time   =       0.17 seconds =       0.00 minutes
	system time =       0.11 seconds =       0.00 minutes
	total time  =          0 seconds =       0.00 minutes
Total time:
	user time   =       2.96 seconds =       0.05 minutes
	system time =       0.57 seconds =       0.01 minutes
	total time  =          2 seconds =       0.03 minutes

    			-----------------------------------------

    			 OPTKING 3.0: for geometry optimizations 

    			     By R.A. King, Bethel University     

    			        with contributions from          

    			    A.V. Copan, J. Cayton, A. Heide      

    			-----------------------------------------

    
	                            ===> Fragment 1 <== 

	 Z (Atomic Numbers)          Masses                          Geom                  
	       5.000000            11.009305          0.00000000  0.00000000  2.12736404   
	      16.000000            31.972071          0.00000000  0.00000000 -0.73253935   

	 - Coordinate -           - BOHR/RAD -       - ANG/DEG -
	 R(1,2)           =         2.859903           1.513396


	        --- Internal Coordinate Step in ANG or DEG, aJ/ANG or AJ/DEG ---
	-------------------------------------------------------------------------------
	           Coordinate      Previous         Force          Change          New 
	           ----------      --------        ------          ------        ------
	               R(1,2)       1.51340        3.00447        0.14215       1.65555
	-------------------------------------------------------------------------------

	                                 ==> Convergence Check <==                                  
    
	Measures of convergence in internal coordinates in au.
    
	Criteria marked as inactive (o), active & met (*), and active & unmet ( ).

	----------------------------------------------------------------------------------------------
	   Step    Total Energy     Delta E     Max Force     RMS Force      Max Disp      RMS Disp   
	----------------------------------------------------------------------------------------------
	  Convergence Criteria     1.00e-06 *    3.00e-04 *             o    1.20e-03 *             o
	----------------------------------------------------------------------------------------------
	     3    -422.58621682   -1.45e-01      3.65e-01      3.65e-01 o    2.69e-01      2.69e-01 o  ~
	----------------------------------------------------------------------------------------------

Next Geometry in Ang 
	Fragment 1 (Ang)

	    B   0.0000000000   0.0000000000   1.1968280521
	    S   0.0000000000   0.0000000000  -0.4587186165


    Structure for next step:
    Molecular point group: c2v
    Full point group: C_inf_v

    Geometry (in Angstrom), charge = 0, multiplicity = 6:

    B            0.000000000000     0.000000000000     1.231492804301
    S            0.000000000000     0.000000000000    -0.424053864300


Scratch directory: /tmp/
gradient() will perform analytic gradient computation.
   => Libint2 <=

    Primary   basis highest AM E, G, H:  6, 6, 3
    Auxiliary basis highest AM E, G, H:  7, 7, 4
    Onebody   basis highest AM E, G, H:  -, -, -
    Solid Harmonics ordering:            Gaussian

*** tstart() called on cics-quant-001
*** at Tue Dec 23 10:51:47 2025

   => Loading Basis Set <=

    Name: CC-PVDZ
    Role: ORBITAL
    Keyword: BASIS
    atoms 1 entry B          line   108 file /home/jrodriguesro/psi4conda/share/psi4/basis/cc-pvdz.gbs 
    atoms 2 entry S          line   598 file /home/jrodriguesro/psi4conda/share/psi4/basis/cc-pvdz.gbs 


         ---------------------------------------------------------
                                   SCF
               by Justin Turney, Rob Parrish, Andy Simmonett
                          and Daniel G. A. Smith
                              UKS Reference
                        5 Threads,   7629 MiB Core
         ---------------------------------------------------------

  ==> Geometry <==

    Molecular point group: c2v
    Full point group: C_inf_v

    Geometry (in Angstrom), charge = 0, multiplicity = 6:

       Center              X                  Y                   Z               Mass       
    ------------   -----------------  -----------------  -----------------  -----------------
         B            0.000000000000     0.000000000000     1.231492804301    11.009305360000
         S            0.000000000000     0.000000000000    -0.424053864300    31.972071174400

  Running in c2v symmetry.

  Rotational constants: A = ************  B =      0.75104  C =      0.75104 [cm^-1]
  Rotational constants: A = ************  B =  22515.62337  C =  22515.62337 [MHz]
  Nuclear repulsion =   25.571116572242254

  Charge       = 0
  Multiplicity = 6
  Electrons    = 21
  Nalpha       = 13
  Nbeta        = 8

  ==> Algorithm <==

  SCF Algorithm Type is DF.
  DIIS enabled.
  MOM disabled.
  Fractional occupation disabled.
  Guess Type is READ.
  Energy threshold   = 1.00e-08
  Density threshold  = 1.00e-08
  Integral threshold = 1.00e-12

  ==> Primary Basis <==

  Basis Set: CC-PVDZ
    Blend: CC-PVDZ
    Number of shells: 14
    Number of basis functions: 32
    Number of Cartesian functions: 34
    Spherical Harmonics?: true
    Max angular momentum: 2

  ==> DFT Potential <==

   => LibXC <=

    Version 7.0.0
    S. Lehtola, C. Steigemann, M. J.T. Oliveira, and M. A.L. Marques.,  SoftwareX 7, 1–5 (2018) (10.1016/j.softx.2017.11.002)

   => Composite Functional: B3LYP <= 

    B3LYP Hyb-GGA Exchange-Correlation Functional

    P. J. Stephens, F. J. Devlin, C. F. Chabalowski, and M. J. Frisch.,  J. Phys. Chem. 98, 11623 (1994) (10.1021/j100096a001)

    Deriv               =              1
    GGA                 =           TRUE
    Meta                =          FALSE

    Exchange Hybrid     =           TRUE
    MP2 Hybrid          =          FALSE

   => Exchange Functionals <=

    0.0800   Slater exchange
    0.7200         Becke 88

   => Exact (HF) Exchange <=

    0.2000               HF 

   => Correlation Functionals <=

    0.1900   Vosko, Wilk & Nusair (VWN5_RPA)
    0.8100   Lee, Yang & Parr

   => LibXC Density Thresholds  <==

    XC_HYB_GGA_XC_B3LYP:  1.00E-15 

   => Molecular Quadrature <=

    Radial Scheme          =       TREUTLER
    Pruning Scheme         =           NONE
    Nuclear Scheme         =       TREUTLER

    Blocking Scheme        =         OCTREE
    BS radius alpha        =              1
    Pruning alpha          =              1
    Radial Points          =             75
    Spherical Points       =            302
    Total Points           =          41978
    Total Blocks           =            385
    Max Points             =            255
    Max Functions          =             32
    Weights Tolerance      =       1.00E-15

   => Loading Basis Set <=

    Name: (CC-PVDZ AUX)
    Role: JKFIT
    Keyword: DF_BASIS_SCF
    atoms 1 entry B          line    71 file /home/jrodriguesro/psi4conda/share/psi4/basis/cc-pvdz-jkfit.gbs 
    atoms 2 entry S          line   593 file /home/jrodriguesro/psi4conda/share/psi4/basis/cc-pvdz-jkfit.gbs 

   => Loading Basis Set <=

    Name: CC-PVDZ
    Role: ORBITAL
    Keyword: BASIS
    atoms 1 entry B          line   108 file /home/jrodriguesro/psi4conda/share/psi4/basis/cc-pvdz.gbs 
    atoms 2 entry S          line   598 file /home/jrodriguesro/psi4conda/share/psi4/basis/cc-pvdz.gbs 

  Reading orbitals from file /tmp/sextet_BS.default.356927.180.npy, no projection.

  ==> Integral Setup <==

  DFHelper Memory: AOs need 0.002 GiB; user supplied 5.549 GiB. 
  SCF_SUBTYPE=INCORE selected. In-core MEM_DF algorithm will be used.
  Using in-core AOs.

  ==> MemDFJK: Density-Fitted J/K Matrices <==

    J tasked:                   Yes
    K tasked:                   Yes
    wK tasked:                   No
    OpenMP threads:               5
    Memory [MiB]:              5682
    Algorithm:                 Core
    Schwarz Cutoff:           1E-12
    Mask sparsity (%):       0.0000
    Fitting Condition:        1E-10

   => Auxiliary Basis Set <=

  Basis Set: (CC-PVDZ AUX)
    Blend: CC-PVDZ-JKFIT
    Number of shells: 60
    Number of basis functions: 182
    Number of Cartesian functions: 211
    Spherical Harmonics?: true
    Max angular momentum: 3

  Cached 100.0% of DFT collocation blocks in 0.038 [GiB].

  Minimum eigenvalue in the overlap matrix is 1.3510723157E-02.
  Reciprocal condition number of the overlap matrix is 4.4283430799E-03.
    Using symmetric orthogonalization.

  ==> Pre-Iterations <==

  SCF Guess: Orbitals guess was supplied from a previous computation.

   -------------------------------------------------------
    Irrep   Nso     Nmo     Nalpha   Nbeta   Ndocc  Nsocc
   -------------------------------------------------------
     A1        16      16       7       6       6       1
     A2         2       2       0       0       0       0
     B1         7       7       3       1       1       2
     B2         7       7       3       1       1       2
   -------------------------------------------------------
    Total      32      32      13       8       8       5
   -------------------------------------------------------

  ==> Iterations <==

                           Total Energy        Delta E     RMS |[F,P]|

   @DF-UKS iter   0:  -422.64329739569160   -4.22643e+02   2.11981e-02 
   @DF-UKS iter   1:  -422.65616094321297   -1.28635e-02   1.35979e-03 ADIIS/DIIS
   @DF-UKS iter   2:  -422.65662738829673   -4.66445e-04   7.24439e-04 ADIIS/DIIS/DAMP=1%
   @DF-UKS iter   3:  -422.65692717131805   -2.99783e-04   1.61211e-04 ADIIS/DIIS/DAMP=1%
   @DF-UKS iter   4:  -422.65681209967744    1.15072e-04   1.38787e-05 DIIS/DAMP=1%
   @DF-UKS iter   5:  -422.65678647809892    2.56216e-05   2.45049e-06 DIIS/DAMP=1%
   @DF-UKS iter   6:  -422.65678926280475   -2.78471e-06   4.64492e-07 DIIS/DAMP=1%
   @DF-UKS iter   7:  -422.65678803488407    1.22792e-06   1.52145e-07 DIIS/DAMP=1%
   @DF-UKS iter   8:  -422.65678869807294   -6.63189e-07   1.47764e-08 DIIS/DAMP=1%
   @DF-UKS iter   9:  -422.65678853962567    1.58447e-07   1.76537e-09 DIIS/DAMP=1%
   @DF-UKS iter  10:  -422.65678854351171   -3.88604e-09   1.32371e-10 DIIS/DAMP=1%
  Energy and wave function converged.


  ==> Post-Iterations <==

   Electrons on quadrature grid:
      Nalpha   =   12.9999999070 ; deviation = -9.304e-08
      Nbeta    =    8.0000002003 ; deviation = 2.003e-07
      Ntotal   =   21.0000001073 ; deviation = 1.073e-07 

   @Spin Contamination Metric:   3.539841018E-03
   @S^2 Expected:                8.750000000E+00
   @S^2 Observed:                8.753539841E+00
   @S   Expected:                2.500000000E+00
   @S   Observed:                2.500000000E+00

    Orbital Energies [Eh]
    ---------------------

    Alpha Occupied:                                                       

       1A1   -89.030241     2A1    -8.089503     3A1    -6.744481  
       1B1    -6.056899     1B2    -6.056899     4A1    -6.042756  
       5A1    -0.864614     6A1    -0.504933     2B1    -0.433284  
       2B2    -0.433284     7A1    -0.264873     3B2    -0.138043  
       3B1    -0.138043  

    Alpha Virtual:                                                        

       8A1     0.111199     9A1     0.189032     4B2     0.274550  
       4B1     0.274550    10A1     0.355102     5B2     0.410393  
       5B1     0.410393    11A1     0.412976     1A2     0.412976  
      12A1     0.423782     6B2     0.497980     6B1     0.497980  
      13A1     0.696686     2A2     0.728036    14A1     0.728036  
      15A1     0.984656     7B2     1.022735     7B1     1.022735  
      16A1     1.271721  

    Beta Occupied:                                                        

       1A1   -89.017691     2A1    -8.076544     3A1    -6.713824  
       4A1    -6.034036     1B2    -6.032796     1B1    -6.032796  
       5A1    -0.764150     6A1    -0.435742  

    Beta Virtual:                                                         

       2B1    -0.260478     2B2    -0.260478     7A1    -0.057193  
       3B2     0.034967     3B1     0.034967     8A1     0.157207  
       9A1     0.230112     4B2     0.337024     4B1     0.337024  
      10A1     0.428449     5B1     0.486020     5B2     0.486020  
      11A1     0.490258    12A1     0.527098     1A2     0.527099  
       6B2     0.583288     6B1     0.583288    13A1     0.751581  
      14A1     0.847921     2A2     0.847921    15A1     1.062111  
       7B2     1.120598     7B1     1.120598    16A1     1.333064  

    Final Occupation by Irrep:
             A1    A2    B1    B2 
    DOCC [     6,    0,    1,    1 ]
    SOCC [     1,    0,    2,    2 ]
    NA   [     7,    0,    3,    3 ]
    NB   [     6,    0,    1,    1 ]

  @DF-UKS Final Energy:  -422.65678854351171

   => Energetics <=

    Nuclear Repulsion Energy =             25.5711165722422535
    One-Electron Energy =                -631.4871064680854715
    Two-Electron Energy =                 207.2142679296003109
    DFT Exchange-Correlation Energy =     -23.9550665772687665
    Empirical Dispersion Energy =           0.0000000000000000
    VV10 Nonlocal Energy =                  0.0000000000000000
    Total Energy =                       -422.6567885435117660

  UHF NO Occupations:
  HONO-2 :    7 A1 1.0000000
  HONO-1 :    3 B2 1.0000000
  HONO-0 :    3 B1 1.0000000
  LUNO+0 :    8 A1 0.0015277
  LUNO+1 :    9 A1 0.0002430
  LUNO+2 :   10 A1 0.0000003
  LUNO+3 :   11 A1 0.0000000


Computation Completed


Properties will be evaluated at   0.000000,   0.000000,   0.000000 [a0]

Properties computed using the SCF density matrix


 Multipole Moments:

 ------------------------------------------------------------------------------------
     Multipole            Electronic (a.u.)      Nuclear  (a.u.)        Total (a.u.)
 ------------------------------------------------------------------------------------

 L = 1.  Multiply by 2.5417464519 to convert [e a0] to [Debye]
 Dipole X            :          0.0000000            0.0000000            0.0000000
 Dipole Y            :          0.0000000            0.0000000            0.0000000
 Dipole Z            :         -0.3380203           -1.1856100           -1.5236303
 Magnitude           :                                                    1.5236303

 ------------------------------------------------------------------------------------

*** tstop() called on cics-quant-001 at Tue Dec 23 10:51:47 2025
Module time:
	user time   =       0.69 seconds =       0.01 minutes
	system time =       0.06 seconds =       0.00 minutes
	total time  =          0 seconds =       0.00 minutes
Total time:
	user time   =       3.67 seconds =       0.06 minutes
	system time =       0.63 seconds =       0.01 minutes
	total time  =          2 seconds =       0.03 minutes

*** tstart() called on cics-quant-001
*** at Tue Dec 23 10:51:47 2025


         ------------------------------------------------------------
                                   SCF GRAD                          
                          Rob Parrish, Justin Turney,                
                       Andy Simmonett, and Alex Sokolov              
         ------------------------------------------------------------

  ==> Geometry <==

    Molecular point group: c2v
    Full point group: C_inf_v

    Geometry (in Angstrom), charge = 0, multiplicity = 6:

       Center              X                  Y                   Z               Mass       
    ------------   -----------------  -----------------  -----------------  -----------------
         B            0.000000000000     0.000000000000     1.231492804301    11.009305360000
         S            0.000000000000     0.000000000000    -0.424053864300    31.972071174400

  Nuclear repulsion =   25.571116572242254

  ==> Basis Set <==

  Basis Set: CC-PVDZ
    Blend: CC-PVDZ
    Number of shells: 14
    Number of basis functions: 32
    Number of Cartesian functions: 34
    Spherical Harmonics?: true
    Max angular momentum: 2

  ==> DFJKGrad: Density-Fitted SCF Gradients <==

    Gradient:                    1
    J tasked:                  Yes
    K tasked:                  Yes
    wK tasked:                  No
    OpenMP threads:              5
    Integrals threads:           5
    Memory [MiB]:             5722
    Schwarz Cutoff:          1E-12
    Fitting Condition:       1E-10

   => Auxiliary Basis Set <=

  Basis Set: (CC-PVDZ AUX)
    Blend: CC-PVDZ-JKFIT
    Number of shells: 60
    Number of basis functions: 182
    Number of Cartesian functions: 211
    Spherical Harmonics?: true
    Max angular momentum: 3

  ==> DFT Potential <==

   => LibXC <=

    Version 7.0.0
    S. Lehtola, C. Steigemann, M. J.T. Oliveira, and M. A.L. Marques.,  SoftwareX 7, 1–5 (2018) (10.1016/j.softx.2017.11.002)

   => Composite Functional: B3LYP <= 

    B3LYP Hyb-GGA Exchange-Correlation Functional

    P. J. Stephens, F. J. Devlin, C. F. Chabalowski, and M. J. Frisch.,  J. Phys. Chem. 98, 11623 (1994) (10.1021/j100096a001)

    Deriv               =              1
    GGA                 =           TRUE
    Meta                =          FALSE

    Exchange Hybrid     =           TRUE
    MP2 Hybrid          =          FALSE

   => Exchange Functionals <=

    0.0800   Slater exchange
    0.7200         Becke 88

   => Exact (HF) Exchange <=

    0.2000               HF 

   => Correlation Functionals <=

    0.1900   Vosko, Wilk & Nusair (VWN5_RPA)
    0.8100   Lee, Yang & Parr

   => LibXC Density Thresholds  <==

    XC_HYB_GGA_XC_B3LYP:  1.00E-15 

   => Molecular Quadrature <=

    Radial Scheme          =       TREUTLER
    Pruning Scheme         =           NONE
    Nuclear Scheme         =       TREUTLER

    Blocking Scheme        =         OCTREE
    BS radius alpha        =              1
    Pruning alpha          =              1
    Radial Points          =             75
    Spherical Points       =            302
    Total Points           =          41978
    Total Blocks           =            385
    Max Points             =            255
    Max Functions          =             32
    Weights Tolerance      =       1.00E-15


  -Total Gradient:
     Atom            X                  Y                   Z
    ------   -----------------  -----------------  -----------------
       1        0.000000000000    -0.000000000000    -0.179157097348
       2       -0.000000000000     0.000000000000     0.179144029966


*** tstop() called on cics-quant-001 at Tue Dec 23 10:51:47 2025
Module time:
	user time   =       0.19 seconds =       0.00 minutes
	system time =       0.12 seconds =       0.00 minutes
	total time  =          0 seconds =       0.00 minutes
Total time:
	user time   =       3.86 seconds =       0.06 minutes
	system time =       0.75 seconds =       0.01 minutes
	total time  =          2 seconds =       0.03 minutes

    			-----------------------------------------

    			 OPTKING 3.0: for geometry optimizations 

    			     By R.A. King, Bethel University     

    			        with contributions from          

    			    A.V. Copan, J. Cayton, A. Heide      

    			-----------------------------------------

    
	                            ===> Fragment 1 <== 

	 Z (Atomic Numbers)          Masses                          Geom                  
	       5.000000            11.009305          0.00000000  0.00000000  2.32718413   
	      16.000000            31.972071          0.00000000  0.00000000 -0.80134567   

	 - Coordinate -           - BOHR/RAD -       - ANG/DEG -
	 R(1,2)           =         3.128530           1.655547


	        --- Internal Coordinate Step in ANG or DEG, aJ/ANG or AJ/DEG ---
	-------------------------------------------------------------------------------
	           Coordinate      Previous         Force          Change          New 
	           ----------      --------        ------          ------        ------
	               R(1,2)       1.65555        1.47597        0.12910       1.78464
	-------------------------------------------------------------------------------

	                                 ==> Convergence Check <==                                  
    
	Measures of convergence in internal coordinates in au.
    
	Criteria marked as inactive (o), active & met (*), and active & unmet ( ).

	----------------------------------------------------------------------------------------------
	   Step    Total Energy     Delta E     Max Force     RMS Force      Max Disp      RMS Disp   
	----------------------------------------------------------------------------------------------
	  Convergence Criteria     1.00e-06 *    3.00e-04 *             o    1.20e-03 *             o
	----------------------------------------------------------------------------------------------
	     4    -422.65678854   -7.06e-02      1.79e-01      1.79e-01 o    2.44e-01      2.44e-01 o  ~
	----------------------------------------------------------------------------------------------

Next Geometry in Ang 
	Fragment 1 (Ang)

	    B   0.0000000000   0.0000000000   1.2960411624
	    S   0.0000000000   0.0000000000  -0.4886022224


    Structure for next step:
    Molecular point group: c2v
    Full point group: C_inf_v

    Geometry (in Angstrom), charge = 0, multiplicity = 6:

    B            0.000000000000     0.000000000000     1.327522520750
    S            0.000000000000     0.000000000000    -0.457120864128


Scratch directory: /tmp/
gradient() will perform analytic gradient computation.
   => Libint2 <=

    Primary   basis highest AM E, G, H:  6, 6, 3
    Auxiliary basis highest AM E, G, H:  7, 7, 4
    Onebody   basis highest AM E, G, H:  -, -, -
    Solid Harmonics ordering:            Gaussian

*** tstart() called on cics-quant-001
*** at Tue Dec 23 10:51:47 2025

   => Loading Basis Set <=

    Name: CC-PVDZ
    Role: ORBITAL
    Keyword: BASIS
    atoms 1 entry B          line   108 file /home/jrodriguesro/psi4conda/share/psi4/basis/cc-pvdz.gbs 
    atoms 2 entry S          line   598 file /home/jrodriguesro/psi4conda/share/psi4/basis/cc-pvdz.gbs 


         ---------------------------------------------------------
                                   SCF
               by Justin Turney, Rob Parrish, Andy Simmonett
                          and Daniel G. A. Smith
                              UKS Reference
                        5 Threads,   7629 MiB Core
         ---------------------------------------------------------

  ==> Geometry <==

    Molecular point group: c2v
    Full point group: C_inf_v

    Geometry (in Angstrom), charge = 0, multiplicity = 6:

       Center              X                  Y                   Z               Mass       
    ------------   -----------------  -----------------  -----------------  -----------------
         B            0.000000000000     0.000000000000     1.327522520750    11.009305360000
         S            0.000000000000     0.000000000000    -0.457120864128    31.972071174400

  Running in c2v symmetry.

  Rotational constants: A = ************  B =      0.64631  C =      0.64631 [cm^-1]
  Rotational constants: A = ************  B =  19375.99161  C =  19375.99161 [MHz]
  Nuclear repulsion =   23.721364846507928

  Charge       = 0
  Multiplicity = 6
  Electrons    = 21
  Nalpha       = 13
  Nbeta        = 8

  ==> Algorithm <==

  SCF Algorithm Type is DF.
  DIIS enabled.
  MOM disabled.
  Fractional occupation disabled.
  Guess Type is READ.
  Energy threshold   = 1.00e-08
  Density threshold  = 1.00e-08
  Integral threshold = 1.00e-12

  ==> Primary Basis <==

  Basis Set: CC-PVDZ
    Blend: CC-PVDZ
    Number of shells: 14
    Number of basis functions: 32
    Number of Cartesian functions: 34
    Spherical Harmonics?: true
    Max angular momentum: 2

  ==> DFT Potential <==

   => LibXC <=

    Version 7.0.0
    S. Lehtola, C. Steigemann, M. J.T. Oliveira, and M. A.L. Marques.,  SoftwareX 7, 1–5 (2018) (10.1016/j.softx.2017.11.002)

   => Composite Functional: B3LYP <= 

    B3LYP Hyb-GGA Exchange-Correlation Functional

    P. J. Stephens, F. J. Devlin, C. F. Chabalowski, and M. J. Frisch.,  J. Phys. Chem. 98, 11623 (1994) (10.1021/j100096a001)

    Deriv               =              1
    GGA                 =           TRUE
    Meta                =          FALSE

    Exchange Hybrid     =           TRUE
    MP2 Hybrid          =          FALSE

   => Exchange Functionals <=

    0.0800   Slater exchange
    0.7200         Becke 88

   => Exact (HF) Exchange <=

    0.2000               HF 

   => Correlation Functionals <=

    0.1900   Vosko, Wilk & Nusair (VWN5_RPA)
    0.8100   Lee, Yang & Parr

   => LibXC Density Thresholds  <==

    XC_HYB_GGA_XC_B3LYP:  1.00E-15 

   => Molecular Quadrature <=

    Radial Scheme          =       TREUTLER
    Pruning Scheme         =           NONE
    Nuclear Scheme         =       TREUTLER

    Blocking Scheme        =         OCTREE
    BS radius alpha        =              1
    Pruning alpha          =              1
    Radial Points          =             75
    Spherical Points       =            302
    Total Points           =          41988
    Total Blocks           =            383
    Max Points             =            256
    Max Functions          =             32
    Weights Tolerance      =       1.00E-15

   => Loading Basis Set <=

    Name: (CC-PVDZ AUX)
    Role: JKFIT
    Keyword: DF_BASIS_SCF
    atoms 1 entry B          line    71 file /home/jrodriguesro/psi4conda/share/psi4/basis/cc-pvdz-jkfit.gbs 
    atoms 2 entry S          line   593 file /home/jrodriguesro/psi4conda/share/psi4/basis/cc-pvdz-jkfit.gbs 

   => Loading Basis Set <=

    Name: CC-PVDZ
    Role: ORBITAL
    Keyword: BASIS
    atoms 1 entry B          line   108 file /home/jrodriguesro/psi4conda/share/psi4/basis/cc-pvdz.gbs 
    atoms 2 entry S          line   598 file /home/jrodriguesro/psi4conda/share/psi4/basis/cc-pvdz.gbs 

  Reading orbitals from file /tmp/sextet_BS.default.356927.180.npy, no projection.

  ==> Integral Setup <==

  DFHelper Memory: AOs need 0.002 GiB; user supplied 5.550 GiB. 
  SCF_SUBTYPE=INCORE selected. In-core MEM_DF algorithm will be used.
  Using in-core AOs.

  ==> MemDFJK: Density-Fitted J/K Matrices <==

    J tasked:                   Yes
    K tasked:                   Yes
    wK tasked:                   No
    OpenMP threads:               5
    Memory [MiB]:              5682
    Algorithm:                 Core
    Schwarz Cutoff:           1E-12
    Mask sparsity (%):       0.0000
    Fitting Condition:        1E-10

   => Auxiliary Basis Set <=

  Basis Set: (CC-PVDZ AUX)
    Blend: CC-PVDZ-JKFIT
    Number of shells: 60
    Number of basis functions: 182
    Number of Cartesian functions: 211
    Spherical Harmonics?: true
    Max angular momentum: 3

  Cached 100.0% of DFT collocation blocks in 0.038 [GiB].

  Minimum eigenvalue in the overlap matrix is 1.5974025017E-02.
  Reciprocal condition number of the overlap matrix is 5.3571949546E-03.
    Using symmetric orthogonalization.

  ==> Pre-Iterations <==

  SCF Guess: Orbitals guess was supplied from a previous computation.

   -------------------------------------------------------
    Irrep   Nso     Nmo     Nalpha   Nbeta   Ndocc  Nsocc
   -------------------------------------------------------
     A1        16      16       7       6       6       1
     A2         2       2       0       0       0       0
     B1         7       7       3       1       1       2
     B2         7       7       3       1       1       2
   -------------------------------------------------------
    Total      32      32      13       8       8       5
   -------------------------------------------------------

  ==> Iterations <==

                           Total Energy        Delta E     RMS |[F,P]|

   @DF-UKS iter   0:  -422.66291530382352   -4.22663e+02   1.41497e-02 
   @DF-UKS iter   1:  -422.68750942509121   -2.45941e-02   1.17537e-03 ADIIS/DIIS
   @DF-UKS iter   2:  -422.68782517956475   -3.15754e-04   6.72359e-04 ADIIS/DIIS/DAMP=1%
   @DF-UKS iter   3:  -422.68761297104362    2.12209e-04   1.30004e-04 ADIIS/DIIS/DAMP=1%
   @DF-UKS iter   4:  -422.68799052156567   -3.77551e-04   2.05458e-05 DIIS/DAMP=1%
   @DF-UKS iter   5:  -422.68796412714636    2.63944e-05   7.85578e-06 DIIS/DAMP=1%
   @DF-UKS iter   6:  -422.68794646192583    1.76652e-05   1.11134e-06 DIIS/DAMP=1%
   @DF-UKS iter   7:  -422.68795393435425   -7.47243e-06   1.76775e-07 DIIS/DAMP=1%
   @DF-UKS iter   8:  -422.68795292265082    1.01170e-06   1.91670e-08 DIIS/DAMP=1%
   @DF-UKS iter   9:  -422.68795305720414   -1.34553e-07   1.66805e-09 DIIS/DAMP=1%
   @DF-UKS iter  10:  -422.68795304957689    7.62725e-09   1.48708e-10 DIIS/DAMP=1%
  Energy and wave function converged.


  ==> Post-Iterations <==

   Electrons on quadrature grid:
      Nalpha   =   12.9999996229 ; deviation = -3.771e-07
      Nbeta    =    8.0000000209 ; deviation = 2.087e-08
      Ntotal   =   20.9999996438 ; deviation = -3.562e-07 

   @Spin Contamination Metric:   3.273209637E-03
   @S^2 Expected:                8.750000000E+00
   @S^2 Observed:                8.753273210E+00
   @S   Expected:                2.500000000E+00
   @S   Observed:                2.500000000E+00

    Orbital Energies [Eh]
    ---------------------

    Alpha Occupied:                                                       

       1A1   -89.033651     2A1    -8.090976     3A1    -6.753920  
       1B2    -6.058651     1B1    -6.058651     4A1    -6.044318  
       5A1    -0.847609     6A1    -0.494473     2B1    -0.425048  
       2B2    -0.425048     7A1    -0.270970     3B1    -0.141345  
       3B2    -0.141345  

    Alpha Virtual:                                                        

       8A1     0.083712     9A1     0.205090     4B1     0.292290  
       4B2     0.292290    10A1     0.356913     5B1     0.399498  
       5B2     0.399498    11A1     0.402669     1A2     0.422160  
      12A1     0.422160     6B1     0.476824     6B2     0.476824  
      13A1     0.655823     2A2     0.720570    14A1     0.720570  
      15A1     0.927125     7B1     0.974980     7B2     0.974980  
      16A1     1.202531  

    Beta Occupied:                                                        

       1A1   -89.020989     2A1    -8.077926     3A1    -6.723085  
       4A1    -6.035133     1B2    -6.034566     1B1    -6.034566  
       5A1    -0.747288     6A1    -0.427260  

    Beta Virtual:                                                         

       2B2    -0.254566     2B1    -0.254566     7A1    -0.067622  
       3B1     0.032480     3B2     0.032480     8A1     0.140496  
       9A1     0.239553     4B1     0.358474     4B2     0.358474  
      10A1     0.421446    11A1     0.469209     5B1     0.474980  
       5B2     0.474980    12A1     0.536369     1A2     0.536370  
       6B1     0.554863     6B2     0.554863    13A1     0.708563  
      14A1     0.842009     2A2     0.842010    15A1     0.997519  
       7B1     1.071404     7B2     1.071404    16A1     1.269685  

    Final Occupation by Irrep:
             A1    A2    B1    B2 
    DOCC [     6,    0,    1,    1 ]
    SOCC [     1,    0,    2,    2 ]
    NA   [     7,    0,    3,    3 ]
    NB   [     6,    0,    1,    1 ]

  @DF-UKS Final Energy:  -422.68795304957689

   => Energetics <=

    Nuclear Repulsion Energy =             23.7213648465079281
    One-Electron Energy =                -627.8953844372163076
    Two-Electron Energy =                 205.4013084535516214
    DFT Exchange-Correlation Energy =     -23.9152419124202140
    Empirical Dispersion Energy =           0.0000000000000000
    VV10 Nonlocal Energy =                  0.0000000000000000
    Total Energy =                       -422.6879530495768904

  UHF NO Occupations:
  HONO-2 :    2 B2 1.0000000
  HONO-1 :    3 B2 1.0000000
  HONO-0 :    3 B1 1.0000000
  LUNO+0 :    8 A1 0.0013526
  LUNO+1 :    9 A1 0.0002846
  LUNO+2 :   10 A1 0.0000002
  LUNO+3 :   11 A1 0.0000000


Computation Completed


Properties will be evaluated at   0.000000,   0.000000,   0.000000 [a0]

Properties computed using the SCF density matrix


 Multipole Moments:

 ------------------------------------------------------------------------------------
     Multipole            Electronic (a.u.)      Nuclear  (a.u.)        Total (a.u.)
 ------------------------------------------------------------------------------------

 L = 1.  Multiply by 2.5417464519 to convert [e a0] to [Debye]
 Dipole X            :          0.0000000            0.0000000            0.0000000
 Dipole Y            :          0.0000000            0.0000000            0.0000000
 Dipole Z            :         -0.3080674           -1.2780619           -1.5861293
 Magnitude           :                                                    1.5861293

 ------------------------------------------------------------------------------------

*** tstop() called on cics-quant-001 at Tue Dec 23 10:51:48 2025
Module time:
	user time   =       0.74 seconds =       0.01 minutes
	system time =       0.06 seconds =       0.00 minutes
	total time  =          1 seconds =       0.02 minutes
Total time:
	user time   =       4.62 seconds =       0.08 minutes
	system time =       0.81 seconds =       0.01 minutes
	total time  =          3 seconds =       0.05 minutes

*** tstart() called on cics-quant-001
*** at Tue Dec 23 10:51:48 2025


         ------------------------------------------------------------
                                   SCF GRAD                          
                          Rob Parrish, Justin Turney,                
                       Andy Simmonett, and Alex Sokolov              
         ------------------------------------------------------------

  ==> Geometry <==

    Molecular point group: c2v
    Full point group: C_inf_v

    Geometry (in Angstrom), charge = 0, multiplicity = 6:

       Center              X                  Y                   Z               Mass       
    ------------   -----------------  -----------------  -----------------  -----------------
         B            0.000000000000     0.000000000000     1.327522520750    11.009305360000
         S            0.000000000000     0.000000000000    -0.457120864128    31.972071174400

  Nuclear repulsion =   23.721364846507928

  ==> Basis Set <==

  Basis Set: CC-PVDZ
    Blend: CC-PVDZ
    Number of shells: 14
    Number of basis functions: 32
    Number of Cartesian functions: 34
    Spherical Harmonics?: true
    Max angular momentum: 2

  ==> DFJKGrad: Density-Fitted SCF Gradients <==

    Gradient:                    1
    J tasked:                  Yes
    K tasked:                  Yes
    wK tasked:                  No
    OpenMP threads:              5
    Integrals threads:           5
    Memory [MiB]:             5722
    Schwarz Cutoff:          1E-12
    Fitting Condition:       1E-10

   => Auxiliary Basis Set <=

  Basis Set: (CC-PVDZ AUX)
    Blend: CC-PVDZ-JKFIT
    Number of shells: 60
    Number of basis functions: 182
    Number of Cartesian functions: 211
    Spherical Harmonics?: true
    Max angular momentum: 3

  ==> DFT Potential <==

   => LibXC <=

    Version 7.0.0
    S. Lehtola, C. Steigemann, M. J.T. Oliveira, and M. A.L. Marques.,  SoftwareX 7, 1–5 (2018) (10.1016/j.softx.2017.11.002)

   => Composite Functional: B3LYP <= 

    B3LYP Hyb-GGA Exchange-Correlation Functional

    P. J. Stephens, F. J. Devlin, C. F. Chabalowski, and M. J. Frisch.,  J. Phys. Chem. 98, 11623 (1994) (10.1021/j100096a001)

    Deriv               =              1
    GGA                 =           TRUE
    Meta                =          FALSE

    Exchange Hybrid     =           TRUE
    MP2 Hybrid          =          FALSE

   => Exchange Functionals <=

    0.0800   Slater exchange
    0.7200         Becke 88

   => Exact (HF) Exchange <=

    0.2000               HF 

   => Correlation Functionals <=

    0.1900   Vosko, Wilk & Nusair (VWN5_RPA)
    0.8100   Lee, Yang & Parr

   => LibXC Density Thresholds  <==

    XC_HYB_GGA_XC_B3LYP:  1.00E-15 

   => Molecular Quadrature <=

    Radial Scheme          =       TREUTLER
    Pruning Scheme         =           NONE
    Nuclear Scheme         =       TREUTLER

    Blocking Scheme        =         OCTREE
    BS radius alpha        =              1
    Pruning alpha          =              1
    Radial Points          =             75
    Spherical Points       =            302
    Total Points           =          41988
    Total Blocks           =            383
    Max Points             =            256
    Max Functions          =             32
    Weights Tolerance      =       1.00E-15


  -Total Gradient:
     Atom            X                  Y                   Z
    ------   -----------------  -----------------  -----------------
       1        0.000000000000    -0.000000000000    -0.085141175885
       2        0.000000000000    -0.000000000000     0.085134014443


*** tstop() called on cics-quant-001 at Tue Dec 23 10:51:48 2025
Module time:
	user time   =       0.19 seconds =       0.00 minutes
	system time =       0.11 seconds =       0.00 minutes
	total time  =          0 seconds =       0.00 minutes
Total time:
	user time   =       4.81 seconds =       0.08 minutes
	system time =       0.92 seconds =       0.02 minutes
	total time  =          3 seconds =       0.05 minutes

    			-----------------------------------------

    			 OPTKING 3.0: for geometry optimizations 

    			     By R.A. King, Bethel University     

    			        with contributions from          

    			    A.V. Copan, J. Cayton, A. Heide      

    			-----------------------------------------

    
	                            ===> Fragment 1 <== 

	 Z (Atomic Numbers)          Masses                          Geom                  
	       5.000000            11.009305          0.00000000  0.00000000  2.50865399   
	      16.000000            31.972071          0.00000000  0.00000000 -0.86383324   

	 - Coordinate -           - BOHR/RAD -       - ANG/DEG -
	 R(1,2)           =         3.372487           1.784643


	        --- Internal Coordinate Step in ANG or DEG, aJ/ANG or AJ/DEG ---
	-------------------------------------------------------------------------------
	           Coordinate      Previous         Force          Change          New 
	           ----------      --------        ------          ------        ------
	               R(1,2)       1.78464        0.70143        0.11170       1.89634
	-------------------------------------------------------------------------------

	                                 ==> Convergence Check <==                                  
    
	Measures of convergence in internal coordinates in au.
    
	Criteria marked as inactive (o), active & met (*), and active & unmet ( ).

	----------------------------------------------------------------------------------------------
	   Step    Total Energy     Delta E     Max Force     RMS Force      Max Disp      RMS Disp   
	----------------------------------------------------------------------------------------------
	  Convergence Criteria     1.00e-06 *    3.00e-04 *             o    1.20e-03 *             o
	----------------------------------------------------------------------------------------------
	     5    -422.68795305   -3.12e-02      8.51e-02      8.51e-02 o    2.11e-01      2.11e-01 o  ~
	----------------------------------------------------------------------------------------------

Next Geometry in Ang 
	Fragment 1 (Ang)

	    B   0.0000000000   0.0000000000   1.3833726350
	    S   0.0000000000   0.0000000000  -0.5129709784


    Structure for next step:
    Molecular point group: c2v
    Full point group: C_inf_v

    Geometry (in Angstrom), charge = 0, multiplicity = 6:

    B            0.000000000000     0.000000000000     1.410611708323
    S            0.000000000000     0.000000000000    -0.485731905093


Scratch directory: /tmp/
gradient() will perform analytic gradient computation.
   => Libint2 <=

    Primary   basis highest AM E, G, H:  6, 6, 3
    Auxiliary basis highest AM E, G, H:  7, 7, 4
    Onebody   basis highest AM E, G, H:  -, -, -
    Solid Harmonics ordering:            Gaussian

*** tstart() called on cics-quant-001
*** at Tue Dec 23 10:51:48 2025

   => Loading Basis Set <=

    Name: CC-PVDZ
    Role: ORBITAL
    Keyword: BASIS
    atoms 1 entry B          line   108 file /home/jrodriguesro/psi4conda/share/psi4/basis/cc-pvdz.gbs 
    atoms 2 entry S          line   598 file /home/jrodriguesro/psi4conda/share/psi4/basis/cc-pvdz.gbs 


         ---------------------------------------------------------
                                   SCF
               by Justin Turney, Rob Parrish, Andy Simmonett
                          and Daniel G. A. Smith
                              UKS Reference
                        5 Threads,   7629 MiB Core
         ---------------------------------------------------------

  ==> Geometry <==

    Molecular point group: c2v
    Full point group: C_inf_v

    Geometry (in Angstrom), charge = 0, multiplicity = 6:

       Center              X                  Y                   Z               Mass       
    ------------   -----------------  -----------------  -----------------  -----------------
         B            0.000000000000     0.000000000000     1.410611708323    11.009305360000
         S            0.000000000000     0.000000000000    -0.485731905093    31.972071174400

  Running in c2v symmetry.

  Rotational constants: A = ************  B =      0.57242  C =      0.57242 [cm^-1]
  Rotational constants: A = ************  B =  17160.61168  C =  17160.61168 [MHz]
  Nuclear repulsion =   22.324106535386381

  Charge       = 0
  Multiplicity = 6
  Electrons    = 21
  Nalpha       = 13
  Nbeta        = 8

  ==> Algorithm <==

  SCF Algorithm Type is DF.
  DIIS enabled.
  MOM disabled.
  Fractional occupation disabled.
  Guess Type is READ.
  Energy threshold   = 1.00e-08
  Density threshold  = 1.00e-08
  Integral threshold = 1.00e-12

  ==> Primary Basis <==

  Basis Set: CC-PVDZ
    Blend: CC-PVDZ
    Number of shells: 14
    Number of basis functions: 32
    Number of Cartesian functions: 34
    Spherical Harmonics?: true
    Max angular momentum: 2

  ==> DFT Potential <==

   => LibXC <=

    Version 7.0.0
    S. Lehtola, C. Steigemann, M. J.T. Oliveira, and M. A.L. Marques.,  SoftwareX 7, 1–5 (2018) (10.1016/j.softx.2017.11.002)

   => Composite Functional: B3LYP <= 

    B3LYP Hyb-GGA Exchange-Correlation Functional

    P. J. Stephens, F. J. Devlin, C. F. Chabalowski, and M. J. Frisch.,  J. Phys. Chem. 98, 11623 (1994) (10.1021/j100096a001)

    Deriv               =              1
    GGA                 =           TRUE
    Meta                =          FALSE

    Exchange Hybrid     =           TRUE
    MP2 Hybrid          =          FALSE

   => Exchange Functionals <=

    0.0800   Slater exchange
    0.7200         Becke 88

   => Exact (HF) Exchange <=

    0.2000               HF 

   => Correlation Functionals <=

    0.1900   Vosko, Wilk & Nusair (VWN5_RPA)
    0.8100   Lee, Yang & Parr

   => LibXC Density Thresholds  <==

    XC_HYB_GGA_XC_B3LYP:  1.00E-15 

   => Molecular Quadrature <=

    Radial Scheme          =       TREUTLER
    Pruning Scheme         =           NONE
    Nuclear Scheme         =       TREUTLER

    Blocking Scheme        =         OCTREE
    BS radius alpha        =              1
    Pruning alpha          =              1
    Radial Points          =             75
    Spherical Points       =            302
    Total Points           =          41998
    Total Blocks           =            383
    Max Points             =            256
    Max Functions          =             32
    Weights Tolerance      =       1.00E-15

   => Loading Basis Set <=

    Name: (CC-PVDZ AUX)
    Role: JKFIT
    Keyword: DF_BASIS_SCF
    atoms 1 entry B          line    71 file /home/jrodriguesro/psi4conda/share/psi4/basis/cc-pvdz-jkfit.gbs 
    atoms 2 entry S          line   593 file /home/jrodriguesro/psi4conda/share/psi4/basis/cc-pvdz-jkfit.gbs 

   => Loading Basis Set <=

    Name: CC-PVDZ
    Role: ORBITAL
    Keyword: BASIS
    atoms 1 entry B          line   108 file /home/jrodriguesro/psi4conda/share/psi4/basis/cc-pvdz.gbs 
    atoms 2 entry S          line   598 file /home/jrodriguesro/psi4conda/share/psi4/basis/cc-pvdz.gbs 

  Reading orbitals from file /tmp/sextet_BS.default.356927.180.npy, no projection.

  ==> Integral Setup <==

  DFHelper Memory: AOs need 0.002 GiB; user supplied 5.550 GiB. 
  SCF_SUBTYPE=INCORE selected. In-core MEM_DF algorithm will be used.
  Using in-core AOs.

  ==> MemDFJK: Density-Fitted J/K Matrices <==

    J tasked:                   Yes
    K tasked:                   Yes
    wK tasked:                   No
    OpenMP threads:               5
    Memory [MiB]:              5682
    Algorithm:                 Core
    Schwarz Cutoff:           1E-12
    Mask sparsity (%):       0.0000
    Fitting Condition:        1E-10

   => Auxiliary Basis Set <=

  Basis Set: (CC-PVDZ AUX)
    Blend: CC-PVDZ-JKFIT
    Number of shells: 60
    Number of basis functions: 182
    Number of Cartesian functions: 211
    Spherical Harmonics?: true
    Max angular momentum: 3

  Cached 100.0% of DFT collocation blocks in 0.038 [GiB].

  Minimum eigenvalue in the overlap matrix is 1.8559055807E-02.
  Reciprocal condition number of the overlap matrix is 6.3676838866E-03.
    Using symmetric orthogonalization.

  ==> Pre-Iterations <==

  SCF Guess: Orbitals guess was supplied from a previous computation.

   -------------------------------------------------------
    Irrep   Nso     Nmo     Nalpha   Nbeta   Ndocc  Nsocc
   -------------------------------------------------------
     A1        16      16       7       6       6       1
     A2         2       2       0       0       0       0
     B1         7       7       3       1       1       2
     B2         7       7       3       1       1       2
   -------------------------------------------------------
    Total      32      32      13       8       8       5
   -------------------------------------------------------

  ==> Iterations <==

                           Total Energy        Delta E     RMS |[F,P]|

   @DF-UKS iter   0:  -422.67591520554925   -4.22676e+02   9.54572e-03 
   @DF-UKS iter   1:  -422.70014739812649   -2.42322e-02   1.05518e-03 ADIIS/DIIS
   @DF-UKS iter   2:  -422.70037426767453   -2.26870e-04   6.69915e-04 ADIIS/DIIS/DAMP=1%
   @DF-UKS iter   3:  -422.70003605745057    3.38210e-04   1.09446e-04 ADIIS/DIIS/DAMP=1%
   @DF-UKS iter   4:  -422.70052981193464   -4.93754e-04   2.22290e-05 DIIS/DAMP=1%
   @DF-UKS iter   5:  -422.70051032689969    1.94850e-05   7.36609e-06 DIIS/DAMP=1%
   @DF-UKS iter   6:  -422.70049654945029    1.37774e-05   1.03613e-06 DIIS/DAMP=1%
   @DF-UKS iter   7:  -422.70050236819060   -5.81874e-06   2.01404e-07 DIIS/DAMP=1%
   @DF-UKS iter   8:  -422.70050142961304    9.38578e-07   2.32791e-08 DIIS/DAMP=1%
   @DF-UKS iter   9:  -422.70050157086195   -1.41249e-07   1.32754e-09 DIIS/DAMP=1%
   @DF-UKS iter  10:  -422.70050156771947    3.14247e-09   1.49675e-10 DIIS/DAMP=1%
  Energy and wave function converged.


  ==> Post-Iterations <==

   Electrons on quadrature grid:
      Nalpha   =   12.9999996709 ; deviation = -3.291e-07
      Nbeta    =    7.9999999307 ; deviation = -6.933e-08
      Ntotal   =   20.9999996016 ; deviation = -3.984e-07 

   @Spin Contamination Metric:   3.141323720E-03
   @S^2 Expected:                8.750000000E+00
   @S^2 Observed:                8.753141324E+00
   @S   Expected:                2.500000000E+00
   @S   Observed:                2.500000000E+00

    Orbital Energies [Eh]
    ---------------------

    Alpha Occupied:                                                       

       1A1   -89.033986     2A1    -8.090464     3A1    -6.762865  
       1B2    -6.058243     1B1    -6.058243     4A1    -6.043919  
       5A1    -0.835758     6A1    -0.483071     2B1    -0.419064  
       2B2    -0.419064     7A1    -0.278040     3B2    -0.143802  
       3B1    -0.143802  

    Alpha Virtual:                                                        

       8A1     0.059014     9A1     0.223919     4B2     0.302554  
       4B1     0.302554    10A1     0.357436    11A1     0.390528  
       5B2     0.395705     5B1     0.395705     1A2     0.429229  
      12A1     0.429230     6B2     0.463849     6B1     0.463849  
      13A1     0.621610    14A1     0.715970     2A2     0.715970  
      15A1     0.874082     7B2     0.936778     7B1     0.936778  
      16A1     1.173613  

    Beta Occupied:                                                        

       1A1   -89.021232     2A1    -8.077341     3A1    -6.731742  
       4A1    -6.034279     1B2    -6.034199     1B1    -6.034199  
       5A1    -0.734969     6A1    -0.416636  

    Beta Virtual:                                                         

       2B1    -0.249998     2B2    -0.249998     7A1    -0.079094  
       3B2     0.030909     3B1     0.030909     8A1     0.120893  
       9A1     0.255557     4B2     0.374001     4B1     0.374001  
      10A1     0.416012    11A1     0.455953     5B2     0.468512  
       5B1     0.468512     6B2     0.536805     6B1     0.536805  
      12A1     0.543434     1A2     0.543435    13A1     0.673750  
      14A1     0.838865     2A2     0.838865    15A1     0.939531  
       7B2     1.031647     7B1     1.031647    16A1     1.243640  

    Final Occupation by Irrep:
             A1    A2    B1    B2 
    DOCC [     6,    0,    1,    1 ]
    SOCC [     1,    0,    2,    2 ]
    NA   [     7,    0,    3,    3 ]
    NB   [     6,    0,    1,    1 ]

  @DF-UKS Final Energy:  -422.70050156771947

   => Energetics <=

    Nuclear Repulsion Energy =             22.3241065353863810
    One-Electron Energy =                -625.1756927765754881
    Two-Electron Energy =                 204.0395931457409802
    DFT Exchange-Correlation Energy =     -23.8885084722713117
    Empirical Dispersion Energy =           0.0000000000000000
    VV10 Nonlocal Energy =                  0.0000000000000000
    Total Energy =                       -422.7005015677194706

  UHF NO Occupations:
  HONO-2 :    2 B1 1.0000000
  HONO-1 :    7 A1 1.0000000
  HONO-0 :    3 B2 1.0000000
  LUNO+0 :    8 A1 0.0012507
  LUNO+1 :    9 A1 0.0003206
  LUNO+2 :   10 A1 0.0000002
  LUNO+3 :   11 A1 0.0000000


Computation Completed


Properties will be evaluated at   0.000000,   0.000000,   0.000000 [a0]

Properties computed using the SCF density matrix


 Multipole Moments:

 ------------------------------------------------------------------------------------
     Multipole            Electronic (a.u.)      Nuclear  (a.u.)        Total (a.u.)
 ------------------------------------------------------------------------------------

 L = 1.  Multiply by 2.5417464519 to convert [e a0] to [Debye]
 Dipole X            :          0.0000000            0.0000000            0.0000000
 Dipole Y            :          0.0000000            0.0000000            0.0000000
 Dipole Z            :         -0.2409460           -1.3580553           -1.5990014
 Magnitude           :                                                    1.5990014

 ------------------------------------------------------------------------------------

*** tstop() called on cics-quant-001 at Tue Dec 23 10:51:48 2025
Module time:
	user time   =       0.85 seconds =       0.01 minutes
	system time =       0.09 seconds =       0.00 minutes
	total time  =          0 seconds =       0.00 minutes
Total time:
	user time   =       5.68 seconds =       0.09 minutes
	system time =       1.01 seconds =       0.02 minutes
	total time  =          3 seconds =       0.05 minutes

*** tstart() called on cics-quant-001
*** at Tue Dec 23 10:51:48 2025


         ------------------------------------------------------------
                                   SCF GRAD                          
                          Rob Parrish, Justin Turney,                
                       Andy Simmonett, and Alex Sokolov              
         ------------------------------------------------------------

  ==> Geometry <==

    Molecular point group: c2v
    Full point group: C_inf_v

    Geometry (in Angstrom), charge = 0, multiplicity = 6:

       Center              X                  Y                   Z               Mass       
    ------------   -----------------  -----------------  -----------------  -----------------
         B            0.000000000000     0.000000000000     1.410611708323    11.009305360000
         S            0.000000000000     0.000000000000    -0.485731905093    31.972071174400

  Nuclear repulsion =   22.324106535386381

  ==> Basis Set <==

  Basis Set: CC-PVDZ
    Blend: CC-PVDZ
    Number of shells: 14
    Number of basis functions: 32
    Number of Cartesian functions: 34
    Spherical Harmonics?: true
    Max angular momentum: 2

  ==> DFJKGrad: Density-Fitted SCF Gradients <==

    Gradient:                    1
    J tasked:                  Yes
    K tasked:                  Yes
    wK tasked:                  No
    OpenMP threads:              5
    Integrals threads:           5
    Memory [MiB]:             5722
    Schwarz Cutoff:          1E-12
    Fitting Condition:       1E-10

   => Auxiliary Basis Set <=

  Basis Set: (CC-PVDZ AUX)
    Blend: CC-PVDZ-JKFIT
    Number of shells: 60
    Number of basis functions: 182
    Number of Cartesian functions: 211
    Spherical Harmonics?: true
    Max angular momentum: 3

  ==> DFT Potential <==

   => LibXC <=

    Version 7.0.0
    S. Lehtola, C. Steigemann, M. J.T. Oliveira, and M. A.L. Marques.,  SoftwareX 7, 1–5 (2018) (10.1016/j.softx.2017.11.002)

   => Composite Functional: B3LYP <= 

    B3LYP Hyb-GGA Exchange-Correlation Functional

    P. J. Stephens, F. J. Devlin, C. F. Chabalowski, and M. J. Frisch.,  J. Phys. Chem. 98, 11623 (1994) (10.1021/j100096a001)

    Deriv               =              1
    GGA                 =           TRUE
    Meta                =          FALSE

    Exchange Hybrid     =           TRUE
    MP2 Hybrid          =          FALSE

   => Exchange Functionals <=

    0.0800   Slater exchange
    0.7200         Becke 88

   => Exact (HF) Exchange <=

    0.2000               HF 

   => Correlation Functionals <=

    0.1900   Vosko, Wilk & Nusair (VWN5_RPA)
    0.8100   Lee, Yang & Parr

   => LibXC Density Thresholds  <==

    XC_HYB_GGA_XC_B3LYP:  1.00E-15 

   => Molecular Quadrature <=

    Radial Scheme          =       TREUTLER
    Pruning Scheme         =           NONE
    Nuclear Scheme         =       TREUTLER

    Blocking Scheme        =         OCTREE
    BS radius alpha        =              1
    Pruning alpha          =              1
    Radial Points          =             75
    Spherical Points       =            302
    Total Points           =          41998
    Total Blocks           =            383
    Max Points             =            256
    Max Functions          =             32
    Weights Tolerance      =       1.00E-15


  -Total Gradient:
     Atom            X                  Y                   Z
    ------   -----------------  -----------------  -----------------
       1        0.000000000000    -0.000000000000    -0.037783559050
       2       -0.000000000000     0.000000000000     0.037780487159


*** tstop() called on cics-quant-001 at Tue Dec 23 10:51:48 2025
Module time:
	user time   =       0.21 seconds =       0.00 minutes
	system time =       0.12 seconds =       0.00 minutes
	total time  =          0 seconds =       0.00 minutes
Total time:
	user time   =       5.89 seconds =       0.10 minutes
	system time =       1.13 seconds =       0.02 minutes
	total time  =          3 seconds =       0.05 minutes

    			-----------------------------------------

    			 OPTKING 3.0: for geometry optimizations 

    			     By R.A. King, Bethel University     

    			        with contributions from          

    			    A.V. Copan, J. Cayton, A. Heide      

    			-----------------------------------------

    
	                            ===> Fragment 1 <== 

	 Z (Atomic Numbers)          Masses                          Geom                  
	       5.000000            11.009305          0.00000000  0.00000000  2.66566980   
	      16.000000            31.972071          0.00000000  0.00000000 -0.91790027   

	 - Coordinate -           - BOHR/RAD -       - ANG/DEG -
	 R(1,2)           =         3.583570           1.896344


	        --- Internal Coordinate Step in ANG or DEG, aJ/ANG or AJ/DEG ---
	-------------------------------------------------------------------------------
	           Coordinate      Previous         Force          Change          New 
	           ----------      --------        ------          ------        ------
	               R(1,2)       1.89634        0.31128        0.06343       1.95977
	-------------------------------------------------------------------------------

	                                 ==> Convergence Check <==                                  
    
	Measures of convergence in internal coordinates in au.
    
	Criteria marked as inactive (o), active & met (*), and active & unmet ( ).

	----------------------------------------------------------------------------------------------
	   Step    Total Energy     Delta E     Max Force     RMS Force      Max Disp      RMS Disp   
	----------------------------------------------------------------------------------------------
	  Convergence Criteria     1.00e-06 *    3.00e-04 *             o    1.20e-03 *             o
	----------------------------------------------------------------------------------------------
	     6    -422.70050157   -1.25e-02      3.78e-02      3.78e-02 o    1.20e-01      1.20e-01 o  ~
	----------------------------------------------------------------------------------------------

Next Geometry in Ang 
	Fragment 1 (Ang)

	    B   0.0000000000   0.0000000000   1.4423269655
	    S   0.0000000000   0.0000000000  -0.5174471623


    Structure for next step:
    Molecular point group: c2v
    Full point group: C_inf_v

    Geometry (in Angstrom), charge = 0, multiplicity = 6:

    B            0.000000000000     0.000000000000     1.457795048717
    S            0.000000000000     0.000000000000    -0.501979079055


Scratch directory: /tmp/
gradient() will perform analytic gradient computation.
   => Libint2 <=

    Primary   basis highest AM E, G, H:  6, 6, 3
    Auxiliary basis highest AM E, G, H:  7, 7, 4
    Onebody   basis highest AM E, G, H:  -, -, -
    Solid Harmonics ordering:            Gaussian

*** tstart() called on cics-quant-001
*** at Tue Dec 23 10:51:48 2025

   => Loading Basis Set <=

    Name: CC-PVDZ
    Role: ORBITAL
    Keyword: BASIS
    atoms 1 entry B          line   108 file /home/jrodriguesro/psi4conda/share/psi4/basis/cc-pvdz.gbs 
    atoms 2 entry S          line   598 file /home/jrodriguesro/psi4conda/share/psi4/basis/cc-pvdz.gbs 


         ---------------------------------------------------------
                                   SCF
               by Justin Turney, Rob Parrish, Andy Simmonett
                          and Daniel G. A. Smith
                              UKS Reference
                        5 Threads,   7629 MiB Core
         ---------------------------------------------------------

  ==> Geometry <==

    Molecular point group: c2v
    Full point group: C_inf_v

    Geometry (in Angstrom), charge = 0, multiplicity = 6:

       Center              X                  Y                   Z               Mass       
    ------------   -----------------  -----------------  -----------------  -----------------
         B            0.000000000000     0.000000000000     1.457795048717    11.009305360000
         S            0.000000000000     0.000000000000    -0.501979079055    31.972071174400

  Running in c2v symmetry.

  Rotational constants: A = ************  B =      0.53596  C =      0.53596 [cm^-1]
  Rotational constants: A = ************  B =  16067.73982  C =  16067.73982 [MHz]
  Nuclear repulsion =   21.601559207092301

  Charge       = 0
  Multiplicity = 6
  Electrons    = 21
  Nalpha       = 13
  Nbeta        = 8

  ==> Algorithm <==

  SCF Algorithm Type is DF.
  DIIS enabled.
  MOM disabled.
  Fractional occupation disabled.
  Guess Type is READ.
  Energy threshold   = 1.00e-08
  Density threshold  = 1.00e-08
  Integral threshold = 1.00e-12

  ==> Primary Basis <==

  Basis Set: CC-PVDZ
    Blend: CC-PVDZ
    Number of shells: 14
    Number of basis functions: 32
    Number of Cartesian functions: 34
    Spherical Harmonics?: true
    Max angular momentum: 2

  ==> DFT Potential <==

   => LibXC <=

    Version 7.0.0
    S. Lehtola, C. Steigemann, M. J.T. Oliveira, and M. A.L. Marques.,  SoftwareX 7, 1–5 (2018) (10.1016/j.softx.2017.11.002)

   => Composite Functional: B3LYP <= 

    B3LYP Hyb-GGA Exchange-Correlation Functional

    P. J. Stephens, F. J. Devlin, C. F. Chabalowski, and M. J. Frisch.,  J. Phys. Chem. 98, 11623 (1994) (10.1021/j100096a001)

    Deriv               =              1
    GGA                 =           TRUE
    Meta                =          FALSE

    Exchange Hybrid     =           TRUE
    MP2 Hybrid          =          FALSE

   => Exchange Functionals <=

    0.0800   Slater exchange
    0.7200         Becke 88

   => Exact (HF) Exchange <=

    0.2000               HF 

   => Correlation Functionals <=

    0.1900   Vosko, Wilk & Nusair (VWN5_RPA)
    0.8100   Lee, Yang & Parr

   => LibXC Density Thresholds  <==

    XC_HYB_GGA_XC_B3LYP:  1.00E-15 

   => Molecular Quadrature <=

    Radial Scheme          =       TREUTLER
    Pruning Scheme         =           NONE
    Nuclear Scheme         =       TREUTLER

    Blocking Scheme        =         OCTREE
    BS radius alpha        =              1
    Pruning alpha          =              1
    Radial Points          =             75
    Spherical Points       =            302
    Total Points           =          42015
    Total Blocks           =            383
    Max Points             =            256
    Max Functions          =             32
    Weights Tolerance      =       1.00E-15

   => Loading Basis Set <=

    Name: (CC-PVDZ AUX)
    Role: JKFIT
    Keyword: DF_BASIS_SCF
    atoms 1 entry B          line    71 file /home/jrodriguesro/psi4conda/share/psi4/basis/cc-pvdz-jkfit.gbs 
    atoms 2 entry S          line   593 file /home/jrodriguesro/psi4conda/share/psi4/basis/cc-pvdz-jkfit.gbs 

   => Loading Basis Set <=

    Name: CC-PVDZ
    Role: ORBITAL
    Keyword: BASIS
    atoms 1 entry B          line   108 file /home/jrodriguesro/psi4conda/share/psi4/basis/cc-pvdz.gbs 
    atoms 2 entry S          line   598 file /home/jrodriguesro/psi4conda/share/psi4/basis/cc-pvdz.gbs 

  Reading orbitals from file /tmp/sextet_BS.default.356927.180.npy, no projection.

  ==> Integral Setup <==

  DFHelper Memory: AOs need 0.002 GiB; user supplied 5.550 GiB. 
  SCF_SUBTYPE=INCORE selected. In-core MEM_DF algorithm will be used.
  Using in-core AOs.

  ==> MemDFJK: Density-Fitted J/K Matrices <==

    J tasked:                   Yes
    K tasked:                   Yes
    wK tasked:                   No
    OpenMP threads:               5
    Memory [MiB]:              5682
    Algorithm:                 Core
    Schwarz Cutoff:           1E-12
    Mask sparsity (%):       0.0000
    Fitting Condition:        1E-10

   => Auxiliary Basis Set <=

  Basis Set: (CC-PVDZ AUX)
    Blend: CC-PVDZ-JKFIT
    Number of shells: 60
    Number of basis functions: 182
    Number of Cartesian functions: 211
    Spherical Harmonics?: true
    Max angular momentum: 3

  Cached 100.0% of DFT collocation blocks in 0.038 [GiB].

  Minimum eigenvalue in the overlap matrix is 2.0259678025E-02.
  Reciprocal condition number of the overlap matrix is 7.0493264009E-03.
    Using symmetric orthogonalization.

  ==> Pre-Iterations <==

  SCF Guess: Orbitals guess was supplied from a previous computation.

   -------------------------------------------------------
    Irrep   Nso     Nmo     Nalpha   Nbeta   Ndocc  Nsocc
   -------------------------------------------------------
     A1        16      16       7       6       6       1
     A2         2       2       0       0       0       0
     B1         7       7       3       1       1       2
     B2         7       7       3       1       1       2
   -------------------------------------------------------
    Total      32      32      13       8       8       5
   -------------------------------------------------------

  ==> Iterations <==

                           Total Energy        Delta E     RMS |[F,P]|

   @DF-UKS iter   0:  -422.68971132228990   -4.22690e+02   4.63723e-03 
   @DF-UKS iter   1:  -422.70380279149504   -1.40915e-02   5.84915e-04 ADIIS/DIIS
   @DF-UKS iter   2:  -422.70386870151555   -6.59100e-05   3.90886e-04 ADIIS/DIIS/DAMP=1%
   @DF-UKS iter   3:  -422.70362308571077    2.45616e-04   6.06149e-05 DIIS/DAMP=1%
   @DF-UKS iter   4:  -422.70392643699461   -3.03351e-04   1.31793e-05 DIIS/DAMP=1%
   @DF-UKS iter   5:  -422.70391683314665    9.60385e-06   3.95142e-06 DIIS/DAMP=1%
   @DF-UKS iter   6:  -422.70391027790993    6.55524e-06   5.95691e-07 DIIS/DAMP=1%
   @DF-UKS iter   7:  -422.70391315469726   -2.87679e-06   1.27417e-07 DIIS/DAMP=1%
   @DF-UKS iter   8:  -422.70391262178777    5.32909e-07   1.52058e-08 DIIS/DAMP=1%
   @DF-UKS iter   9:  -422.70391270671882   -8.49311e-08   7.16144e-10 DIIS/DAMP=1%
   @DF-UKS iter  10:  -422.70391270570593    1.01289e-09   9.22812e-11 DIIS/DAMP=1%
  Energy and wave function converged.


  ==> Post-Iterations <==

   Electrons on quadrature grid:
      Nalpha   =   12.9999997886 ; deviation = -2.114e-07
      Nbeta    =    7.9999999415 ; deviation = -5.846e-08
      Ntotal   =   20.9999997302 ; deviation = -2.698e-07 

   @Spin Contamination Metric:   3.130903796E-03
   @S^2 Expected:                8.750000000E+00
   @S^2 Observed:                8.753130904E+00
   @S   Expected:                2.500000000E+00
   @S   Observed:                2.500000000E+00

    Orbital Energies [Eh]
    ---------------------

    Alpha Occupied:                                                       

       1A1   -89.033296     2A1    -8.089513     3A1    -6.767969  
       1B1    -6.057323     1B2    -6.057323     4A1    -6.043028  
       5A1    -0.829986     6A1    -0.476125     2B2    -0.415944  
       2B1    -0.415944     7A1    -0.282534     3B1    -0.145137  
       3B2    -0.145137  

    Alpha Virtual:                                                        

       8A1     0.045691     9A1     0.235558     4B1     0.305795  
       4B2     0.305795    10A1     0.357472    11A1     0.385920  
       5B2     0.396431     5B1     0.396431     1A2     0.432932  
      12A1     0.432933     6B2     0.458418     6B1     0.458418  
      13A1     0.603596    14A1     0.713907     2A2     0.713907  
      15A1     0.844163     7B2     0.916290     7B1     0.916290  
      16A1     1.163899  

    Beta Occupied:                                                        

       1A1   -89.020498     2A1    -8.076355     3A1    -6.736647  
       1B2    -6.033313     1B1    -6.033313     4A1    -6.033127  
       5A1    -0.728806     6A1    -0.409723  

    Beta Virtual:                                                         

       2B2    -0.247516     2B1    -0.247516     7A1    -0.086235  
       3B2     0.030144     3B1     0.030144     8A1     0.109322  
       9A1     0.266218     4B1     0.380946     4B2     0.380946  
      10A1     0.413743    11A1     0.450088     5B2     0.466550  
       5B1     0.466550     6B2     0.529231     6B1     0.529231  
      12A1     0.547088     1A2     0.547088    13A1     0.655721  
      14A1     0.837651     2A2     0.837652    15A1     0.907448  
       7B2     1.010235     7B1     1.010235    16A1     1.234583  

    Final Occupation by Irrep:
             A1    A2    B1    B2 
    DOCC [     6,    0,    1,    1 ]
    SOCC [     1,    0,    2,    2 ]
    NA   [     7,    0,    3,    3 ]
    NB   [     6,    0,    1,    1 ]

  @DF-UKS Final Energy:  -422.70391270570593

   => Energetics <=

    Nuclear Repulsion Energy =             21.6015592070923006
    One-Electron Energy =                -623.7695808635387493
    Two-Electron Energy =                 203.3400826157809433
    DFT Exchange-Correlation Energy =     -23.8759736650404690
    Empirical Dispersion Energy =           0.0000000000000000
    VV10 Nonlocal Energy =                  0.0000000000000000
    Total Energy =                       -422.7039127057059318

  UHF NO Occupations:
  HONO-2 :    3 B1 1.0000000
  HONO-1 :    3 B2 1.0000000
  HONO-0 :    7 A1 1.0000000
  LUNO+0 :    8 A1 0.0012261
  LUNO+1 :    9 A1 0.0003399
  LUNO+2 :   10 A1 0.0000002
  LUNO+3 :   11 A1 0.0000000


Computation Completed


Properties will be evaluated at   0.000000,   0.000000,   0.000000 [a0]

Properties computed using the SCF density matrix


 Multipole Moments:

 ------------------------------------------------------------------------------------
     Multipole            Electronic (a.u.)      Nuclear  (a.u.)        Total (a.u.)
 ------------------------------------------------------------------------------------

 L = 1.  Multiply by 2.5417464519 to convert [e a0] to [Debye]
 Dipole X            :          0.0000000            0.0000000            0.0000000
 Dipole Y            :          0.0000000            0.0000000            0.0000000
 Dipole Z            :         -0.1894071           -1.4034807           -1.5928878
 Magnitude           :                                                    1.5928878

 ------------------------------------------------------------------------------------

*** tstop() called on cics-quant-001 at Tue Dec 23 10:51:49 2025
Module time:
	user time   =       0.77 seconds =       0.01 minutes
	system time =       0.14 seconds =       0.00 minutes
	total time  =          1 seconds =       0.02 minutes
Total time:
	user time   =       6.68 seconds =       0.11 minutes
	system time =       1.27 seconds =       0.02 minutes
	total time  =          4 seconds =       0.07 minutes

*** tstart() called on cics-quant-001
*** at Tue Dec 23 10:51:49 2025


         ------------------------------------------------------------
                                   SCF GRAD                          
                          Rob Parrish, Justin Turney,                
                       Andy Simmonett, and Alex Sokolov              
         ------------------------------------------------------------

  ==> Geometry <==

    Molecular point group: c2v
    Full point group: C_inf_v

    Geometry (in Angstrom), charge = 0, multiplicity = 6:

       Center              X                  Y                   Z               Mass       
    ------------   -----------------  -----------------  -----------------  -----------------
         B            0.000000000000     0.000000000000     1.457795048717    11.009305360000
         S            0.000000000000     0.000000000000    -0.501979079055    31.972071174400

  Nuclear repulsion =   21.601559207092301

  ==> Basis Set <==

  Basis Set: CC-PVDZ
    Blend: CC-PVDZ
    Number of shells: 14
    Number of basis functions: 32
    Number of Cartesian functions: 34
    Spherical Harmonics?: true
    Max angular momentum: 2

  ==> DFJKGrad: Density-Fitted SCF Gradients <==

    Gradient:                    1
    J tasked:                  Yes
    K tasked:                  Yes
    wK tasked:                  No
    OpenMP threads:              5
    Integrals threads:           5
    Memory [MiB]:             5722
    Schwarz Cutoff:          1E-12
    Fitting Condition:       1E-10

   => Auxiliary Basis Set <=

  Basis Set: (CC-PVDZ AUX)
    Blend: CC-PVDZ-JKFIT
    Number of shells: 60
    Number of basis functions: 182
    Number of Cartesian functions: 211
    Spherical Harmonics?: true
    Max angular momentum: 3

  ==> DFT Potential <==

   => LibXC <=

    Version 7.0.0
    S. Lehtola, C. Steigemann, M. J.T. Oliveira, and M. A.L. Marques.,  SoftwareX 7, 1–5 (2018) (10.1016/j.softx.2017.11.002)

   => Composite Functional: B3LYP <= 

    B3LYP Hyb-GGA Exchange-Correlation Functional

    P. J. Stephens, F. J. Devlin, C. F. Chabalowski, and M. J. Frisch.,  J. Phys. Chem. 98, 11623 (1994) (10.1021/j100096a001)

    Deriv               =              1
    GGA                 =           TRUE
    Meta                =          FALSE

    Exchange Hybrid     =           TRUE
    MP2 Hybrid          =          FALSE

   => Exchange Functionals <=

    0.0800   Slater exchange
    0.7200         Becke 88

   => Exact (HF) Exchange <=

    0.2000               HF 

   => Correlation Functionals <=

    0.1900   Vosko, Wilk & Nusair (VWN5_RPA)
    0.8100   Lee, Yang & Parr

   => LibXC Density Thresholds  <==

    XC_HYB_GGA_XC_B3LYP:  1.00E-15 

   => Molecular Quadrature <=

    Radial Scheme          =       TREUTLER
    Pruning Scheme         =           NONE
    Nuclear Scheme         =       TREUTLER

    Blocking Scheme        =         OCTREE
    BS radius alpha        =              1
    Pruning alpha          =              1
    Radial Points          =             75
    Spherical Points       =            302
    Total Points           =          42015
    Total Blocks           =            383
    Max Points             =            256
    Max Functions          =             32
    Weights Tolerance      =       1.00E-15


  -Total Gradient:
     Atom            X                  Y                   Z
    ------   -----------------  -----------------  -----------------
       1        0.000000000000     0.000000000000    -0.020032831096
       2        0.000000000000     0.000000000000     0.020032583004


*** tstop() called on cics-quant-001 at Tue Dec 23 10:51:49 2025
Module time:
	user time   =       0.24 seconds =       0.00 minutes
	system time =       0.13 seconds =       0.00 minutes
	total time  =          0 seconds =       0.00 minutes
Total time:
	user time   =       6.92 seconds =       0.12 minutes
	system time =       1.40 seconds =       0.02 minutes
	total time  =          4 seconds =       0.07 minutes

    			-----------------------------------------

    			 OPTKING 3.0: for geometry optimizations 

    			     By R.A. King, Bethel University     

    			        with contributions from          

    			    A.V. Copan, J. Cayton, A. Heide      

    			-----------------------------------------

    
	                            ===> Fragment 1 <== 

	 Z (Atomic Numbers)          Masses                          Geom                  
	       5.000000            11.009305          0.00000000  0.00000000  2.75483339   
	      16.000000            31.972071          0.00000000  0.00000000 -0.94860298   

	 - Coordinate -           - BOHR/RAD -       - ANG/DEG -
	 R(1,2)           =         3.703436           1.959774


	        --- Internal Coordinate Step in ANG or DEG, aJ/ANG or AJ/DEG ---
	-------------------------------------------------------------------------------
	           Coordinate      Previous         Force          Change          New 
	           ----------      --------        ------          ------        ------
	               R(1,2)       1.95977        0.16504        0.05334       2.01311
	-------------------------------------------------------------------------------

	                                 ==> Convergence Check <==                                  
    
	Measures of convergence in internal coordinates in au.
    
	Criteria marked as inactive (o), active & met (*), and active & unmet ( ).

	----------------------------------------------------------------------------------------------
	   Step    Total Energy     Delta E     Max Force     RMS Force      Max Disp      RMS Disp   
	----------------------------------------------------------------------------------------------
	  Convergence Criteria     1.00e-06 *    3.00e-04 *             o    1.20e-03 *             o
	----------------------------------------------------------------------------------------------
	     7    -422.70391271   -3.41e-03      2.00e-02      2.00e-02 o    1.01e-01      1.01e-01 o  ~
	----------------------------------------------------------------------------------------------

Next Geometry in Ang 
	Fragment 1 (Ang)

	    B   0.0000000000   0.0000000000   1.4844650679
	    S   0.0000000000   0.0000000000  -0.5286490982


    Structure for next step:
    Molecular point group: c2v
    Full point group: C_inf_v

    Geometry (in Angstrom), charge = 0, multiplicity = 6:

    B            0.000000000000     0.000000000000     1.497472500670
    S            0.000000000000     0.000000000000    -0.515641665445


Scratch directory: /tmp/
gradient() will perform analytic gradient computation.
   => Libint2 <=

    Primary   basis highest AM E, G, H:  6, 6, 3
    Auxiliary basis highest AM E, G, H:  7, 7, 4
    Onebody   basis highest AM E, G, H:  -, -, -
    Solid Harmonics ordering:            Gaussian

*** tstart() called on cics-quant-001
*** at Tue Dec 23 10:51:49 2025

   => Loading Basis Set <=

    Name: CC-PVDZ
    Role: ORBITAL
    Keyword: BASIS
    atoms 1 entry B          line   108 file /home/jrodriguesro/psi4conda/share/psi4/basis/cc-pvdz.gbs 
    atoms 2 entry S          line   598 file /home/jrodriguesro/psi4conda/share/psi4/basis/cc-pvdz.gbs 


         ---------------------------------------------------------
                                   SCF
               by Justin Turney, Rob Parrish, Andy Simmonett
                          and Daniel G. A. Smith
                              UKS Reference
                        5 Threads,   7629 MiB Core
         ---------------------------------------------------------

  ==> Geometry <==

    Molecular point group: c2v
    Full point group: C_inf_v

    Geometry (in Angstrom), charge = 0, multiplicity = 6:

       Center              X                  Y                   Z               Mass       
    ------------   -----------------  -----------------  -----------------  -----------------
         B            0.000000000000     0.000000000000     1.497472500670    11.009305360000
         S            0.000000000000     0.000000000000    -0.515641665445    31.972071174400

  Running in c2v symmetry.

  Rotational constants: A = ************  B =      0.50794  C =      0.50794 [cm^-1]
  Rotational constants: A = ************  B =  15227.54953  C =  15227.54953 [MHz]
  Nuclear repulsion =   21.029198227395362

  Charge       = 0
  Multiplicity = 6
  Electrons    = 21
  Nalpha       = 13
  Nbeta        = 8

  ==> Algorithm <==

  SCF Algorithm Type is DF.
  DIIS enabled.
  MOM disabled.
  Fractional occupation disabled.
  Guess Type is READ.
  Energy threshold   = 1.00e-08
  Density threshold  = 1.00e-08
  Integral threshold = 1.00e-12

  ==> Primary Basis <==

  Basis Set: CC-PVDZ
    Blend: CC-PVDZ
    Number of shells: 14
    Number of basis functions: 32
    Number of Cartesian functions: 34
    Spherical Harmonics?: true
    Max angular momentum: 2

  ==> DFT Potential <==

   => LibXC <=

    Version 7.0.0
    S. Lehtola, C. Steigemann, M. J.T. Oliveira, and M. A.L. Marques.,  SoftwareX 7, 1–5 (2018) (10.1016/j.softx.2017.11.002)

   => Composite Functional: B3LYP <= 

    B3LYP Hyb-GGA Exchange-Correlation Functional

    P. J. Stephens, F. J. Devlin, C. F. Chabalowski, and M. J. Frisch.,  J. Phys. Chem. 98, 11623 (1994) (10.1021/j100096a001)

    Deriv               =              1
    GGA                 =           TRUE
    Meta                =          FALSE

    Exchange Hybrid     =           TRUE
    MP2 Hybrid          =          FALSE

   => Exchange Functionals <=

    0.0800   Slater exchange
    0.7200         Becke 88

   => Exact (HF) Exchange <=

    0.2000               HF 

   => Correlation Functionals <=

    0.1900   Vosko, Wilk & Nusair (VWN5_RPA)
    0.8100   Lee, Yang & Parr

   => LibXC Density Thresholds  <==

    XC_HYB_GGA_XC_B3LYP:  1.00E-15 

   => Molecular Quadrature <=

    Radial Scheme          =       TREUTLER
    Pruning Scheme         =           NONE
    Nuclear Scheme         =       TREUTLER

    Blocking Scheme        =         OCTREE
    BS radius alpha        =              1
    Pruning alpha          =              1
    Radial Points          =             75
    Spherical Points       =            302
    Total Points           =          42016
    Total Blocks           =            382
    Max Points             =            256
    Max Functions          =             32
    Weights Tolerance      =       1.00E-15

   => Loading Basis Set <=

    Name: (CC-PVDZ AUX)
    Role: JKFIT
    Keyword: DF_BASIS_SCF
    atoms 1 entry B          line    71 file /home/jrodriguesro/psi4conda/share/psi4/basis/cc-pvdz-jkfit.gbs 
    atoms 2 entry S          line   593 file /home/jrodriguesro/psi4conda/share/psi4/basis/cc-pvdz-jkfit.gbs 

   => Loading Basis Set <=

    Name: CC-PVDZ
    Role: ORBITAL
    Keyword: BASIS
    atoms 1 entry B          line   108 file /home/jrodriguesro/psi4conda/share/psi4/basis/cc-pvdz.gbs 
    atoms 2 entry S          line   598 file /home/jrodriguesro/psi4conda/share/psi4/basis/cc-pvdz.gbs 

  Reading orbitals from file /tmp/sextet_BS.default.356927.180.npy, no projection.

  ==> Integral Setup <==

  DFHelper Memory: AOs need 0.002 GiB; user supplied 5.550 GiB. 
  SCF_SUBTYPE=INCORE selected. In-core MEM_DF algorithm will be used.
  Using in-core AOs.

  ==> MemDFJK: Density-Fitted J/K Matrices <==

    J tasked:                   Yes
    K tasked:                   Yes
    wK tasked:                   No
    OpenMP threads:               5
    Memory [MiB]:              5682
    Algorithm:                 Core
    Schwarz Cutoff:           1E-12
    Mask sparsity (%):       0.0000
    Fitting Condition:        1E-10

   => Auxiliary Basis Set <=

  Basis Set: (CC-PVDZ AUX)
    Blend: CC-PVDZ-JKFIT
    Number of shells: 60
    Number of basis functions: 182
    Number of Cartesian functions: 211
    Spherical Harmonics?: true
    Max angular momentum: 3

  Cached 100.0% of DFT collocation blocks in 0.038 [GiB].

  Minimum eigenvalue in the overlap matrix is 2.1838185660E-02.
  Reciprocal condition number of the overlap matrix is 7.6927592256E-03.
    Using symmetric orthogonalization.

  ==> Pre-Iterations <==

  SCF Guess: Orbitals guess was supplied from a previous computation.

   -------------------------------------------------------
    Irrep   Nso     Nmo     Nalpha   Nbeta   Ndocc  Nsocc
   -------------------------------------------------------
     A1        16      16       7       6       6       1
     A2         2       2       0       0       0       0
     B1         7       7       3       1       1       2
     B2         7       7       3       1       1       2
   -------------------------------------------------------
    Total      32      32      13       8       8       5
   -------------------------------------------------------

  ==> Iterations <==

                           Total Energy        Delta E     RMS |[F,P]|

   @DF-UKS iter   0:  -422.69386089857625   -4.22694e+02   3.53446e-03 
   @DF-UKS iter   1:  -422.70526470096377   -1.14038e-02   4.81491e-04 ADIIS/DIIS
   @DF-UKS iter   2:  -422.70530743361292   -4.27326e-05   3.33328e-04 ADIIS/DIIS/DAMP=1%
   @DF-UKS iter   3:  -422.70508592986431    2.21504e-04   5.08793e-05 DIIS/DAMP=1%
   @DF-UKS iter   4:  -422.70535086815028   -2.64938e-04   1.11534e-05 DIIS/DAMP=1%
   @DF-UKS iter   5:  -422.70534291912372    7.94903e-06   3.13561e-06 DIIS/DAMP=1%
   @DF-UKS iter   6:  -422.70533819853301    4.72059e-06   5.05144e-07 DIIS/DAMP=1%
   @DF-UKS iter   7:  -422.70534035713831   -2.15861e-06   1.15199e-07 DIIS/DAMP=1%
   @DF-UKS iter   8:  -422.70533991324089    4.43897e-07   1.42806e-08 DIIS/DAMP=1%
   @DF-UKS iter   9:  -422.70533998779467   -7.45538e-08   5.96323e-10 DIIS/DAMP=1%
   @DF-UKS iter  10:  -422.70533998732657    4.68106e-10   8.14601e-11 DIIS/DAMP=1%
  Energy and wave function converged.


  ==> Post-Iterations <==

   Electrons on quadrature grid:
      Nalpha   =   12.9999998658 ; deviation = -1.342e-07
      Nbeta    =    7.9999999412 ; deviation = -5.876e-08
      Ntotal   =   20.9999998070 ; deviation = -1.930e-07 

   @Spin Contamination Metric:   3.163230837E-03
   @S^2 Expected:                8.750000000E+00
   @S^2 Observed:                8.753163231E+00
   @S   Expected:                2.500000000E+00
   @S   Observed:                2.500000000E+00

    Orbital Energies [Eh]
    ---------------------

    Alpha Occupied:                                                       

       1A1   -89.032328     2A1    -8.088407     3A1    -6.772197  
       1B2    -6.056236     1B1    -6.056236     4A1    -6.041965  
       5A1    -0.825581     6A1    -0.470197     2B1    -0.413437  
       2B2    -0.413437     7A1    -0.286471     3B2    -0.146251  
       3B1    -0.146251  

    Alpha Virtual:                                                        

       8A1     0.035096     9A1     0.245520     4B1     0.307115  
       4B2     0.307115    10A1     0.357428    11A1     0.383239  
       5B1     0.398566     5B2     0.398566     1A2     0.435881  
      12A1     0.435882     6B1     0.454864     6B2     0.454864  
      13A1     0.589427    14A1     0.712405     2A2     0.712405  
      15A1     0.819524     7B1     0.899738     7B2     0.899738  
      16A1     1.157710  

    Beta Occupied:                                                        

       1A1   -89.019496     2A1    -8.075225     3A1    -6.740694  
       1B2    -6.032259     1B1    -6.032259     4A1    -6.031852  
       5A1    -0.724042     6A1    -0.403606  

    Beta Virtual:                                                         

       2B1    -0.245474     2B2    -0.245474     7A1    -0.092424  
       3B2     0.029541     3B1     0.029541     8A1     0.099744  
       9A1     0.275578     4B1     0.385441     4B2     0.385441  
      10A1     0.412436    11A1     0.445990     5B1     0.466021  
       5B2     0.466021     6B1     0.524364     6B2     0.524364  
       1A2     0.549969    12A1     0.549969    13A1     0.641640  
      14A1     0.836866     2A2     0.836866    15A1     0.881227  
       7B1     0.992916     7B2     0.992916    16A1     1.228558  

    Final Occupation by Irrep:
             A1    A2    B1    B2 
    DOCC [     6,    0,    1,    1 ]
    SOCC [     1,    0,    2,    2 ]
    NA   [     7,    0,    3,    3 ]
    NB   [     6,    0,    1,    1 ]

  @DF-UKS Final Energy:  -422.70533998732657

   => Energetics <=

    Nuclear Repulsion Energy =             21.0291982273953622
    One-Electron Energy =                -622.6564194884998642
    Two-Electron Energy =                 202.7885901049781125
    DFT Exchange-Correlation Energy =     -23.8667088312001603
    Empirical Dispersion Energy =           0.0000000000000000
    VV10 Nonlocal Energy =                  0.0000000000000000
    Total Energy =                       -422.7053399873266244

  UHF NO Occupations:
  HONO-2 :    2 B2 1.0000000
  HONO-1 :    3 B1 1.0000000
  HONO-0 :    3 B2 1.0000000
  LUNO+0 :    8 A1 0.0012268
  LUNO+1 :    9 A1 0.0003554
  LUNO+2 :   10 A1 0.0000002
  LUNO+3 :   11 A1 0.0000000


Computation Completed


Properties will be evaluated at   0.000000,   0.000000,   0.000000 [a0]

Properties computed using the SCF density matrix


 Multipole Moments:

 ------------------------------------------------------------------------------------
     Multipole            Electronic (a.u.)      Nuclear  (a.u.)        Total (a.u.)
 ------------------------------------------------------------------------------------

 L = 1.  Multiply by 2.5417464519 to convert [e a0] to [Debye]
 Dipole X            :          0.0000000            0.0000000            0.0000000
 Dipole Y            :          0.0000000            0.0000000            0.0000000
 Dipole Z            :         -0.1402102           -1.4416799           -1.5818901
 Magnitude           :                                                    1.5818901

 ------------------------------------------------------------------------------------

*** tstop() called on cics-quant-001 at Tue Dec 23 10:51:49 2025
Module time:
	user time   =       0.66 seconds =       0.01 minutes
	system time =       0.08 seconds =       0.00 minutes
	total time  =          0 seconds =       0.00 minutes
Total time:
	user time   =       7.60 seconds =       0.13 minutes
	system time =       1.48 seconds =       0.02 minutes
	total time  =          4 seconds =       0.07 minutes

*** tstart() called on cics-quant-001
*** at Tue Dec 23 10:51:49 2025


         ------------------------------------------------------------
                                   SCF GRAD                          
                          Rob Parrish, Justin Turney,                
                       Andy Simmonett, and Alex Sokolov              
         ------------------------------------------------------------

  ==> Geometry <==

    Molecular point group: c2v
    Full point group: C_inf_v

    Geometry (in Angstrom), charge = 0, multiplicity = 6:

       Center              X                  Y                   Z               Mass       
    ------------   -----------------  -----------------  -----------------  -----------------
         B            0.000000000000     0.000000000000     1.497472500670    11.009305360000
         S            0.000000000000     0.000000000000    -0.515641665445    31.972071174400

  Nuclear repulsion =   21.029198227395362

  ==> Basis Set <==

  Basis Set: CC-PVDZ
    Blend: CC-PVDZ
    Number of shells: 14
    Number of basis functions: 32
    Number of Cartesian functions: 34
    Spherical Harmonics?: true
    Max angular momentum: 2

  ==> DFJKGrad: Density-Fitted SCF Gradients <==

    Gradient:                    1
    J tasked:                  Yes
    K tasked:                  Yes
    wK tasked:                  No
    OpenMP threads:              5
    Integrals threads:           5
    Memory [MiB]:             5722
    Schwarz Cutoff:          1E-12
    Fitting Condition:       1E-10

   => Auxiliary Basis Set <=

  Basis Set: (CC-PVDZ AUX)
    Blend: CC-PVDZ-JKFIT
    Number of shells: 60
    Number of basis functions: 182
    Number of Cartesian functions: 211
    Spherical Harmonics?: true
    Max angular momentum: 3

  ==> DFT Potential <==

   => LibXC <=

    Version 7.0.0
    S. Lehtola, C. Steigemann, M. J.T. Oliveira, and M. A.L. Marques.,  SoftwareX 7, 1–5 (2018) (10.1016/j.softx.2017.11.002)

   => Composite Functional: B3LYP <= 

    B3LYP Hyb-GGA Exchange-Correlation Functional

    P. J. Stephens, F. J. Devlin, C. F. Chabalowski, and M. J. Frisch.,  J. Phys. Chem. 98, 11623 (1994) (10.1021/j100096a001)

    Deriv               =              1
    GGA                 =           TRUE
    Meta                =          FALSE

    Exchange Hybrid     =           TRUE
    MP2 Hybrid          =          FALSE

   => Exchange Functionals <=

    0.0800   Slater exchange
    0.7200         Becke 88

   => Exact (HF) Exchange <=

    0.2000               HF 

   => Correlation Functionals <=

    0.1900   Vosko, Wilk & Nusair (VWN5_RPA)
    0.8100   Lee, Yang & Parr

   => LibXC Density Thresholds  <==

    XC_HYB_GGA_XC_B3LYP:  1.00E-15 

   => Molecular Quadrature <=

    Radial Scheme          =       TREUTLER
    Pruning Scheme         =           NONE
    Nuclear Scheme         =       TREUTLER

    Blocking Scheme        =         OCTREE
    BS radius alpha        =              1
    Pruning alpha          =              1
    Radial Points          =             75
    Spherical Points       =            302
    Total Points           =          42016
    Total Blocks           =            382
    Max Points             =            256
    Max Functions          =             32
    Weights Tolerance      =       1.00E-15


  -Total Gradient:
     Atom            X                  Y                   Z
    ------   -----------------  -----------------  -----------------
       1        0.000000000000     0.000000000000    -0.008784163045
       2        0.000000000000    -0.000000000000     0.008783785334


*** tstop() called on cics-quant-001 at Tue Dec 23 10:51:50 2025
Module time:
	user time   =       0.19 seconds =       0.00 minutes
	system time =       0.14 seconds =       0.00 minutes
	total time  =          1 seconds =       0.02 minutes
Total time:
	user time   =       7.79 seconds =       0.13 minutes
	system time =       1.62 seconds =       0.03 minutes
	total time  =          5 seconds =       0.08 minutes

    			-----------------------------------------

    			 OPTKING 3.0: for geometry optimizations 

    			     By R.A. King, Bethel University     

    			        with contributions from          

    			    A.V. Copan, J. Cayton, A. Heide      

    			-----------------------------------------

    
	                            ===> Fragment 1 <== 

	 Z (Atomic Numbers)          Masses                          Geom                  
	       5.000000            11.009305          0.00000000  0.00000000  2.82981291   
	      16.000000            31.972071          0.00000000  0.00000000 -0.97442153   

	 - Coordinate -           - BOHR/RAD -       - ANG/DEG -
	 R(1,2)           =         3.804234           2.013114


	        --- Internal Coordinate Step in ANG or DEG, aJ/ANG or AJ/DEG ---
	-------------------------------------------------------------------------------
	           Coordinate      Previous         Force          Change          New 
	           ----------      --------        ------          ------        ------
	               R(1,2)       2.01311        0.07237        0.02622       2.03933
	-------------------------------------------------------------------------------

	                                 ==> Convergence Check <==                                  
    
	Measures of convergence in internal coordinates in au.
    
	Criteria marked as inactive (o), active & met (*), and active & unmet ( ).

	----------------------------------------------------------------------------------------------
	   Step    Total Energy     Delta E     Max Force     RMS Force      Max Disp      RMS Disp   
	----------------------------------------------------------------------------------------------
	  Convergence Criteria     1.00e-06 *    3.00e-04 *             o    1.20e-03 *             o
	----------------------------------------------------------------------------------------------
	     8    -422.70533999   -1.43e-03      8.78e-03      8.78e-03 o    4.95e-02      4.95e-02 o  ~
	----------------------------------------------------------------------------------------------

Next Geometry in Ang 
	Fragment 1 (Ang)

	    B   0.0000000000   0.0000000000   1.5105822562
	    S   0.0000000000   0.0000000000  -0.5287514209


    Structure for next step:
    Molecular point group: c2v
    Full point group: C_inf_v

    Geometry (in Angstrom), charge = 0, multiplicity = 6:

    B            0.000000000000     0.000000000000     1.516976112205
    S            0.000000000000     0.000000000000    -0.522357564888


Scratch directory: /tmp/
gradient() will perform analytic gradient computation.
   => Libint2 <=

    Primary   basis highest AM E, G, H:  6, 6, 3
    Auxiliary basis highest AM E, G, H:  7, 7, 4
    Onebody   basis highest AM E, G, H:  -, -, -
    Solid Harmonics ordering:            Gaussian

*** tstart() called on cics-quant-001
*** at Tue Dec 23 10:51:50 2025

   => Loading Basis Set <=

    Name: CC-PVDZ
    Role: ORBITAL
    Keyword: BASIS
    atoms 1 entry B          line   108 file /home/jrodriguesro/psi4conda/share/psi4/basis/cc-pvdz.gbs 
    atoms 2 entry S          line   598 file /home/jrodriguesro/psi4conda/share/psi4/basis/cc-pvdz.gbs 


         ---------------------------------------------------------
                                   SCF
               by Justin Turney, Rob Parrish, Andy Simmonett
                          and Daniel G. A. Smith
                              UKS Reference
                        5 Threads,   7629 MiB Core
         ---------------------------------------------------------

  ==> Geometry <==

    Molecular point group: c2v
    Full point group: C_inf_v

    Geometry (in Angstrom), charge = 0, multiplicity = 6:

       Center              X                  Y                   Z               Mass       
    ------------   -----------------  -----------------  -----------------  -----------------
         B            0.000000000000     0.000000000000     1.516976112205    11.009305360000
         S            0.000000000000     0.000000000000    -0.522357564888    31.972071174400

  Running in c2v symmetry.

  Rotational constants: A = ************  B =      0.49496  C =      0.49496 [cm^-1]
  Rotational constants: A = ************  B =  14838.50845  C =  14838.50845 [MHz]
  Nuclear repulsion =   20.758827909874771

  Charge       = 0
  Multiplicity = 6
  Electrons    = 21
  Nalpha       = 13
  Nbeta        = 8

  ==> Algorithm <==

  SCF Algorithm Type is DF.
  DIIS enabled.
  MOM disabled.
  Fractional occupation disabled.
  Guess Type is READ.
  Energy threshold   = 1.00e-08
  Density threshold  = 1.00e-08
  Integral threshold = 1.00e-12

  ==> Primary Basis <==

  Basis Set: CC-PVDZ
    Blend: CC-PVDZ
    Number of shells: 14
    Number of basis functions: 32
    Number of Cartesian functions: 34
    Spherical Harmonics?: true
    Max angular momentum: 2

  ==> DFT Potential <==

   => LibXC <=

    Version 7.0.0
    S. Lehtola, C. Steigemann, M. J.T. Oliveira, and M. A.L. Marques.,  SoftwareX 7, 1–5 (2018) (10.1016/j.softx.2017.11.002)

   => Composite Functional: B3LYP <= 

    B3LYP Hyb-GGA Exchange-Correlation Functional

    P. J. Stephens, F. J. Devlin, C. F. Chabalowski, and M. J. Frisch.,  J. Phys. Chem. 98, 11623 (1994) (10.1021/j100096a001)

    Deriv               =              1
    GGA                 =           TRUE
    Meta                =          FALSE

    Exchange Hybrid     =           TRUE
    MP2 Hybrid          =          FALSE

   => Exchange Functionals <=

    0.0800   Slater exchange
    0.7200         Becke 88

   => Exact (HF) Exchange <=

    0.2000               HF 

   => Correlation Functionals <=

    0.1900   Vosko, Wilk & Nusair (VWN5_RPA)
    0.8100   Lee, Yang & Parr

   => LibXC Density Thresholds  <==

    XC_HYB_GGA_XC_B3LYP:  1.00E-15 

   => Molecular Quadrature <=

    Radial Scheme          =       TREUTLER
    Pruning Scheme         =           NONE
    Nuclear Scheme         =       TREUTLER

    Blocking Scheme        =         OCTREE
    BS radius alpha        =              1
    Pruning alpha          =              1
    Radial Points          =             75
    Spherical Points       =            302
    Total Points           =          42016
    Total Blocks           =            381
    Max Points             =            256
    Max Functions          =             32
    Weights Tolerance      =       1.00E-15

   => Loading Basis Set <=

    Name: (CC-PVDZ AUX)
    Role: JKFIT
    Keyword: DF_BASIS_SCF
    atoms 1 entry B          line    71 file /home/jrodriguesro/psi4conda/share/psi4/basis/cc-pvdz-jkfit.gbs 
    atoms 2 entry S          line   593 file /home/jrodriguesro/psi4conda/share/psi4/basis/cc-pvdz-jkfit.gbs 

   => Loading Basis Set <=

    Name: CC-PVDZ
    Role: ORBITAL
    Keyword: BASIS
    atoms 1 entry B          line   108 file /home/jrodriguesro/psi4conda/share/psi4/basis/cc-pvdz.gbs 
    atoms 2 entry S          line   598 file /home/jrodriguesro/psi4conda/share/psi4/basis/cc-pvdz.gbs 

  Reading orbitals from file /tmp/sextet_BS.default.356927.180.npy, no projection.

  ==> Integral Setup <==

  DFHelper Memory: AOs need 0.002 GiB; user supplied 5.550 GiB. 
  SCF_SUBTYPE=INCORE selected. In-core MEM_DF algorithm will be used.
  Using in-core AOs.

  ==> MemDFJK: Density-Fitted J/K Matrices <==

    J tasked:                   Yes
    K tasked:                   Yes
    wK tasked:                   No
    OpenMP threads:               5
    Memory [MiB]:              5682
    Algorithm:                 Core
    Schwarz Cutoff:           1E-12
    Mask sparsity (%):       0.0000
    Fitting Condition:        1E-10

   => Auxiliary Basis Set <=

  Basis Set: (CC-PVDZ AUX)
    Blend: CC-PVDZ-JKFIT
    Number of shells: 60
    Number of basis functions: 182
    Number of Cartesian functions: 211
    Spherical Harmonics?: true
    Max angular momentum: 3

  Cached 100.0% of DFT collocation blocks in 0.038 [GiB].

  Minimum eigenvalue in the overlap matrix is 2.2667132925E-02.
  Reciprocal condition number of the overlap matrix is 8.0345619770E-03.
    Using symmetric orthogonalization.

  ==> Pre-Iterations <==

  SCF Guess: Orbitals guess was supplied from a previous computation.

   -------------------------------------------------------
    Irrep   Nso     Nmo     Nalpha   Nbeta   Ndocc  Nsocc
   -------------------------------------------------------
     A1        16      16       7       6       6       1
     A2         2       2       0       0       0       0
     B1         7       7       3       1       1       2
     B2         7       7       3       1       1       2
   -------------------------------------------------------
    Total      32      32      13       8       8       5
   -------------------------------------------------------

  ==> Iterations <==

                           Total Energy        Delta E     RMS |[F,P]|

   @DF-UKS iter   0:  -422.70013834419836   -4.22700e+02   1.63416e-03 
   @DF-UKS iter   1:  -422.70564314183270   -5.50480e-03   2.29154e-04 ADIIS/DIIS
   @DF-UKS iter   2:  -422.70565263933895   -9.49751e-06   1.61225e-04 ADIIS/DIIS/DAMP=1%
   @DF-UKS iter   3:  -422.70553590382031    1.16736e-04   2.43895e-05 DIIS/DAMP=1%
   @DF-UKS iter   4:  -422.70566541837866   -1.29515e-04   5.42006e-06 DIIS/DAMP=1%
   @DF-UKS iter   5:  -422.70566157626752    3.84211e-06   1.46337e-06 DIIS/DAMP=1%
   @DF-UKS iter   6:  -422.70565951783567    2.05843e-06   2.44164e-07 DIIS/DAMP=1%
   @DF-UKS iter   7:  -422.70566049317364   -9.75338e-07   5.75223e-08 DIIS/DAMP=1%
   @DF-UKS iter   8:  -422.70566028151183    2.11662e-07   7.34466e-09 DIIS/DAMP=1%
   @DF-UKS iter   9:  -422.70566031819800   -3.66862e-08   2.96421e-10 DIIS/DAMP=1%
   @DF-UKS iter  10:  -422.70566031802321    1.74794e-10   4.02551e-11 DIIS/DAMP=1%
  Energy and wave function converged.


  ==> Post-Iterations <==

   Electrons on quadrature grid:
      Nalpha   =   12.9999999303 ; deviation = -6.966e-08
      Nbeta    =    7.9999999739 ; deviation = -2.609e-08
      Ntotal   =   20.9999999043 ; deviation = -9.575e-08 

   @Spin Contamination Metric:   3.192926527E-03
   @S^2 Expected:                8.750000000E+00
   @S^2 Observed:                8.753192927E+00
   @S   Expected:                2.500000000E+00
   @S   Observed:                2.500000000E+00

    Orbital Energies [Eh]
    ---------------------

    Alpha Occupied:                                                       

       1A1   -89.031743     2A1    -8.087776     3A1    -6.774243  
       1B2    -6.055612     1B1    -6.055612     4A1    -6.041353  
       5A1    -0.823549     6A1    -0.467285     2B2    -0.412238  
       2B1    -0.412238     7A1    -0.288436     3B1    -0.146798  
       3B2    -0.146798  

    Alpha Virtual:                                                        

       8A1     0.030117     9A1     0.250404     4B2     0.307352  
       4B1     0.307352    10A1     0.357400    11A1     0.382305  
       5B2     0.400038     5B1     0.400038     1A2     0.437277  
      12A1     0.437278     6B1     0.453453     6B2     0.453453  
      13A1     0.582805    14A1     0.711730     2A2     0.711731  
      15A1     0.807638     7B2     0.891831     7B1     0.891831  
      16A1     1.155047  

    Beta Occupied:                                                        

       1A1   -89.018896     2A1    -8.074585     3A1    -6.742647  
       1B2    -6.031653     1B1    -6.031653     4A1    -6.031138  
       5A1    -0.721831     6A1    -0.400533  

    Beta Virtual:                                                         

       2B2    -0.244486     2B1    -0.244486     7A1    -0.095495  
       3B2     0.029253     3B1     0.029253     8A1     0.095140  
       9A1     0.280229     4B2     0.387159     4B1     0.387159  
      10A1     0.412014    11A1     0.444245     5B1     0.466136  
       5B2     0.466136     6B2     0.522482     6B1     0.522482  
       1A2     0.551322    12A1     0.551322    13A1     0.635079  
      14A1     0.836542     2A2     0.836543    15A1     0.868617  
       7B2     0.984644     7B1     0.984644    16A1     1.225878  

    Final Occupation by Irrep:
             A1    A2    B1    B2 
    DOCC [     6,    0,    1,    1 ]
    SOCC [     1,    0,    2,    2 ]
    NA   [     7,    0,    3,    3 ]
    NB   [     6,    0,    1,    1 ]

  @DF-UKS Final Energy:  -422.70566031802321

   => Energetics <=

    Nuclear Repulsion Energy =             20.7588279098747712
    One-Electron Energy =                -622.1308533008120776
    Two-Electron Energy =                 202.5289075411256761
    DFT Exchange-Correlation Energy =     -23.8625424682115153
    Empirical Dispersion Energy =           0.0000000000000000
    VV10 Nonlocal Energy =                  0.0000000000000000
    Total Energy =                       -422.7056603180231491

  UHF NO Occupations:
  HONO-2 :    3 B2 1.0000000
  HONO-1 :    7 A1 1.0000000
  HONO-0 :    3 B1 1.0000000
  LUNO+0 :    8 A1 0.0012342
  LUNO+1 :    9 A1 0.0003628
  LUNO+2 :   10 A1 0.0000002
  LUNO+3 :   11 A1 0.0000000


Computation Completed


Properties will be evaluated at   0.000000,   0.000000,   0.000000 [a0]

Properties computed using the SCF density matrix


 Multipole Moments:

 ------------------------------------------------------------------------------------
     Multipole            Electronic (a.u.)      Nuclear  (a.u.)        Total (a.u.)
 ------------------------------------------------------------------------------------

 L = 1.  Multiply by 2.5417464519 to convert [e a0] to [Debye]
 Dipole X            :          0.0000000            0.0000000            0.0000000
 Dipole Y            :          0.0000000            0.0000000            0.0000000
 Dipole Z            :         -0.1144029           -1.4604568           -1.5748597
 Magnitude           :                                                    1.5748597

 ------------------------------------------------------------------------------------

*** tstop() called on cics-quant-001 at Tue Dec 23 10:51:50 2025
Module time:
	user time   =       0.76 seconds =       0.01 minutes
	system time =       0.09 seconds =       0.00 minutes
	total time  =          0 seconds =       0.00 minutes
Total time:
	user time   =       8.57 seconds =       0.14 minutes
	system time =       1.72 seconds =       0.03 minutes
	total time  =          5 seconds =       0.08 minutes

*** tstart() called on cics-quant-001
*** at Tue Dec 23 10:51:50 2025


         ------------------------------------------------------------
                                   SCF GRAD                          
                          Rob Parrish, Justin Turney,                
                       Andy Simmonett, and Alex Sokolov              
         ------------------------------------------------------------

  ==> Geometry <==

    Molecular point group: c2v
    Full point group: C_inf_v

    Geometry (in Angstrom), charge = 0, multiplicity = 6:

       Center              X                  Y                   Z               Mass       
    ------------   -----------------  -----------------  -----------------  -----------------
         B            0.000000000000     0.000000000000     1.516976112205    11.009305360000
         S            0.000000000000     0.000000000000    -0.522357564888    31.972071174400

  Nuclear repulsion =   20.758827909874771

  ==> Basis Set <==

  Basis Set: CC-PVDZ
    Blend: CC-PVDZ
    Number of shells: 14
    Number of basis functions: 32
    Number of Cartesian functions: 34
    Spherical Harmonics?: true
    Max angular momentum: 2

  ==> DFJKGrad: Density-Fitted SCF Gradients <==

    Gradient:                    1
    J tasked:                  Yes
    K tasked:                  Yes
    wK tasked:                  No
    OpenMP threads:              5
    Integrals threads:           5
    Memory [MiB]:             5722
    Schwarz Cutoff:          1E-12
    Fitting Condition:       1E-10

   => Auxiliary Basis Set <=

  Basis Set: (CC-PVDZ AUX)
    Blend: CC-PVDZ-JKFIT
    Number of shells: 60
    Number of basis functions: 182
    Number of Cartesian functions: 211
    Spherical Harmonics?: true
    Max angular momentum: 3

  ==> DFT Potential <==

   => LibXC <=

    Version 7.0.0
    S. Lehtola, C. Steigemann, M. J.T. Oliveira, and M. A.L. Marques.,  SoftwareX 7, 1–5 (2018) (10.1016/j.softx.2017.11.002)

   => Composite Functional: B3LYP <= 

    B3LYP Hyb-GGA Exchange-Correlation Functional

    P. J. Stephens, F. J. Devlin, C. F. Chabalowski, and M. J. Frisch.,  J. Phys. Chem. 98, 11623 (1994) (10.1021/j100096a001)

    Deriv               =              1
    GGA                 =           TRUE
    Meta                =          FALSE

    Exchange Hybrid     =           TRUE
    MP2 Hybrid          =          FALSE

   => Exchange Functionals <=

    0.0800   Slater exchange
    0.7200         Becke 88

   => Exact (HF) Exchange <=

    0.2000               HF 

   => Correlation Functionals <=

    0.1900   Vosko, Wilk & Nusair (VWN5_RPA)
    0.8100   Lee, Yang & Parr

   => LibXC Density Thresholds  <==

    XC_HYB_GGA_XC_B3LYP:  1.00E-15 

   => Molecular Quadrature <=

    Radial Scheme          =       TREUTLER
    Pruning Scheme         =           NONE
    Nuclear Scheme         =       TREUTLER

    Blocking Scheme        =         OCTREE
    BS radius alpha        =              1
    Pruning alpha          =              1
    Radial Points          =             75
    Spherical Points       =            302
    Total Points           =          42016
    Total Blocks           =            381
    Max Points             =            256
    Max Functions          =             32
    Weights Tolerance      =       1.00E-15


  -Total Gradient:
     Atom            X                  Y                   Z
    ------   -----------------  -----------------  -----------------
       1        0.000000000000     0.000000000000    -0.004251643509
       2       -0.000000000000     0.000000000000     0.004251860484


*** tstop() called on cics-quant-001 at Tue Dec 23 10:51:50 2025
Module time:
	user time   =       0.19 seconds =       0.00 minutes
	system time =       0.12 seconds =       0.00 minutes
	total time  =          0 seconds =       0.00 minutes
Total time:
	user time   =       8.76 seconds =       0.15 minutes
	system time =       1.84 seconds =       0.03 minutes
	total time  =          5 seconds =       0.08 minutes

    			-----------------------------------------

    			 OPTKING 3.0: for geometry optimizations 

    			     By R.A. King, Bethel University     

    			        with contributions from          

    			    A.V. Copan, J. Cayton, A. Heide      

    			-----------------------------------------

    
	                            ===> Fragment 1 <== 

	 Z (Atomic Numbers)          Masses                          Geom                  
	       5.000000            11.009305          0.00000000  0.00000000  2.86666939   
	      16.000000            31.972071          0.00000000  0.00000000 -0.98711274   

	 - Coordinate -           - BOHR/RAD -       - ANG/DEG -
	 R(1,2)           =         3.853782           2.039334


	        --- Internal Coordinate Step in ANG or DEG, aJ/ANG or AJ/DEG ---
	-------------------------------------------------------------------------------
	           Coordinate      Previous         Force          Change          New 
	           ----------      --------        ------          ------        ------
	               R(1,2)       2.03933        0.03503        0.01338       2.05271
	-------------------------------------------------------------------------------

	                                 ==> Convergence Check <==                                  
    
	Measures of convergence in internal coordinates in au.
    
	Criteria marked as inactive (o), active & met (*), and active & unmet ( ).

	----------------------------------------------------------------------------------------------
	   Step    Total Energy     Delta E     Max Force     RMS Force      Max Disp      RMS Disp   
	----------------------------------------------------------------------------------------------
	  Convergence Criteria     1.00e-06 *    3.00e-04 *             o    1.20e-03 *             o
	----------------------------------------------------------------------------------------------
	     9    -422.70566032   -3.20e-04      4.25e-03      4.25e-03 o    2.53e-02      2.53e-02 o  ~
	----------------------------------------------------------------------------------------------

Next Geometry in Ang 
	Fragment 1 (Ang)

	    B   0.0000000000   0.0000000000   1.5236657114
	    S   0.0000000000   0.0000000000  -0.5290471641


    Structure for next step:
    Molecular point group: c2v
    Full point group: C_inf_v

    Geometry (in Angstrom), charge = 0, multiplicity = 6:

    B            0.000000000000     0.000000000000     1.526928345468
    S            0.000000000000     0.000000000000    -0.525784530079


Scratch directory: /tmp/
gradient() will perform analytic gradient computation.
   => Libint2 <=

    Primary   basis highest AM E, G, H:  6, 6, 3
    Auxiliary basis highest AM E, G, H:  7, 7, 4
    Onebody   basis highest AM E, G, H:  -, -, -
    Solid Harmonics ordering:            Gaussian

*** tstart() called on cics-quant-001
*** at Tue Dec 23 10:51:50 2025

   => Loading Basis Set <=

    Name: CC-PVDZ
    Role: ORBITAL
    Keyword: BASIS
    atoms 1 entry B          line   108 file /home/jrodriguesro/psi4conda/share/psi4/basis/cc-pvdz.gbs 
    atoms 2 entry S          line   598 file /home/jrodriguesro/psi4conda/share/psi4/basis/cc-pvdz.gbs 


         ---------------------------------------------------------
                                   SCF
               by Justin Turney, Rob Parrish, Andy Simmonett
                          and Daniel G. A. Smith
                              UKS Reference
                        5 Threads,   7629 MiB Core
         ---------------------------------------------------------

  ==> Geometry <==

    Molecular point group: c2v
    Full point group: C_inf_v

    Geometry (in Angstrom), charge = 0, multiplicity = 6:

       Center              X                  Y                   Z               Mass       
    ------------   -----------------  -----------------  -----------------  -----------------
         B            0.000000000000     0.000000000000     1.526928345468    11.009305360000
         S            0.000000000000     0.000000000000    -0.525784530079    31.972071174400

  Running in c2v symmetry.

  Rotational constants: A = ************  B =      0.48853  C =      0.48853 [cm^-1]
  Rotational constants: A = ************  B =  14645.70958  C =  14645.70958 [MHz]
  Nuclear repulsion =   20.623525753597225

  Charge       = 0
  Multiplicity = 6
  Electrons    = 21
  Nalpha       = 13
  Nbeta        = 8

  ==> Algorithm <==

  SCF Algorithm Type is DF.
  DIIS enabled.
  MOM disabled.
  Fractional occupation disabled.
  Guess Type is READ.
  Energy threshold   = 1.00e-08
  Density threshold  = 1.00e-08
  Integral threshold = 1.00e-12

  ==> Primary Basis <==

  Basis Set: CC-PVDZ
    Blend: CC-PVDZ
    Number of shells: 14
    Number of basis functions: 32
    Number of Cartesian functions: 34
    Spherical Harmonics?: true
    Max angular momentum: 2

  ==> DFT Potential <==

   => LibXC <=

    Version 7.0.0
    S. Lehtola, C. Steigemann, M. J.T. Oliveira, and M. A.L. Marques.,  SoftwareX 7, 1–5 (2018) (10.1016/j.softx.2017.11.002)

   => Composite Functional: B3LYP <= 

    B3LYP Hyb-GGA Exchange-Correlation Functional

    P. J. Stephens, F. J. Devlin, C. F. Chabalowski, and M. J. Frisch.,  J. Phys. Chem. 98, 11623 (1994) (10.1021/j100096a001)

    Deriv               =              1
    GGA                 =           TRUE
    Meta                =          FALSE

    Exchange Hybrid     =           TRUE
    MP2 Hybrid          =          FALSE

   => Exchange Functionals <=

    0.0800   Slater exchange
    0.7200         Becke 88

   => Exact (HF) Exchange <=

    0.2000               HF 

   => Correlation Functionals <=

    0.1900   Vosko, Wilk & Nusair (VWN5_RPA)
    0.8100   Lee, Yang & Parr

   => LibXC Density Thresholds  <==

    XC_HYB_GGA_XC_B3LYP:  1.00E-15 

   => Molecular Quadrature <=

    Radial Scheme          =       TREUTLER
    Pruning Scheme         =           NONE
    Nuclear Scheme         =       TREUTLER

    Blocking Scheme        =         OCTREE
    BS radius alpha        =              1
    Pruning alpha          =              1
    Radial Points          =             75
    Spherical Points       =            302
    Total Points           =          42016
    Total Blocks           =            386
    Max Points             =            254
    Max Functions          =             32
    Weights Tolerance      =       1.00E-15

   => Loading Basis Set <=

    Name: (CC-PVDZ AUX)
    Role: JKFIT
    Keyword: DF_BASIS_SCF
    atoms 1 entry B          line    71 file /home/jrodriguesro/psi4conda/share/psi4/basis/cc-pvdz-jkfit.gbs 
    atoms 2 entry S          line   593 file /home/jrodriguesro/psi4conda/share/psi4/basis/cc-pvdz-jkfit.gbs 

   => Loading Basis Set <=

    Name: CC-PVDZ
    Role: ORBITAL
    Keyword: BASIS
    atoms 1 entry B          line   108 file /home/jrodriguesro/psi4conda/share/psi4/basis/cc-pvdz.gbs 
    atoms 2 entry S          line   598 file /home/jrodriguesro/psi4conda/share/psi4/basis/cc-pvdz.gbs 

  Reading orbitals from file /tmp/sextet_BS.default.356927.180.npy, no projection.

  ==> Integral Setup <==

  DFHelper Memory: AOs need 0.002 GiB; user supplied 5.550 GiB. 
  SCF_SUBTYPE=INCORE selected. In-core MEM_DF algorithm will be used.
  Using in-core AOs.

  ==> MemDFJK: Density-Fitted J/K Matrices <==

    J tasked:                   Yes
    K tasked:                   Yes
    wK tasked:                   No
    OpenMP threads:               5
    Memory [MiB]:              5682
    Algorithm:                 Core
    Schwarz Cutoff:           1E-12
    Mask sparsity (%):       0.0000
    Fitting Condition:        1E-10

   => Auxiliary Basis Set <=

  Basis Set: (CC-PVDZ AUX)
    Blend: CC-PVDZ-JKFIT
    Number of shells: 60
    Number of basis functions: 182
    Number of Cartesian functions: 211
    Spherical Harmonics?: true
    Max angular momentum: 3

  Cached 100.0% of DFT collocation blocks in 0.038 [GiB].

  Minimum eigenvalue in the overlap matrix is 2.3104075557E-02.
  Reciprocal condition number of the overlap matrix is 8.2157757347E-03.
    Using symmetric orthogonalization.

  ==> Pre-Iterations <==

  SCF Guess: Orbitals guess was supplied from a previous computation.

   -------------------------------------------------------
    Irrep   Nso     Nmo     Nalpha   Nbeta   Ndocc  Nsocc
   -------------------------------------------------------
     A1        16      16       7       6       6       1
     A2         2       2       0       0       0       0
     B1         7       7       3       1       1       2
     B2         7       7       3       1       1       2
   -------------------------------------------------------
    Total      32      32      13       8       8       5
   -------------------------------------------------------

  ==> Iterations <==

                           Total Energy        Delta E     RMS |[F,P]|

   @DF-UKS iter   0:  -422.70296197833756   -4.22703e+02   8.09292e-04 
   @DF-UKS iter   1:  -422.70573663800633   -2.77466e-03   1.14897e-04 ADIIS/DIIS
   @DF-UKS iter   2:  -422.70573900347568   -2.36547e-06   8.14549e-05 DIIS/DAMP=1%
   @DF-UKS iter   3:  -422.70567774996647    6.12535e-05   1.22763e-05 DIIS/DAMP=1%
   @DF-UKS iter   4:  -422.70574352076102   -6.57708e-05   2.74390e-06 DIIS/DAMP=1%
   @DF-UKS iter   5:  -422.70574156661661    1.95414e-06   7.25867e-07 DIIS/DAMP=1%
   @DF-UKS iter   6:  -422.70574058343402    9.83183e-07   1.23222e-07 DIIS/DAMP=1%
   @DF-UKS iter   7:  -422.70574105915676   -4.75723e-07   2.95038e-08 DIIS/DAMP=1%
   @DF-UKS iter   8:  -422.70574095311224    1.06045e-07   3.83630e-09 DIIS/DAMP=1%
   @DF-UKS iter   9:  -422.70574097179406   -1.86818e-08   1.53840e-10 DIIS/DAMP=1%
   @DF-UKS iter  10:  -422.70574097171772    7.63407e-11   2.05792e-11 DIIS/DAMP=1%
  Energy and wave function converged.


  ==> Post-Iterations <==

   Electrons on quadrature grid:
      Nalpha   =   12.9999999630 ; deviation = -3.702e-08
      Nbeta    =    7.9999999921 ; deviation = -7.908e-09
      Ntotal   =   20.9999999551 ; deviation = -4.493e-08 

   @Spin Contamination Metric:   3.211485778E-03
   @S^2 Expected:                8.750000000E+00
   @S^2 Observed:                8.753211486E+00
   @S   Expected:                2.500000000E+00
   @S   Observed:                2.500000000E+00

    Orbital Energies [Eh]
    ---------------------

    Alpha Occupied:                                                       

       1A1   -89.031420     2A1    -8.087435     3A1    -6.775277  
       1B2    -6.055274     1B1    -6.055274     4A1    -6.041019  
       5A1    -0.822543     6A1    -0.465804     2B1    -0.411635  
       2B2    -0.411635     7A1    -0.289443     3B2    -0.147077  
       3B1    -0.147077  

    Alpha Virtual:                                                        

       8A1     0.027636     9A1     0.252881     4B1     0.307382  
       4B2     0.307382    10A1     0.357389    11A1     0.381924  
       5B1     0.400877     5B2     0.400877     1A2     0.437975  
      12A1     0.437976     6B1     0.452819     6B2     0.452819  
      13A1     0.579513    14A1     0.711401     2A2     0.711401  
      15A1     0.801637     7B1     0.887856     7B2     0.887856  
      16A1     1.153745  

    Beta Occupied:                                                        

       1A1   -89.018567     2A1    -8.074238     3A1    -6.743634  
       1B2    -6.031325     1B1    -6.031325     4A1    -6.030755  
       5A1    -0.720735     6A1    -0.398954  

    Beta Virtual:                                                         

       2B1    -0.243985     2B2    -0.243985     7A1    -0.097064  
       3B2     0.029108     3B1     0.029108     8A1     0.092822  
       9A1     0.282601     4B1     0.387908     4B2     0.387908  
      10A1     0.411856    11A1     0.443423     5B1     0.466284  
       5B2     0.466284     6B1     0.521653     6B2     0.521653  
       1A2     0.551997    12A1     0.551997    13A1     0.631821  
      14A1     0.836391     2A2     0.836392    15A1     0.862256  
       7B1     0.980485     7B2     0.980485    16A1     1.224547  

    Final Occupation by Irrep:
             A1    A2    B1    B2 
    DOCC [     6,    0,    1,    1 ]
    SOCC [     1,    0,    2,    2 ]
    NA   [     7,    0,    3,    3 ]
    NB   [     6,    0,    1,    1 ]

  @DF-UKS Final Energy:  -422.70574097171772

   => Energetics <=

    Nuclear Repulsion Energy =             20.6235257535972245
    One-Electron Energy =                -621.8679121711679727
    Two-Electron Energy =                 202.3991543128867932
    DFT Exchange-Correlation Energy =     -23.8605088670338183
    Empirical Dispersion Energy =           0.0000000000000000
    VV10 Nonlocal Energy =                  0.0000000000000000
    Total Energy =                       -422.7057409717177165

  UHF NO Occupations:
  HONO-2 :    2 B2 1.0000000
  HONO-1 :    3 B1 1.0000000
  HONO-0 :    3 B2 1.0000000
  LUNO+0 :    8 A1 0.0012397
  LUNO+1 :    9 A1 0.0003666
  LUNO+2 :   10 A1 0.0000002
  LUNO+3 :   11 A1 0.0000000


Computation Completed


Properties will be evaluated at   0.000000,   0.000000,   0.000000 [a0]

Properties computed using the SCF density matrix


 Multipole Moments:

 ------------------------------------------------------------------------------------
     Multipole            Electronic (a.u.)      Nuclear  (a.u.)        Total (a.u.)
 ------------------------------------------------------------------------------------

 L = 1.  Multiply by 2.5417464519 to convert [e a0] to [Debye]
 Dipole X            :          0.0000000            0.0000000            0.0000000
 Dipole Y            :          0.0000000            0.0000000            0.0000000
 Dipole Z            :         -0.1008732           -1.4700383           -1.5709114
 Magnitude           :                                                    1.5709114

 ------------------------------------------------------------------------------------

*** tstop() called on cics-quant-001 at Tue Dec 23 10:51:50 2025
Module time:
	user time   =       0.67 seconds =       0.01 minutes
	system time =       0.09 seconds =       0.00 minutes
	total time  =          0 seconds =       0.00 minutes
Total time:
	user time   =       9.45 seconds =       0.16 minutes
	system time =       1.93 seconds =       0.03 minutes
	total time  =          5 seconds =       0.08 minutes

*** tstart() called on cics-quant-001
*** at Tue Dec 23 10:51:50 2025


         ------------------------------------------------------------
                                   SCF GRAD                          
                          Rob Parrish, Justin Turney,                
                       Andy Simmonett, and Alex Sokolov              
         ------------------------------------------------------------

  ==> Geometry <==

    Molecular point group: c2v
    Full point group: C_inf_v

    Geometry (in Angstrom), charge = 0, multiplicity = 6:

       Center              X                  Y                   Z               Mass       
    ------------   -----------------  -----------------  -----------------  -----------------
         B            0.000000000000     0.000000000000     1.526928345468    11.009305360000
         S            0.000000000000     0.000000000000    -0.525784530079    31.972071174400

  Nuclear repulsion =   20.623525753597228

  ==> Basis Set <==

  Basis Set: CC-PVDZ
    Blend: CC-PVDZ
    Number of shells: 14
    Number of basis functions: 32
    Number of Cartesian functions: 34
    Spherical Harmonics?: true
    Max angular momentum: 2

  ==> DFJKGrad: Density-Fitted SCF Gradients <==

    Gradient:                    1
    J tasked:                  Yes
    K tasked:                  Yes
    wK tasked:                  No
    OpenMP threads:              5
    Integrals threads:           5
    Memory [MiB]:             5722
    Schwarz Cutoff:          1E-12
    Fitting Condition:       1E-10

   => Auxiliary Basis Set <=

  Basis Set: (CC-PVDZ AUX)
    Blend: CC-PVDZ-JKFIT
    Number of shells: 60
    Number of basis functions: 182
    Number of Cartesian functions: 211
    Spherical Harmonics?: true
    Max angular momentum: 3

  ==> DFT Potential <==

   => LibXC <=

    Version 7.0.0
    S. Lehtola, C. Steigemann, M. J.T. Oliveira, and M. A.L. Marques.,  SoftwareX 7, 1–5 (2018) (10.1016/j.softx.2017.11.002)

   => Composite Functional: B3LYP <= 

    B3LYP Hyb-GGA Exchange-Correlation Functional

    P. J. Stephens, F. J. Devlin, C. F. Chabalowski, and M. J. Frisch.,  J. Phys. Chem. 98, 11623 (1994) (10.1021/j100096a001)

    Deriv               =              1
    GGA                 =           TRUE
    Meta                =          FALSE

    Exchange Hybrid     =           TRUE
    MP2 Hybrid          =          FALSE

   => Exchange Functionals <=

    0.0800   Slater exchange
    0.7200         Becke 88

   => Exact (HF) Exchange <=

    0.2000               HF 

   => Correlation Functionals <=

    0.1900   Vosko, Wilk & Nusair (VWN5_RPA)
    0.8100   Lee, Yang & Parr

   => LibXC Density Thresholds  <==

    XC_HYB_GGA_XC_B3LYP:  1.00E-15 

   => Molecular Quadrature <=

    Radial Scheme          =       TREUTLER
    Pruning Scheme         =           NONE
    Nuclear Scheme         =       TREUTLER

    Blocking Scheme        =         OCTREE
    BS radius alpha        =              1
    Pruning alpha          =              1
    Radial Points          =             75
    Spherical Points       =            302
    Total Points           =          42016
    Total Blocks           =            386
    Max Points             =            254
    Max Functions          =             32
    Weights Tolerance      =       1.00E-15


  -Total Gradient:
     Atom            X                  Y                   Z
    ------   -----------------  -----------------  -----------------
       1       -0.000000000000    -0.000000000000    -0.002159043393
       2        0.000000000000    -0.000000000000     0.002159791667


*** tstop() called on cics-quant-001 at Tue Dec 23 10:51:51 2025
Module time:
	user time   =       0.20 seconds =       0.00 minutes
	system time =       0.13 seconds =       0.00 minutes
	total time  =          1 seconds =       0.02 minutes
Total time:
	user time   =       9.65 seconds =       0.16 minutes
	system time =       2.06 seconds =       0.03 minutes
	total time  =          6 seconds =       0.10 minutes

    			-----------------------------------------

    			 OPTKING 3.0: for geometry optimizations 

    			     By R.A. King, Bethel University     

    			        with contributions from          

    			    A.V. Copan, J. Cayton, A. Heide      

    			-----------------------------------------

    
	                            ===> Fragment 1 <== 

	 Z (Atomic Numbers)          Masses                          Geom                  
	       5.000000            11.009305          0.00000000  0.00000000  2.88547639   
	      16.000000            31.972071          0.00000000  0.00000000 -0.99358876   

	 - Coordinate -           - BOHR/RAD -       - ANG/DEG -
	 R(1,2)           =         3.879065           2.052713


	        --- Internal Coordinate Step in ANG or DEG, aJ/ANG or AJ/DEG ---
	-------------------------------------------------------------------------------
	           Coordinate      Previous         Force          Change          New 
	           ----------      --------        ------          ------        ------
	               R(1,2)       2.05271        0.01779        0.00948       2.06219
	-------------------------------------------------------------------------------

	                                 ==> Convergence Check <==                                  
    
	Measures of convergence in internal coordinates in au.
    
	Criteria marked as inactive (o), active & met (*), and active & unmet ( ).

	----------------------------------------------------------------------------------------------
	   Step    Total Energy     Delta E     Max Force     RMS Force      Max Disp      RMS Disp   
	----------------------------------------------------------------------------------------------
	  Convergence Criteria     1.00e-06 *    3.00e-04 *             o    1.20e-03 *             o
	----------------------------------------------------------------------------------------------
	    10    -422.70574097   -8.07e-05      2.16e-03      2.16e-03 o    1.79e-02      1.79e-02 o  ~
	----------------------------------------------------------------------------------------------

Next Geometry in Ang 
	Fragment 1 (Ang)

	    B   0.0000000000   0.0000000000   1.5316663236
	    S   0.0000000000   0.0000000000  -0.5305225082


    Structure for next step:
    Molecular point group: c2v
    Full point group: C_inf_v

    Geometry (in Angstrom), charge = 0, multiplicity = 6:

    B            0.000000000000     0.000000000000     1.533977117988
    S            0.000000000000     0.000000000000    -0.528211713750


Scratch directory: /tmp/
gradient() will perform analytic gradient computation.
   => Libint2 <=

    Primary   basis highest AM E, G, H:  6, 6, 3
    Auxiliary basis highest AM E, G, H:  7, 7, 4
    Onebody   basis highest AM E, G, H:  -, -, -
    Solid Harmonics ordering:            Gaussian

*** tstart() called on cics-quant-001
*** at Tue Dec 23 10:51:51 2025

   => Loading Basis Set <=

    Name: CC-PVDZ
    Role: ORBITAL
    Keyword: BASIS
    atoms 1 entry B          line   108 file /home/jrodriguesro/psi4conda/share/psi4/basis/cc-pvdz.gbs 
    atoms 2 entry S          line   598 file /home/jrodriguesro/psi4conda/share/psi4/basis/cc-pvdz.gbs 


         ---------------------------------------------------------
                                   SCF
               by Justin Turney, Rob Parrish, Andy Simmonett
                          and Daniel G. A. Smith
                              UKS Reference
                        5 Threads,   7629 MiB Core
         ---------------------------------------------------------

  ==> Geometry <==

    Molecular point group: c2v
    Full point group: C_inf_v

    Geometry (in Angstrom), charge = 0, multiplicity = 6:

       Center              X                  Y                   Z               Mass       
    ------------   -----------------  -----------------  -----------------  -----------------
         B            0.000000000000     0.000000000000     1.533977117988    11.009305360000
         S            0.000000000000     0.000000000000    -0.528211713750    31.972071174400

  Running in c2v symmetry.

  Rotational constants: A = ************  B =      0.48405  C =      0.48405 [cm^-1]
  Rotational constants: A = ************  B =  14511.42193  C =  14511.42193 [MHz]
  Nuclear repulsion =   20.528758667514978

  Charge       = 0
  Multiplicity = 6
  Electrons    = 21
  Nalpha       = 13
  Nbeta        = 8

  ==> Algorithm <==

  SCF Algorithm Type is DF.
  DIIS enabled.
  MOM disabled.
  Fractional occupation disabled.
  Guess Type is READ.
  Energy threshold   = 1.00e-08
  Density threshold  = 1.00e-08
  Integral threshold = 1.00e-12

  ==> Primary Basis <==

  Basis Set: CC-PVDZ
    Blend: CC-PVDZ
    Number of shells: 14
    Number of basis functions: 32
    Number of Cartesian functions: 34
    Spherical Harmonics?: true
    Max angular momentum: 2

  ==> DFT Potential <==

   => LibXC <=

    Version 7.0.0
    S. Lehtola, C. Steigemann, M. J.T. Oliveira, and M. A.L. Marques.,  SoftwareX 7, 1–5 (2018) (10.1016/j.softx.2017.11.002)

   => Composite Functional: B3LYP <= 

    B3LYP Hyb-GGA Exchange-Correlation Functional

    P. J. Stephens, F. J. Devlin, C. F. Chabalowski, and M. J. Frisch.,  J. Phys. Chem. 98, 11623 (1994) (10.1021/j100096a001)

    Deriv               =              1
    GGA                 =           TRUE
    Meta                =          FALSE

    Exchange Hybrid     =           TRUE
    MP2 Hybrid          =          FALSE

   => Exchange Functionals <=

    0.0800   Slater exchange
    0.7200         Becke 88

   => Exact (HF) Exchange <=

    0.2000               HF 

   => Correlation Functionals <=

    0.1900   Vosko, Wilk & Nusair (VWN5_RPA)
    0.8100   Lee, Yang & Parr

   => LibXC Density Thresholds  <==

    XC_HYB_GGA_XC_B3LYP:  1.00E-15 

   => Molecular Quadrature <=

    Radial Scheme          =       TREUTLER
    Pruning Scheme         =           NONE
    Nuclear Scheme         =       TREUTLER

    Blocking Scheme        =         OCTREE
    BS radius alpha        =              1
    Pruning alpha          =              1
    Radial Points          =             75
    Spherical Points       =            302
    Total Points           =          42024
    Total Blocks           =            387
    Max Points             =            256
    Max Functions          =             32
    Weights Tolerance      =       1.00E-15

   => Loading Basis Set <=

    Name: (CC-PVDZ AUX)
    Role: JKFIT
    Keyword: DF_BASIS_SCF
    atoms 1 entry B          line    71 file /home/jrodriguesro/psi4conda/share/psi4/basis/cc-pvdz-jkfit.gbs 
    atoms 2 entry S          line   593 file /home/jrodriguesro/psi4conda/share/psi4/basis/cc-pvdz-jkfit.gbs 

   => Loading Basis Set <=

    Name: CC-PVDZ
    Role: ORBITAL
    Keyword: BASIS
    atoms 1 entry B          line   108 file /home/jrodriguesro/psi4conda/share/psi4/basis/cc-pvdz.gbs 
    atoms 2 entry S          line   598 file /home/jrodriguesro/psi4conda/share/psi4/basis/cc-pvdz.gbs 

  Reading orbitals from file /tmp/sextet_BS.default.356927.180.npy, no projection.

  ==> Integral Setup <==

  DFHelper Memory: AOs need 0.002 GiB; user supplied 5.550 GiB. 
  SCF_SUBTYPE=INCORE selected. In-core MEM_DF algorithm will be used.
  Using in-core AOs.

  ==> MemDFJK: Density-Fitted J/K Matrices <==

    J tasked:                   Yes
    K tasked:                   Yes
    wK tasked:                   No
    OpenMP threads:               5
    Memory [MiB]:              5682
    Algorithm:                 Core
    Schwarz Cutoff:           1E-12
    Mask sparsity (%):       0.0000
    Fitting Condition:        1E-10

   => Auxiliary Basis Set <=

  Basis Set: (CC-PVDZ AUX)
    Blend: CC-PVDZ-JKFIT
    Number of shells: 60
    Number of basis functions: 182
    Number of Cartesian functions: 211
    Spherical Harmonics?: true
    Max angular momentum: 3

  Cached 100.0% of DFT collocation blocks in 0.038 [GiB].

  Minimum eigenvalue in the overlap matrix is 2.3419341000E-02.
  Reciprocal condition number of the overlap matrix is 8.3469682397E-03.
    Using symmetric orthogonalization.

  ==> Pre-Iterations <==

  SCF Guess: Orbitals guess was supplied from a previous computation.

   -------------------------------------------------------
    Irrep   Nso     Nmo     Nalpha   Nbeta   Ndocc  Nsocc
   -------------------------------------------------------
     A1        16      16       7       6       6       1
     A2         2       2       0       0       0       0
     B1         7       7       3       1       1       2
     B2         7       7       3       1       1       2
   -------------------------------------------------------
    Total      32      32      13       8       8       5
   -------------------------------------------------------

  ==> Iterations <==

                           Total Energy        Delta E     RMS |[F,P]|

   @DF-UKS iter   0:  -422.70381998448613   -4.22704e+02   5.63202e-04 
   @DF-UKS iter   1:  -422.70576480223912   -1.94482e-03   8.06607e-05 DIIS
   @DF-UKS iter   2:  -422.70576595978059   -1.15754e-06   5.74776e-05 DIIS/DAMP=1%
   @DF-UKS iter   3:  -422.70572216745785    4.37923e-05   8.64809e-06 DIIS/DAMP=1%
   @DF-UKS iter   4:  -422.70576873407134   -4.65666e-05   1.93454e-06 DIIS/DAMP=1%
   @DF-UKS iter   5:  -422.70576734417511    1.38990e-06   5.05583e-07 DIIS/DAMP=1%
   @DF-UKS iter   6:  -422.70576667623817    6.67937e-07   8.68457e-08 DIIS/DAMP=1%
   @DF-UKS iter   7:  -422.70576700398044   -3.27742e-07   2.10119e-08 DIIS/DAMP=1%
   @DF-UKS iter   8:  -422.70576692960219    7.43782e-08   2.76633e-09 DIIS/DAMP=1%
   @DF-UKS iter   9:  -422.70576694284625   -1.32441e-08   1.11094e-10 DIIS/DAMP=1%
   @DF-UKS iter  10:  -422.70576694280010    4.61569e-11   1.46421e-11 DIIS/DAMP=1%
  Energy and wave function converged.


  ==> Post-Iterations <==

   Electrons on quadrature grid:
      Nalpha   =   12.9999999831 ; deviation = -1.690e-08
      Nbeta    =    8.0000000028 ; deviation = 2.800e-09
      Ntotal   =   20.9999999859 ; deviation = -1.410e-08 

   @Spin Contamination Metric:   3.225988013E-03
   @S^2 Expected:                8.750000000E+00
   @S^2 Observed:                8.753225988E+00
   @S   Expected:                2.500000000E+00
   @S   Observed:                2.500000000E+00

    Orbital Energies [Eh]
    ---------------------

    Alpha Occupied:                                                       

       1A1   -89.031182     2A1    -8.087185     3A1    -6.776005  
       1B1    -6.055027     1B2    -6.055027     4A1    -6.040775  
       5A1    -0.821843     6A1    -0.464758     2B2    -0.411210  
       2B1    -0.411210     7A1    -0.290157     3B1    -0.147275  
       3B2    -0.147275  

    Alpha Virtual:                                                        

       8A1     0.025905     9A1     0.254628     4B1     0.307369  
       4B2     0.307369    10A1     0.357382    11A1     0.381692  
       5B2     0.401502     5B1     0.401502     1A2     0.438465  
      12A1     0.438465     6B2     0.452407     6B1     0.452407  
      13A1     0.577217     2A2     0.711173    14A1     0.711173  
      15A1     0.797413     7B2     0.885064     7B1     0.885064  
      16A1     1.152838  

    Beta Occupied:                                                        

       1A1   -89.018324     2A1    -8.073986     3A1    -6.744328  
       1B1    -6.031085     1B2    -6.031085     4A1    -6.030475  
       5A1    -0.719971     6A1    -0.397831  

    Beta Virtual:                                                         

       2B2    -0.243632     2B1    -0.243632     7A1    -0.098175  
       3B1     0.029006     3B2     0.029006     8A1     0.091196  
       9A1     0.284279     4B1     0.388387     4B2     0.388387  
      10A1     0.411769    11A1     0.442867     5B2     0.466423  
       5B1     0.466423     6B2     0.521121     6B1     0.521121  
       1A2     0.552468    12A1     0.552469    13A1     0.629550  
      14A1     0.836289     2A2     0.836290    15A1     0.857781  
       7B2     0.977566     7B1     0.977566    16A1     1.223612  

    Final Occupation by Irrep:
             A1    A2    B1    B2 
    DOCC [     6,    0,    1,    1 ]
    SOCC [     1,    0,    2,    2 ]
    NA   [     7,    0,    3,    3 ]
    NB   [     6,    0,    1,    1 ]

  @DF-UKS Final Energy:  -422.70576694280010

   => Energetics <=

    Nuclear Repulsion Energy =             20.5287586675149782
    One-Electron Energy =                -621.6837735163070420
    Two-Electron Energy =                 202.3083529651294725
    DFT Exchange-Correlation Energy =     -23.8591050591375762
    Empirical Dispersion Energy =           0.0000000000000000
    VV10 Nonlocal Energy =                  0.0000000000000000
    Total Energy =                       -422.7057669428000963

  UHF NO Occupations:
  HONO-2 :    3 B1 1.0000000
  HONO-1 :    3 B2 1.0000000
  HONO-0 :    7 A1 1.0000000
  LUNO+0 :    8 A1 0.0012444
  LUNO+1 :    9 A1 0.0003692
  LUNO+2 :   10 A1 0.0000002
  LUNO+3 :   11 A1 0.0000000


Computation Completed


Properties will be evaluated at   0.000000,   0.000000,   0.000000 [a0]

Properties computed using the SCF density matrix


 Multipole Moments:

 ------------------------------------------------------------------------------------
     Multipole            Electronic (a.u.)      Nuclear  (a.u.)        Total (a.u.)
 ------------------------------------------------------------------------------------

 L = 1.  Multiply by 2.5417464519 to convert [e a0] to [Debye]
 Dipole X            :          0.0000000            0.0000000            0.0000000
 Dipole Y            :          0.0000000            0.0000000            0.0000000
 Dipole Z            :         -0.0911537           -1.4768244           -1.5679782
 Magnitude           :                                                    1.5679782

 ------------------------------------------------------------------------------------

*** tstop() called on cics-quant-001 at Tue Dec 23 10:51:51 2025
Module time:
	user time   =       0.69 seconds =       0.01 minutes
	system time =       0.11 seconds =       0.00 minutes
	total time  =          0 seconds =       0.00 minutes
Total time:
	user time   =      10.36 seconds =       0.17 minutes
	system time =       2.17 seconds =       0.04 minutes
	total time  =          6 seconds =       0.10 minutes

*** tstart() called on cics-quant-001
*** at Tue Dec 23 10:51:51 2025


         ------------------------------------------------------------
                                   SCF GRAD                          
                          Rob Parrish, Justin Turney,                
                       Andy Simmonett, and Alex Sokolov              
         ------------------------------------------------------------

  ==> Geometry <==

    Molecular point group: c2v
    Full point group: C_inf_v

    Geometry (in Angstrom), charge = 0, multiplicity = 6:

       Center              X                  Y                   Z               Mass       
    ------------   -----------------  -----------------  -----------------  -----------------
         B            0.000000000000     0.000000000000     1.533977117988    11.009305360000
         S            0.000000000000     0.000000000000    -0.528211713750    31.972071174400

  Nuclear repulsion =   20.528758667514978

  ==> Basis Set <==

  Basis Set: CC-PVDZ
    Blend: CC-PVDZ
    Number of shells: 14
    Number of basis functions: 32
    Number of Cartesian functions: 34
    Spherical Harmonics?: true
    Max angular momentum: 2

  ==> DFJKGrad: Density-Fitted SCF Gradients <==

    Gradient:                    1
    J tasked:                  Yes
    K tasked:                  Yes
    wK tasked:                  No
    OpenMP threads:              5
    Integrals threads:           5
    Memory [MiB]:             5722
    Schwarz Cutoff:          1E-12
    Fitting Condition:       1E-10

   => Auxiliary Basis Set <=

  Basis Set: (CC-PVDZ AUX)
    Blend: CC-PVDZ-JKFIT
    Number of shells: 60
    Number of basis functions: 182
    Number of Cartesian functions: 211
    Spherical Harmonics?: true
    Max angular momentum: 3

  ==> DFT Potential <==

   => LibXC <=

    Version 7.0.0
    S. Lehtola, C. Steigemann, M. J.T. Oliveira, and M. A.L. Marques.,  SoftwareX 7, 1–5 (2018) (10.1016/j.softx.2017.11.002)

   => Composite Functional: B3LYP <= 

    B3LYP Hyb-GGA Exchange-Correlation Functional

    P. J. Stephens, F. J. Devlin, C. F. Chabalowski, and M. J. Frisch.,  J. Phys. Chem. 98, 11623 (1994) (10.1021/j100096a001)

    Deriv               =              1
    GGA                 =           TRUE
    Meta                =          FALSE

    Exchange Hybrid     =           TRUE
    MP2 Hybrid          =          FALSE

   => Exchange Functionals <=

    0.0800   Slater exchange
    0.7200         Becke 88

   => Exact (HF) Exchange <=

    0.2000               HF 

   => Correlation Functionals <=

    0.1900   Vosko, Wilk & Nusair (VWN5_RPA)
    0.8100   Lee, Yang & Parr

   => LibXC Density Thresholds  <==

    XC_HYB_GGA_XC_B3LYP:  1.00E-15 

   => Molecular Quadrature <=

    Radial Scheme          =       TREUTLER
    Pruning Scheme         =           NONE
    Nuclear Scheme         =       TREUTLER

    Blocking Scheme        =         OCTREE
    BS radius alpha        =              1
    Pruning alpha          =              1
    Radial Points          =             75
    Spherical Points       =            302
    Total Points           =          42024
    Total Blocks           =            387
    Max Points             =            256
    Max Functions          =             32
    Weights Tolerance      =       1.00E-15


  -Total Gradient:
     Atom            X                  Y                   Z
    ------   -----------------  -----------------  -----------------
       1       -0.000000000000    -0.000000000000    -0.000760635768
       2       -0.000000000000     0.000000000000     0.000761701744


*** tstop() called on cics-quant-001 at Tue Dec 23 10:51:51 2025
Module time:
	user time   =       0.17 seconds =       0.00 minutes
	system time =       0.12 seconds =       0.00 minutes
	total time  =          0 seconds =       0.00 minutes
Total time:
	user time   =      10.53 seconds =       0.18 minutes
	system time =       2.29 seconds =       0.04 minutes
	total time  =          6 seconds =       0.10 minutes

    			-----------------------------------------

    			 OPTKING 3.0: for geometry optimizations 

    			     By R.A. King, Bethel University     

    			        with contributions from          

    			    A.V. Copan, J. Cayton, A. Heide      

    			-----------------------------------------

    
	                            ===> Fragment 1 <== 

	 Z (Atomic Numbers)          Masses                          Geom                  
	       5.000000            11.009305          0.00000000  0.00000000  2.89879664   
	      16.000000            31.972071          0.00000000  0.00000000 -0.99817548   

	 - Coordinate -           - BOHR/RAD -       - ANG/DEG -
	 R(1,2)           =         3.896972           2.062189


	        --- Internal Coordinate Step in ANG or DEG, aJ/ANG or AJ/DEG ---
	-------------------------------------------------------------------------------
	           Coordinate      Previous         Force          Change          New 
	           ----------      --------        ------          ------        ------
	               R(1,2)       2.06219        0.00627        0.00404       2.06623
	-------------------------------------------------------------------------------

	                                 ==> Convergence Check <==                                  
    
	Measures of convergence in internal coordinates in au.
    
	Criteria marked as inactive (o), active & met (*), and active & unmet ( ).

	----------------------------------------------------------------------------------------------
	   Step    Total Energy     Delta E     Max Force     RMS Force      Max Disp      RMS Disp   
	----------------------------------------------------------------------------------------------
	  Convergence Criteria     1.00e-06 *    3.00e-04 *             o    1.20e-03 *             o
	----------------------------------------------------------------------------------------------
	    11    -422.70576694   -2.60e-05      7.61e-04      7.61e-04 o    7.64e-03      7.64e-03 o  ~
	----------------------------------------------------------------------------------------------

Next Geometry in Ang 
	Fragment 1 (Ang)

	    B   0.0000000000   0.0000000000   1.5359995387
	    S   0.0000000000   0.0000000000  -0.5302341345


    Structure for next step:
    Molecular point group: c2v
    Full point group: C_inf_v

    Geometry (in Angstrom), charge = 0, multiplicity = 6:

    B            0.000000000000     0.000000000000     1.536985908573
    S            0.000000000000     0.000000000000    -0.529247764688


Scratch directory: /tmp/
gradient() will perform analytic gradient computation.
   => Libint2 <=

    Primary   basis highest AM E, G, H:  6, 6, 3
    Auxiliary basis highest AM E, G, H:  7, 7, 4
    Onebody   basis highest AM E, G, H:  -, -, -
    Solid Harmonics ordering:            Gaussian

*** tstart() called on cics-quant-001
*** at Tue Dec 23 10:51:51 2025

   => Loading Basis Set <=

    Name: CC-PVDZ
    Role: ORBITAL
    Keyword: BASIS
    atoms 1 entry B          line   108 file /home/jrodriguesro/psi4conda/share/psi4/basis/cc-pvdz.gbs 
    atoms 2 entry S          line   598 file /home/jrodriguesro/psi4conda/share/psi4/basis/cc-pvdz.gbs 


         ---------------------------------------------------------
                                   SCF
               by Justin Turney, Rob Parrish, Andy Simmonett
                          and Daniel G. A. Smith
                              UKS Reference
                        5 Threads,   7629 MiB Core
         ---------------------------------------------------------

  ==> Geometry <==

    Molecular point group: c2v
    Full point group: C_inf_v

    Geometry (in Angstrom), charge = 0, multiplicity = 6:

       Center              X                  Y                   Z               Mass       
    ------------   -----------------  -----------------  -----------------  -----------------
         B            0.000000000000     0.000000000000     1.536985908573    11.009305360000
         S            0.000000000000     0.000000000000    -0.529247764688    31.972071174400

  Running in c2v symmetry.

  Rotational constants: A = ************  B =      0.48216  C =      0.48216 [cm^-1]
  Rotational constants: A = ************  B =  14454.66267  C =  14454.66267 [MHz]
  Nuclear repulsion =   20.488571743580358

  Charge       = 0
  Multiplicity = 6
  Electrons    = 21
  Nalpha       = 13
  Nbeta        = 8

  ==> Algorithm <==

  SCF Algorithm Type is DF.
  DIIS enabled.
  MOM disabled.
  Fractional occupation disabled.
  Guess Type is READ.
  Energy threshold   = 1.00e-08
  Density threshold  = 1.00e-08
  Integral threshold = 1.00e-12

  ==> Primary Basis <==

  Basis Set: CC-PVDZ
    Blend: CC-PVDZ
    Number of shells: 14
    Number of basis functions: 32
    Number of Cartesian functions: 34
    Spherical Harmonics?: true
    Max angular momentum: 2

  ==> DFT Potential <==

   => LibXC <=

    Version 7.0.0
    S. Lehtola, C. Steigemann, M. J.T. Oliveira, and M. A.L. Marques.,  SoftwareX 7, 1–5 (2018) (10.1016/j.softx.2017.11.002)

   => Composite Functional: B3LYP <= 

    B3LYP Hyb-GGA Exchange-Correlation Functional

    P. J. Stephens, F. J. Devlin, C. F. Chabalowski, and M. J. Frisch.,  J. Phys. Chem. 98, 11623 (1994) (10.1021/j100096a001)

    Deriv               =              1
    GGA                 =           TRUE
    Meta                =          FALSE

    Exchange Hybrid     =           TRUE
    MP2 Hybrid          =          FALSE

   => Exchange Functionals <=

    0.0800   Slater exchange
    0.7200         Becke 88

   => Exact (HF) Exchange <=

    0.2000               HF 

   => Correlation Functionals <=

    0.1900   Vosko, Wilk & Nusair (VWN5_RPA)
    0.8100   Lee, Yang & Parr

   => LibXC Density Thresholds  <==

    XC_HYB_GGA_XC_B3LYP:  1.00E-15 

   => Molecular Quadrature <=

    Radial Scheme          =       TREUTLER
    Pruning Scheme         =           NONE
    Nuclear Scheme         =       TREUTLER

    Blocking Scheme        =         OCTREE
    BS radius alpha        =              1
    Pruning alpha          =              1
    Radial Points          =             75
    Spherical Points       =            302
    Total Points           =          42024
    Total Blocks           =            386
    Max Points             =            256
    Max Functions          =             32
    Weights Tolerance      =       1.00E-15

   => Loading Basis Set <=

    Name: (CC-PVDZ AUX)
    Role: JKFIT
    Keyword: DF_BASIS_SCF
    atoms 1 entry B          line    71 file /home/jrodriguesro/psi4conda/share/psi4/basis/cc-pvdz-jkfit.gbs 
    atoms 2 entry S          line   593 file /home/jrodriguesro/psi4conda/share/psi4/basis/cc-pvdz-jkfit.gbs 

   => Loading Basis Set <=

    Name: CC-PVDZ
    Role: ORBITAL
    Keyword: BASIS
    atoms 1 entry B          line   108 file /home/jrodriguesro/psi4conda/share/psi4/basis/cc-pvdz.gbs 
    atoms 2 entry S          line   598 file /home/jrodriguesro/psi4conda/share/psi4/basis/cc-pvdz.gbs 

  Reading orbitals from file /tmp/sextet_BS.default.356927.180.npy, no projection.

  ==> Integral Setup <==

  DFHelper Memory: AOs need 0.002 GiB; user supplied 5.550 GiB. 
  SCF_SUBTYPE=INCORE selected. In-core MEM_DF algorithm will be used.
  Using in-core AOs.

  ==> MemDFJK: Density-Fitted J/K Matrices <==

    J tasked:                   Yes
    K tasked:                   Yes
    wK tasked:                   No
    OpenMP threads:               5
    Memory [MiB]:              5682
    Algorithm:                 Core
    Schwarz Cutoff:           1E-12
    Mask sparsity (%):       0.0000
    Fitting Condition:        1E-10

   => Auxiliary Basis Set <=

  Basis Set: (CC-PVDZ AUX)
    Blend: CC-PVDZ-JKFIT
    Number of shells: 60
    Number of basis functions: 182
    Number of Cartesian functions: 211
    Spherical Harmonics?: true
    Max angular momentum: 3

  Cached 100.0% of DFT collocation blocks in 0.038 [GiB].

  Minimum eigenvalue in the overlap matrix is 2.3555388834E-02.
  Reciprocal condition number of the overlap matrix is 8.4036958116E-03.
    Using symmetric orthogonalization.

  ==> Pre-Iterations <==

  SCF Guess: Orbitals guess was supplied from a previous computation.

   -------------------------------------------------------
    Irrep   Nso     Nmo     Nalpha   Nbeta   Ndocc  Nsocc
   -------------------------------------------------------
     A1        16      16       7       6       6       1
     A2         2       2       0       0       0       0
     B1         7       7       3       1       1       2
     B2         7       7       3       1       1       2
   -------------------------------------------------------
    Total      32      32      13       8       8       5
   -------------------------------------------------------

  ==> Iterations <==

                           Total Energy        Delta E     RMS |[F,P]|

   @DF-UKS iter   0:  -422.70494330881974   -4.22705e+02   2.38028e-04 
   @DF-UKS iter   1:  -422.70577012865260   -8.26820e-04   3.41901e-05 DIIS
   @DF-UKS iter   2:  -422.70577033610346   -2.07451e-07   2.44156e-05 DIIS/DAMP=1%
   @DF-UKS iter   3:  -422.70575146078789    1.88753e-05   3.66858e-06 DIIS/DAMP=1%
   @DF-UKS iter   4:  -422.70577127184350   -1.98111e-05   8.22872e-07 DIIS/DAMP=1%
   @DF-UKS iter   5:  -422.70577068021231    5.91631e-07   2.13555e-07 DIIS/DAMP=1%
   @DF-UKS iter   6:  -422.70577040193575    2.78277e-07   3.68682e-08 DIIS/DAMP=1%
   @DF-UKS iter   7:  -422.70577053959016   -1.37654e-07   8.96631e-09 DIIS/DAMP=1%
   @DF-UKS iter   8:  -422.70577050809055    3.14996e-08   1.18871e-09 DIIS/DAMP=1%
   @DF-UKS iter   9:  -422.70577051372896   -5.63841e-09   4.77850e-11 DIIS/DAMP=1%
  Energy and wave function converged.


  ==> Post-Iterations <==

   Electrons on quadrature grid:
      Nalpha   =   12.9999999907 ; deviation = -9.328e-09
      Nbeta    =    8.0000000066 ; deviation = 6.571e-09
      Ntotal   =   20.9999999972 ; deviation = -2.757e-09 

   @Spin Contamination Metric:   3.232515475E-03
   @S^2 Expected:                8.750000000E+00
   @S^2 Observed:                8.753232515E+00
   @S   Expected:                2.500000000E+00
   @S   Observed:                2.500000000E+00

    Orbital Energies [Eh]
    ---------------------

    Alpha Occupied:                                                       

       1A1   -89.031079     2A1    -8.087077     3A1    -6.776315  
       1B2    -6.054920     1B1    -6.054920     4A1    -6.040669  
       5A1    -0.821548     6A1    -0.464313     2B1    -0.411030  
       2B2    -0.411030     7A1    -0.290462     3B1    -0.147360  
       3B2    -0.147360  

    Alpha Virtual:                                                        

       8A1     0.025172     9A1     0.255370     4B1     0.307356  
       4B2     0.307356    10A1     0.357380    11A1     0.381603  
       5B2     0.401776     5B1     0.401776     1A2     0.438672  
      12A1     0.438673     6B2     0.452241     6B1     0.452241  
      13A1     0.576246     2A2     0.711077    14A1     0.711077  
      15A1     0.795617     7B2     0.883879     7B1     0.883879  
      16A1     1.152454  

    Beta Occupied:                                                        

       1A1   -89.018219     2A1    -8.073876     3A1    -6.744623  
       1B1    -6.030980     1B2    -6.030980     4A1    -6.030355  
       5A1    -0.719648     6A1    -0.397352  

    Beta Virtual:                                                         

       2B2    -0.243481     2B1    -0.243481     7A1    -0.098650  
       3B1     0.028963     3B2     0.028963     8A1     0.090505  
       9A1     0.284995     4B1     0.388579     4B2     0.388579  
      10A1     0.411738    11A1     0.442637     5B2     0.466490  
       5B1     0.466490     6B2     0.520908     6B1     0.520908  
       1A2     0.552668    12A1     0.552669    13A1     0.628589  
      14A1     0.836247     2A2     0.836247    15A1     0.855879  
       7B2     0.976326     7B1     0.976326    16A1     1.223215  

    Final Occupation by Irrep:
             A1    A2    B1    B2 
    DOCC [     6,    0,    1,    1 ]
    SOCC [     1,    0,    2,    2 ]
    NA   [     7,    0,    3,    3 ]
    NB   [     6,    0,    1,    1 ]

  @DF-UKS Final Energy:  -422.70577051372896

   => Energetics <=

    Nuclear Repulsion Energy =             20.4885717435803585
    One-Electron Energy =                -621.6056947454122792
    Two-Electron Energy =                 202.2698673780791410
    DFT Exchange-Correlation Energy =     -23.8585148899761847
    Empirical Dispersion Energy =           0.0000000000000000
    VV10 Nonlocal Energy =                  0.0000000000000000
    Total Energy =                       -422.7057705137289645

  UHF NO Occupations:
  HONO-2 :    3 B1 1.0000000
  HONO-1 :    3 B2 1.0000000
  HONO-0 :    7 A1 1.0000000
  LUNO+0 :    8 A1 0.0012465
  LUNO+1 :    9 A1 0.0003703
  LUNO+2 :   10 A1 0.0000002
  LUNO+3 :   11 A1 0.0000000


Computation Completed


Properties will be evaluated at   0.000000,   0.000000,   0.000000 [a0]

Properties computed using the SCF density matrix


 Multipole Moments:

 ------------------------------------------------------------------------------------
     Multipole            Electronic (a.u.)      Nuclear  (a.u.)        Total (a.u.)
 ------------------------------------------------------------------------------------

 L = 1.  Multiply by 2.5417464519 to convert [e a0] to [Debye]
 Dipole X            :          0.0000000            0.0000000            0.0000000
 Dipole Y            :          0.0000000            0.0000000            0.0000000
 Dipole Z            :         -0.0869718           -1.4797211           -1.5666929
 Magnitude           :                                                    1.5666929

 ------------------------------------------------------------------------------------

*** tstop() called on cics-quant-001 at Tue Dec 23 10:51:51 2025
Module time:
	user time   =       0.60 seconds =       0.01 minutes
	system time =       0.07 seconds =       0.00 minutes
	total time  =          0 seconds =       0.00 minutes
Total time:
	user time   =      11.15 seconds =       0.19 minutes
	system time =       2.36 seconds =       0.04 minutes
	total time  =          6 seconds =       0.10 minutes

*** tstart() called on cics-quant-001
*** at Tue Dec 23 10:51:51 2025


         ------------------------------------------------------------
                                   SCF GRAD                          
                          Rob Parrish, Justin Turney,                
                       Andy Simmonett, and Alex Sokolov              
         ------------------------------------------------------------

  ==> Geometry <==

    Molecular point group: c2v
    Full point group: C_inf_v

    Geometry (in Angstrom), charge = 0, multiplicity = 6:

       Center              X                  Y                   Z               Mass       
    ------------   -----------------  -----------------  -----------------  -----------------
         B            0.000000000000     0.000000000000     1.536985908573    11.009305360000
         S            0.000000000000     0.000000000000    -0.529247764688    31.972071174400

  Nuclear repulsion =   20.488571743580358

  ==> Basis Set <==

  Basis Set: CC-PVDZ
    Blend: CC-PVDZ
    Number of shells: 14
    Number of basis functions: 32
    Number of Cartesian functions: 34
    Spherical Harmonics?: true
    Max angular momentum: 2

  ==> DFJKGrad: Density-Fitted SCF Gradients <==

    Gradient:                    1
    J tasked:                  Yes
    K tasked:                  Yes
    wK tasked:                  No
    OpenMP threads:              5
    Integrals threads:           5
    Memory [MiB]:             5722
    Schwarz Cutoff:          1E-12
    Fitting Condition:       1E-10

   => Auxiliary Basis Set <=

  Basis Set: (CC-PVDZ AUX)
    Blend: CC-PVDZ-JKFIT
    Number of shells: 60
    Number of basis functions: 182
    Number of Cartesian functions: 211
    Spherical Harmonics?: true
    Max angular momentum: 3

  ==> DFT Potential <==

   => LibXC <=

    Version 7.0.0
    S. Lehtola, C. Steigemann, M. J.T. Oliveira, and M. A.L. Marques.,  SoftwareX 7, 1–5 (2018) (10.1016/j.softx.2017.11.002)

   => Composite Functional: B3LYP <= 

    B3LYP Hyb-GGA Exchange-Correlation Functional

    P. J. Stephens, F. J. Devlin, C. F. Chabalowski, and M. J. Frisch.,  J. Phys. Chem. 98, 11623 (1994) (10.1021/j100096a001)

    Deriv               =              1
    GGA                 =           TRUE
    Meta                =          FALSE

    Exchange Hybrid     =           TRUE
    MP2 Hybrid          =          FALSE

   => Exchange Functionals <=

    0.0800   Slater exchange
    0.7200         Becke 88

   => Exact (HF) Exchange <=

    0.2000               HF 

   => Correlation Functionals <=

    0.1900   Vosko, Wilk & Nusair (VWN5_RPA)
    0.8100   Lee, Yang & Parr

   => LibXC Density Thresholds  <==

    XC_HYB_GGA_XC_B3LYP:  1.00E-15 

   => Molecular Quadrature <=

    Radial Scheme          =       TREUTLER
    Pruning Scheme         =           NONE
    Nuclear Scheme         =       TREUTLER

    Blocking Scheme        =         OCTREE
    BS radius alpha        =              1
    Pruning alpha          =              1
    Radial Points          =             75
    Spherical Points       =            302
    Total Points           =          42024
    Total Blocks           =            386
    Max Points             =            256
    Max Functions          =             32
    Weights Tolerance      =       1.00E-15


  -Total Gradient:
     Atom            X                  Y                   Z
    ------   -----------------  -----------------  -----------------
       1       -0.000000000000     0.000000000000    -0.000184027640
       2        0.000000000000    -0.000000000000     0.000185198296


*** tstop() called on cics-quant-001 at Tue Dec 23 10:51:52 2025
Module time:
	user time   =       0.19 seconds =       0.00 minutes
	system time =       0.12 seconds =       0.00 minutes
	total time  =          1 seconds =       0.02 minutes
Total time:
	user time   =      11.35 seconds =       0.19 minutes
	system time =       2.48 seconds =       0.04 minutes
	total time  =          7 seconds =       0.12 minutes

    			-----------------------------------------

    			 OPTKING 3.0: for geometry optimizations 

    			     By R.A. King, Bethel University     

    			        with contributions from          

    			    A.V. Copan, J. Cayton, A. Heide      

    			-----------------------------------------

    
	                            ===> Fragment 1 <== 

	 Z (Atomic Numbers)          Masses                          Geom                  
	       5.000000            11.009305          0.00000000  0.00000000  2.90448243   
	      16.000000            31.972071          0.00000000  0.00000000 -1.00013333   

	 - Coordinate -           - BOHR/RAD -       - ANG/DEG -
	 R(1,2)           =         3.904616           2.066234


	        --- Internal Coordinate Step in ANG or DEG, aJ/ANG or AJ/DEG ---
	-------------------------------------------------------------------------------
	           Coordinate      Previous         Force          Change          New 
	           ----------      --------        ------          ------        ------
	               R(1,2)       2.06623        0.00152        0.00114       2.06737
	-------------------------------------------------------------------------------

	                                 ==> Convergence Check <==                                  
    
	Measures of convergence in internal coordinates in au.
    
	Criteria marked as inactive (o), active & met (*), and active & unmet ( ).

	----------------------------------------------------------------------------------------------
	   Step    Total Energy     Delta E     Max Force     RMS Force      Max Disp      RMS Disp   
	----------------------------------------------------------------------------------------------
	  Convergence Criteria     1.00e-06 *    3.00e-04 *             o    1.20e-03 *             o
	----------------------------------------------------------------------------------------------
	    12    -422.70577051   -3.57e-06      1.85e-04 *    1.85e-04 o    2.15e-03      2.15e-03 o  ~
	----------------------------------------------------------------------------------------------

Next Geometry in Ang 
	Fragment 1 (Ang)

	    B   0.0000000000   0.0000000000   1.5375560965
	    S   0.0000000000   0.0000000000  -0.5298179526


    Structure for next step:
    Molecular point group: c2v
    Full point group: C_inf_v

    Geometry (in Angstrom), charge = 0, multiplicity = 6:

    B            0.000000000000     0.000000000000     1.537834187120
    S            0.000000000000     0.000000000000    -0.529539862047


Scratch directory: /tmp/
gradient() will perform analytic gradient computation.
   => Libint2 <=

    Primary   basis highest AM E, G, H:  6, 6, 3
    Auxiliary basis highest AM E, G, H:  7, 7, 4
    Onebody   basis highest AM E, G, H:  -, -, -
    Solid Harmonics ordering:            Gaussian

*** tstart() called on cics-quant-001
*** at Tue Dec 23 10:51:52 2025

   => Loading Basis Set <=

    Name: CC-PVDZ
    Role: ORBITAL
    Keyword: BASIS
    atoms 1 entry B          line   108 file /home/jrodriguesro/psi4conda/share/psi4/basis/cc-pvdz.gbs 
    atoms 2 entry S          line   598 file /home/jrodriguesro/psi4conda/share/psi4/basis/cc-pvdz.gbs 


         ---------------------------------------------------------
                                   SCF
               by Justin Turney, Rob Parrish, Andy Simmonett
                          and Daniel G. A. Smith
                              UKS Reference
                        5 Threads,   7629 MiB Core
         ---------------------------------------------------------

  ==> Geometry <==

    Molecular point group: c2v
    Full point group: C_inf_v

    Geometry (in Angstrom), charge = 0, multiplicity = 6:

       Center              X                  Y                   Z               Mass       
    ------------   -----------------  -----------------  -----------------  -----------------
         B            0.000000000000     0.000000000000     1.537834187120    11.009305360000
         S            0.000000000000     0.000000000000    -0.529539862047    31.972071174400

  Running in c2v symmetry.

  Rotational constants: A = ************  B =      0.48162  C =      0.48162 [cm^-1]
  Rotational constants: A = ************  B =  14438.72051  C =  14438.72051 [MHz]
  Nuclear repulsion =   20.477270124704589

  Charge       = 0
  Multiplicity = 6
  Electrons    = 21
  Nalpha       = 13
  Nbeta        = 8

  ==> Algorithm <==

  SCF Algorithm Type is DF.
  DIIS enabled.
  MOM disabled.
  Fractional occupation disabled.
  Guess Type is READ.
  Energy threshold   = 1.00e-08
  Density threshold  = 1.00e-08
  Integral threshold = 1.00e-12

  ==> Primary Basis <==

  Basis Set: CC-PVDZ
    Blend: CC-PVDZ
    Number of shells: 14
    Number of basis functions: 32
    Number of Cartesian functions: 34
    Spherical Harmonics?: true
    Max angular momentum: 2

  ==> DFT Potential <==

   => LibXC <=

    Version 7.0.0
    S. Lehtola, C. Steigemann, M. J.T. Oliveira, and M. A.L. Marques.,  SoftwareX 7, 1–5 (2018) (10.1016/j.softx.2017.11.002)

   => Composite Functional: B3LYP <= 

    B3LYP Hyb-GGA Exchange-Correlation Functional

    P. J. Stephens, F. J. Devlin, C. F. Chabalowski, and M. J. Frisch.,  J. Phys. Chem. 98, 11623 (1994) (10.1021/j100096a001)

    Deriv               =              1
    GGA                 =           TRUE
    Meta                =          FALSE

    Exchange Hybrid     =           TRUE
    MP2 Hybrid          =          FALSE

   => Exchange Functionals <=

    0.0800   Slater exchange
    0.7200         Becke 88

   => Exact (HF) Exchange <=

    0.2000               HF 

   => Correlation Functionals <=

    0.1900   Vosko, Wilk & Nusair (VWN5_RPA)
    0.8100   Lee, Yang & Parr

   => LibXC Density Thresholds  <==

    XC_HYB_GGA_XC_B3LYP:  1.00E-15 

   => Molecular Quadrature <=

    Radial Scheme          =       TREUTLER
    Pruning Scheme         =           NONE
    Nuclear Scheme         =       TREUTLER

    Blocking Scheme        =         OCTREE
    BS radius alpha        =              1
    Pruning alpha          =              1
    Radial Points          =             75
    Spherical Points       =            302
    Total Points           =          42024
    Total Blocks           =            386
    Max Points             =            256
    Max Functions          =             32
    Weights Tolerance      =       1.00E-15

   => Loading Basis Set <=

    Name: (CC-PVDZ AUX)
    Role: JKFIT
    Keyword: DF_BASIS_SCF
    atoms 1 entry B          line    71 file /home/jrodriguesro/psi4conda/share/psi4/basis/cc-pvdz-jkfit.gbs 
    atoms 2 entry S          line   593 file /home/jrodriguesro/psi4conda/share/psi4/basis/cc-pvdz-jkfit.gbs 

   => Loading Basis Set <=

    Name: CC-PVDZ
    Role: ORBITAL
    Keyword: BASIS
    atoms 1 entry B          line   108 file /home/jrodriguesro/psi4conda/share/psi4/basis/cc-pvdz.gbs 
    atoms 2 entry S          line   598 file /home/jrodriguesro/psi4conda/share/psi4/basis/cc-pvdz.gbs 

  Reading orbitals from file /tmp/sextet_BS.default.356927.180.npy, no projection.

  ==> Integral Setup <==

  DFHelper Memory: AOs need 0.002 GiB; user supplied 5.550 GiB. 
  SCF_SUBTYPE=INCORE selected. In-core MEM_DF algorithm will be used.
  Using in-core AOs.

  ==> MemDFJK: Density-Fitted J/K Matrices <==

    J tasked:                   Yes
    K tasked:                   Yes
    wK tasked:                   No
    OpenMP threads:               5
    Memory [MiB]:              5682
    Algorithm:                 Core
    Schwarz Cutoff:           1E-12
    Mask sparsity (%):       0.0000
    Fitting Condition:        1E-10

   => Auxiliary Basis Set <=

  Basis Set: (CC-PVDZ AUX)
    Blend: CC-PVDZ-JKFIT
    Number of shells: 60
    Number of basis functions: 182
    Number of Cartesian functions: 211
    Spherical Harmonics?: true
    Max angular momentum: 3

  Cached 100.0% of DFT collocation blocks in 0.038 [GiB].

  Minimum eigenvalue in the overlap matrix is 2.3593905514E-02.
  Reciprocal condition number of the overlap matrix is 8.4197684041E-03.
    Using symmetric orthogonalization.

  ==> Pre-Iterations <==

  SCF Guess: Orbitals guess was supplied from a previous computation.

   -------------------------------------------------------
    Irrep   Nso     Nmo     Nalpha   Nbeta   Ndocc  Nsocc
   -------------------------------------------------------
     A1        16      16       7       6       6       1
     A2         2       2       0       0       0       0
     B1         7       7       3       1       1       2
     B2         7       7       3       1       1       2
   -------------------------------------------------------
    Total      32      32      13       8       8       5
   -------------------------------------------------------

  ==> Iterations <==

                           Total Energy        Delta E     RMS |[F,P]|

   @DF-UKS iter   0:  -422.70553781809758   -4.22706e+02   6.68608e-05 
   @DF-UKS iter   1:  -422.70577069764045   -2.32880e-04   9.60916e-06 DIIS
   @DF-UKS iter   2:  -422.70577071401846   -1.63780e-08   6.86611e-06 DIIS/DAMP=1%
   @DF-UKS iter   3:  -422.70576536703703    5.34698e-06   1.03103e-06 DIIS/DAMP=1%
   @DF-UKS iter   4:  -422.70577094089674   -5.57386e-06   2.31641e-07 DIIS/DAMP=1%
   @DF-UKS iter   5:  -422.70577077451128    1.66385e-07   5.99580e-08 DIIS/DAMP=1%
   @DF-UKS iter   6:  -422.70577069676921    7.77421e-08   1.03658e-08 DIIS/DAMP=1%
   @DF-UKS iter   7:  -422.70577073534179   -3.85726e-08   2.52533e-09 DIIS/DAMP=1%
   @DF-UKS iter   8:  -422.70577072649223    8.84955e-09   3.35649e-10 DIIS/DAMP=1%
  Energy and wave function converged.


  ==> Post-Iterations <==

   Electrons on quadrature grid:
      Nalpha   =   12.9999999927 ; deviation = -7.311e-09
      Nbeta    =    8.0000000075 ; deviation = 7.540e-09
      Ntotal   =   21.0000000002 ; deviation = 2.285e-10 

   @Spin Contamination Metric:   3.234391869E-03
   @S^2 Expected:                8.750000000E+00
   @S^2 Observed:                8.753234392E+00
   @S   Expected:                2.500000000E+00
   @S   Observed:                2.500000000E+00

    Orbital Energies [Eh]
    ---------------------

    Alpha Occupied:                                                       

       1A1   -89.031049     2A1    -8.087046     3A1    -6.776402  
       1B2    -6.054889     1B1    -6.054889     4A1    -6.040639  
       5A1    -0.821465     6A1    -0.464187     2B1    -0.410979  
       2B2    -0.410979     7A1    -0.290548     3B2    -0.147384  
       3B1    -0.147384  

    Alpha Virtual:                                                        

       8A1     0.024966     9A1     0.255580     4B1     0.307351  
       4B2     0.307351    10A1     0.357379    11A1     0.381579  
       5B1     0.401853     5B2     0.401853     1A2     0.438731  
      12A1     0.438731     6B1     0.452195     6B2     0.452195  
      13A1     0.575973     2A2     0.711050    14A1     0.711050  
      15A1     0.795112     7B1     0.883545     7B2     0.883545  
      16A1     1.152345  

    Beta Occupied:                                                        

       1A1   -89.018189     2A1    -8.073845     3A1    -6.744706  
       1B2    -6.030951     1B1    -6.030951     4A1    -6.030320  
       5A1    -0.719558     6A1    -0.397216  

    Beta Virtual:                                                         

       2B1    -0.243439     2B2    -0.243439     7A1    -0.098783  
       3B2     0.028951     3B1     0.028951     8A1     0.090311  
       9A1     0.285196     4B1     0.388631     4B2     0.388631  
      10A1     0.411730    11A1     0.442573     5B1     0.466509  
       5B2     0.466509     6B1     0.520850     6B2     0.520850  
       1A2     0.552724    12A1     0.552725    13A1     0.628319  
      14A1     0.836235     2A2     0.836236    15A1     0.855343  
       7B1     0.975977     7B2     0.975977    16A1     1.223103  

    Final Occupation by Irrep:
             A1    A2    B1    B2 
    DOCC [     6,    0,    1,    1 ]
    SOCC [     1,    0,    2,    2 ]
    NA   [     7,    0,    3,    3 ]
    NB   [     6,    0,    1,    1 ]

  @DF-UKS Final Energy:  -422.70577072649223

   => Energetics <=

    Nuclear Repulsion Energy =             20.4772701247045887
    One-Electron Energy =                -621.5837376991470364
    Two-Electron Energy =                 202.2590463189593777
    DFT Exchange-Correlation Energy =     -23.8583494710091770
    Empirical Dispersion Energy =           0.0000000000000000
    VV10 Nonlocal Energy =                  0.0000000000000000
    Total Energy =                       -422.7057707264923465

  UHF NO Occupations:
  HONO-2 :    3 B1 1.0000000
  HONO-1 :    3 B2 1.0000000
  HONO-0 :    7 A1 1.0000000
  LUNO+0 :    8 A1 0.0012471
  LUNO+1 :    9 A1 0.0003706
  LUNO+2 :   10 A1 0.0000002
  LUNO+3 :   11 A1 0.0000000


Computation Completed


Properties will be evaluated at   0.000000,   0.000000,   0.000000 [a0]

Properties computed using the SCF density matrix


 Multipole Moments:

 ------------------------------------------------------------------------------------
     Multipole            Electronic (a.u.)      Nuclear  (a.u.)        Total (a.u.)
 ------------------------------------------------------------------------------------

 L = 1.  Multiply by 2.5417464519 to convert [e a0] to [Debye]
 Dipole X            :          0.0000000            0.0000000            0.0000000
 Dipole Y            :          0.0000000            0.0000000            0.0000000
 Dipole Z            :         -0.0857893           -1.4805378           -1.5663271
 Magnitude           :                                                    1.5663271

 ------------------------------------------------------------------------------------

*** tstop() called on cics-quant-001 at Tue Dec 23 10:51:52 2025
Module time:
	user time   =       0.58 seconds =       0.01 minutes
	system time =       0.09 seconds =       0.00 minutes
	total time  =          0 seconds =       0.00 minutes
Total time:
	user time   =      11.95 seconds =       0.20 minutes
	system time =       2.58 seconds =       0.04 minutes
	total time  =          7 seconds =       0.12 minutes

*** tstart() called on cics-quant-001
*** at Tue Dec 23 10:51:52 2025


         ------------------------------------------------------------
                                   SCF GRAD                          
                          Rob Parrish, Justin Turney,                
                       Andy Simmonett, and Alex Sokolov              
         ------------------------------------------------------------

  ==> Geometry <==

    Molecular point group: c2v
    Full point group: C_inf_v

    Geometry (in Angstrom), charge = 0, multiplicity = 6:

       Center              X                  Y                   Z               Mass       
    ------------   -----------------  -----------------  -----------------  -----------------
         B            0.000000000000     0.000000000000     1.537834187120    11.009305360000
         S            0.000000000000     0.000000000000    -0.529539862047    31.972071174400

  Nuclear repulsion =   20.477270124704589

  ==> Basis Set <==

  Basis Set: CC-PVDZ
    Blend: CC-PVDZ
    Number of shells: 14
    Number of basis functions: 32
    Number of Cartesian functions: 34
    Spherical Harmonics?: true
    Max angular momentum: 2

  ==> DFJKGrad: Density-Fitted SCF Gradients <==

    Gradient:                    1
    J tasked:                  Yes
    K tasked:                  Yes
    wK tasked:                  No
    OpenMP threads:              5
    Integrals threads:           5
    Memory [MiB]:             5722
    Schwarz Cutoff:          1E-12
    Fitting Condition:       1E-10

   => Auxiliary Basis Set <=

  Basis Set: (CC-PVDZ AUX)
    Blend: CC-PVDZ-JKFIT
    Number of shells: 60
    Number of basis functions: 182
    Number of Cartesian functions: 211
    Spherical Harmonics?: true
    Max angular momentum: 3

  ==> DFT Potential <==

   => LibXC <=

    Version 7.0.0
    S. Lehtola, C. Steigemann, M. J.T. Oliveira, and M. A.L. Marques.,  SoftwareX 7, 1–5 (2018) (10.1016/j.softx.2017.11.002)

   => Composite Functional: B3LYP <= 

    B3LYP Hyb-GGA Exchange-Correlation Functional

    P. J. Stephens, F. J. Devlin, C. F. Chabalowski, and M. J. Frisch.,  J. Phys. Chem. 98, 11623 (1994) (10.1021/j100096a001)

    Deriv               =              1
    GGA                 =           TRUE
    Meta                =          FALSE

    Exchange Hybrid     =           TRUE
    MP2 Hybrid          =          FALSE

   => Exchange Functionals <=

    0.0800   Slater exchange
    0.7200         Becke 88

   => Exact (HF) Exchange <=

    0.2000               HF 

   => Correlation Functionals <=

    0.1900   Vosko, Wilk & Nusair (VWN5_RPA)
    0.8100   Lee, Yang & Parr

   => LibXC Density Thresholds  <==

    XC_HYB_GGA_XC_B3LYP:  1.00E-15 

   => Molecular Quadrature <=

    Radial Scheme          =       TREUTLER
    Pruning Scheme         =           NONE
    Nuclear Scheme         =       TREUTLER

    Blocking Scheme        =         OCTREE
    BS radius alpha        =              1
    Pruning alpha          =              1
    Radial Points          =             75
    Spherical Points       =            302
    Total Points           =          42024
    Total Blocks           =            386
    Max Points             =            256
    Max Functions          =             32
    Weights Tolerance      =       1.00E-15


  -Total Gradient:
     Atom            X                  Y                   Z
    ------   -----------------  -----------------  -----------------
       1        0.000000000000     0.000000000000    -0.000023610583
       2        0.000000000000    -0.000000000000     0.000024806900


*** tstop() called on cics-quant-001 at Tue Dec 23 10:51:52 2025
Module time:
	user time   =       0.20 seconds =       0.00 minutes
	system time =       0.12 seconds =       0.00 minutes
	total time  =          0 seconds =       0.00 minutes
Total time:
	user time   =      12.15 seconds =       0.20 minutes
	system time =       2.70 seconds =       0.05 minutes
	total time  =          7 seconds =       0.12 minutes

    			-----------------------------------------

    			 OPTKING 3.0: for geometry optimizations 

    			     By R.A. King, Bethel University     

    			        with contributions from          

    			    A.V. Copan, J. Cayton, A. Heide      

    			-----------------------------------------

    
	                            ===> Fragment 1 <== 

	 Z (Atomic Numbers)          Masses                          Geom                  
	       5.000000            11.009305          0.00000000  0.00000000  2.90608544   
	      16.000000            31.972071          0.00000000  0.00000000 -1.00068531   

	 - Coordinate -           - BOHR/RAD -       - ANG/DEG -
	 R(1,2)           =         3.906771           2.067374


	        --- Internal Coordinate Step in ANG or DEG, aJ/ANG or AJ/DEG ---
	-------------------------------------------------------------------------------
	           Coordinate      Previous         Force          Change          New 
	           ----------      --------        ------          ------        ------
	               R(1,2)       2.06737        0.00020        0.00016       2.06753
	-------------------------------------------------------------------------------

	                                 ==> Convergence Check <==                                  
    
	Measures of convergence in internal coordinates in au.
    
	Criteria marked as inactive (o), active & met (*), and active & unmet ( ).

	----------------------------------------------------------------------------------------------
	   Step    Total Energy     Delta E     Max Force     RMS Force      Max Disp      RMS Disp   
	----------------------------------------------------------------------------------------------
	  Convergence Criteria     1.00e-06 *    3.00e-04 *             o    1.20e-03 *             o
	----------------------------------------------------------------------------------------------
	    13    -422.70577073   -2.13e-07 *    2.42e-05 *    2.42e-05 o    3.03e-04 *    3.03e-04 o  ~
	----------------------------------------------------------------------------------------------

Next Geometry in Ang 
	Fragment 1 (Ang)

	    B   0.0000000000   0.0000000000   1.5379144728
	    S   0.0000000000   0.0000000000  -0.5296201477


    Final optimized geometry and variables:
    Molecular point group: c2v
    Full point group: C_inf_v

    Geometry (in Angstrom), charge = 0, multiplicity = 6:

    B            0.000000000000     0.000000000000     1.537834187120
    S            0.000000000000     0.000000000000    -0.529539862047


    Psi4 stopped on: Tuesday, 23 December 2025 10:51AM
    Psi4 wall time for execution: 0:00:07.54

*** Psi4 exiting successfully. Buy a developer a beer!
