
    -----------------------------------------------------------------------
          Psi4: An Open-Source Ab Initio Electronic Structure Package
                               Psi4 1.10 release

                         Git: Rev {} zzzzzzz 


    D. G. A. Smith, L. A. Burns, A. C. Simmonett, R. M. Parrish,
    M. C. Schieber, R. Galvelis, P. Kraus, H. Kruse, R. Di Remigio,
    A. Alenaizan, A. M. James, S. Lehtola, J. P. Misiewicz, M. Scheurer,
    R. A. Shaw, J. B. Schriber, Y. Xie, Z. L. Glick, D. A. Sirianni,
    J. S. O'Brien, J. M. Waldrop, A. Kumar, E. G. Hohenstein,
    B. P. Pritchard, B. R. Brooks, H. F. Schaefer III, A. Yu. Sokolov,
    K. Patkowski, A. E. DePrince III, U. Bozkaya, R. A. King,
    F. A. Evangelista, J. M. Turney, T. D. Crawford, C. D. Sherrill,
    J. Chem. Phys. 152(18) 184108 (2020). https://doi.org/10.1063/5.0006002

                            Additional Code Authors
    E. T. Seidl, C. L. Janssen, E. F. Valeev, M. L. Leininger,
    J. F. Gonthier, R. M. Richard, H. R. McAlexander, M. Saitow, X. Wang,
    P. Verma, M. H. Lechner, A. Jiang, S. Behnle, A. G. Heide,
    M. F. Herbst, D. L. Poole, T. Győri, E. C. Mitchell, J. P. Pederson,
    and A. M. Wallace

             Previous Authors, Complete List of Code Contributors,
                       and Citations for Specific Modules
    https://github.com/psi4/psi4/blob/master/codemeta.json
    https://github.com/psi4/psi4/graphs/contributors
    https://psicode.org/psi4manual/master/introduction.html#citing-psifour

    -----------------------------------------------------------------------


    Psi4 started on: Tuesday, 23 December 2025 11:34AM

    Process ID: 409969
    Host:       cics-quant-001
    PSIDATADIR: /home/jrodriguesro/psi4conda/share/psi4
    Memory:     500.0 MiB
    Threads:    5
    Addons:     adcc, a̶m̶b̶i̶t̶, b̶s̶e̶, c̶c̶t̶3̶, c̶f̶o̶u̶r̶, c̶h̶e̶m̶p̶s̶2̶, c̶p̶p̶e̶, ddx, dftd3, dftd4,
                dkh, ecpint, einsums, f̶o̶r̶t̶e̶, g̶a̶u̶x̶c̶, gcp, g̶d̶m̶a̶, geometric,
                g̶p̶u̶_̶d̶f̶c̶c̶, i̶n̶t̶e̶g̶r̶a̶t̶o̶r̶x̶x̶, i̶p̶i̶, libefp, m̶d̶i̶, m̶p̶2̶d̶,
                m̶r̶c̶c̶, ooo, o̶p̶e̶n̶f̶e̶r̶m̶i̶o̶n̶p̶s̶i̶4̶, pcmsolver, p̶s̶i̶4̶f̶o̶c̶k̶c̶i̶,
                p̶s̶i̶x̶a̶s̶, r̶e̶s̶p̶, s̶i̶m̶i̶n̶t̶, s̶n̶s̶m̶p̶2̶, v̶2̶r̶d̶m̶_̶c̶a̶s̶s̶c̶f̶

  ==> Input File <==

--------------------------------------------------------------------------
memory 8 Gb

molecule { 
0 1
S   0.00000        0.60000        0.00000
S   0.00000       -0.60000        0.00000
}

set { 
basis              cc-pvdz
reference          uks
maxiter            500
geom_maxiter       500
DAMPING_PERCENTAGE 1
guess              SAP
}

optimize('b3lyp')
--------------------------------------------------------------------------

  Memory set to   7.451 GiB by Python driver.

Scratch directory: /tmp/
gradient() will perform analytic gradient computation.
   => Libint2 <=

    Primary   basis highest AM E, G, H:  6, 6, 3
    Auxiliary basis highest AM E, G, H:  7, 7, 4
    Onebody   basis highest AM E, G, H:  -, -, -
    Solid Harmonics ordering:            Gaussian

*** tstart() called on cics-quant-001
*** at Tue Dec 23 11:34:00 2025

   => Loading Basis Set <=

    Name: CC-PVDZ
    Role: ORBITAL
    Keyword: BASIS
    atoms 1-2 entry S          line   598 file /home/jrodriguesro/psi4conda/share/psi4/basis/cc-pvdz.gbs 


         ---------------------------------------------------------
                                   SCF
               by Justin Turney, Rob Parrish, Andy Simmonett
                          and Daniel G. A. Smith
                              UKS Reference
                        5 Threads,   7629 MiB Core
         ---------------------------------------------------------

  ==> Geometry <==

    Molecular point group: d2h
    Full point group: D_inf_h

    Geometry (in Angstrom), charge = 0, multiplicity = 1:

       Center              X                  Y                   Z               Mass       
    ------------   -----------------  -----------------  -----------------  -----------------
         S           -0.000000000000     0.600000000000     0.000000000000    31.972071174400
         S            0.000000000000    -0.600000000000     0.000000000000    31.972071174400

  Running in d2h symmetry.

  Rotational constants: A = ************  B =      0.73231  C =      0.73231 [cm^-1]
  Rotational constants: A = ************  B =  21954.01375  C =  21954.01375 [MHz]
  Nuclear repulsion =  112.891138276266688

  Charge       = 0
  Multiplicity = 1
  Electrons    = 32
  Nalpha       = 16
  Nbeta        = 16

  ==> Algorithm <==

  SCF Algorithm Type is DF.
  DIIS enabled.
  MOM disabled.
  Fractional occupation disabled.
  Guess Type is SAP.
  Energy threshold   = 1.00e-08
  Density threshold  = 1.00e-08
  Integral threshold = 1.00e-12

  ==> Primary Basis <==

  Basis Set: CC-PVDZ
    Blend: CC-PVDZ
    Number of shells: 16
    Number of basis functions: 36
    Number of Cartesian functions: 38
    Spherical Harmonics?: true
    Max angular momentum: 2

  ==> DFT Potential <==

   => LibXC <=

    Version 7.0.0
    S. Lehtola, C. Steigemann, M. J.T. Oliveira, and M. A.L. Marques.,  SoftwareX 7, 1–5 (2018) (10.1016/j.softx.2017.11.002)

   => Composite Functional: B3LYP <= 

    B3LYP Hyb-GGA Exchange-Correlation Functional

    P. J. Stephens, F. J. Devlin, C. F. Chabalowski, and M. J. Frisch.,  J. Phys. Chem. 98, 11623 (1994) (10.1021/j100096a001)

    Deriv               =              1
    GGA                 =           TRUE
    Meta                =          FALSE

    Exchange Hybrid     =           TRUE
    MP2 Hybrid          =          FALSE

   => Exchange Functionals <=

    0.0800   Slater exchange
    0.7200         Becke 88

   => Exact (HF) Exchange <=

    0.2000               HF 

   => Correlation Functionals <=

    0.1900   Vosko, Wilk & Nusair (VWN5_RPA)
    0.8100   Lee, Yang & Parr

   => LibXC Density Thresholds  <==

    XC_HYB_GGA_XC_B3LYP:  1.00E-15 

   => Molecular Quadrature <=

    Radial Scheme          =       TREUTLER
    Pruning Scheme         =           NONE
    Nuclear Scheme         =       TREUTLER

    Blocking Scheme        =         OCTREE
    BS radius alpha        =              1
    Pruning alpha          =              1
    Radial Points          =             75
    Spherical Points       =            302
    Total Points           =          40082
    Total Blocks           =            370
    Max Points             =            255
    Max Functions          =             36
    Weights Tolerance      =       1.00E-15

   => Loading Basis Set <=

    Name: (CC-PVDZ AUX)
    Role: JKFIT
    Keyword: DF_BASIS_SCF
    atoms 1-2 entry S          line   593 file /home/jrodriguesro/psi4conda/share/psi4/basis/cc-pvdz-jkfit.gbs 

  ==> Integral Setup <==

  DFHelper Memory: AOs need 0.003 GiB; user supplied 5.546 GiB. 
  SCF_SUBTYPE=INCORE selected. In-core MEM_DF algorithm will be used.
  Using in-core AOs.

  ==> MemDFJK: Density-Fitted J/K Matrices <==

    J tasked:                   Yes
    K tasked:                   Yes
    wK tasked:                   No
    OpenMP threads:               5
    Memory [MiB]:              5679
    Algorithm:                 Core
    Schwarz Cutoff:           1E-12
    Mask sparsity (%):       0.0000
    Fitting Condition:        1E-10

   => Auxiliary Basis Set <=

  Basis Set: (CC-PVDZ AUX)
    Blend: CC-PVDZ-JKFIT
    Number of shells: 72
    Number of basis functions: 224
    Number of Cartesian functions: 260
    Spherical Harmonics?: true
    Max angular momentum: 3

  Cached 100.0% of DFT collocation blocks in 0.042 [GiB].

  Minimum eigenvalue in the overlap matrix is 7.1735511333E-03.
  Reciprocal condition number of the overlap matrix is 2.3829337929E-03.
    Using symmetric orthogonalization.

  ==> Pre-Iterations <==

  SCF Guess: Superposition of Atomic Potentials (doi:10.1021/acs.jctc.8b01089).

  ==> SAP guess <==

   => Molecular Quadrature <=

    Radial Scheme          =       TREUTLER
    Pruning Scheme         =           NONE
    Nuclear Scheme         =       TREUTLER

    Blocking Scheme        =         OCTREE
    BS radius alpha        =              1
    Pruning alpha          =              1
    Radial Points          =             75
    Spherical Points       =            302
    Total Points           =          40082
    Total Blocks           =            370
    Max Points             =            255
    Max Functions          =             36
    Weights Tolerance      =       1.00E-15

   -------------------------------------------------------
    Irrep   Nso     Nmo     Nalpha   Nbeta   Ndocc  Nsocc
   -------------------------------------------------------
     Ag         9       9       5       5       5       0
     B1g        4       4       2       2       2       0
     B2g        1       1       0       0       0       0
     B3g        4       4       1       1       1       0
     Au         1       1       0       0       0       0
     B1u        4       4       2       2       2       0
     B2u        9       9       4       4       4       0
     B3u        4       4       2       2       2       0
   -------------------------------------------------------
    Total      36      36      16      16      16       0
   -------------------------------------------------------

  ==> Iterations <==

                           Total Energy        Delta E     RMS |[F,P]|

   @DF-UKS iter   1:  -794.89845498520265   -7.94898e+02   4.14411e-02 ADIIS/DIIS
   @DF-UKS iter   2:  -794.97393870777762   -7.54837e-02   3.84469e-02 ADIIS/DIIS/DAMP=1%
   @DF-UKS iter   3:  -795.11983845197369   -1.45900e-01   1.36592e-03 ADIIS/DIIS/DAMP=1%
   @DF-UKS iter   4:  -795.17173240188890   -5.18939e-02   2.47374e-04 ADIIS/DIIS/DAMP=1%
   @DF-UKS iter   5:  -795.16960694805607    2.12545e-03   2.50898e-05 DIIS/DAMP=1%
   @DF-UKS iter   6:  -795.16988225279556   -2.75305e-04   1.40998e-06 DIIS/DAMP=1%
   @DF-UKS iter   7:  -795.16990116666943   -1.89139e-05   6.57014e-08 DIIS/DAMP=1%
   @DF-UKS iter   8:  -795.16990302544821   -1.85878e-06   6.13852e-09 DIIS/DAMP=1%
   @DF-UKS iter   9:  -795.16990305937395   -3.39257e-08   1.48564e-10 DIIS/DAMP=1%
   @DF-UKS iter  10:  -795.16990306750574   -8.13179e-09   2.68449e-11 DIIS/DAMP=1%
  Energy and wave function converged.


  ==> Post-Iterations <==

   Electrons on quadrature grid:
      Nalpha   =   15.9999974093 ; deviation = -2.591e-06
      Nbeta    =   15.9999974093 ; deviation = -2.591e-06
      Ntotal   =   31.9999948186 ; deviation = -5.181e-06 

   @Spin Contamination Metric:  -2.131628207E-14
   @S^2 Expected:                0.000000000E+00
   @S^2 Observed:               -2.131628207E-14
   @S   Expected:                0.000000000E+00
   @S   Observed:                0.000000000E+00

    Orbital Energies [Eh]
    ---------------------

    Alpha Occupied:                                                       

       1Ag   -88.875695     1B2u  -88.875691     2Ag    -8.043330  
       2B2u   -8.010260     3Ag    -6.035324     1B1u   -5.974769  
       1B3g   -5.964716     1B3u   -5.961900     3B2u   -5.960336  
       1B1g   -5.951951     4Ag    -1.059418     2B1u   -0.540630  
       4B2u   -0.518297     2B3u   -0.514258     5Ag    -0.365740  
       2B1g   -0.107224  

    Alpha Virtual:                                                        

       2B3g   -0.070085     5B2u    0.197035     6Ag     0.220860  
       3B1u    0.242262     3B3u    0.263264     1B2g    0.361431  
       7Ag     0.363724     8Ag     0.462909     3B3g    0.554480  
       6B2u    0.564737     3B1g    0.568752     4B1u    0.590687  
       4B3u    0.611547     1Au     0.765606     7B2u    0.767729  
       8B2u    0.918933     9Ag     1.004215     4B3g    1.280531  
       4B1g    1.305650     9B2u    2.510415  

    Beta Occupied:                                                        

       1Ag   -88.875695     1B2u  -88.875691     2Ag    -8.043330  
       2B2u   -8.010260     3Ag    -6.035324     1B1u   -5.974769  
       1B3g   -5.964716     1B3u   -5.961900     3B2u   -5.960336  
       1B1g   -5.951951     4Ag    -1.059418     2B1u   -0.540630  
       4B2u   -0.518297     2B3u   -0.514258     5Ag    -0.365740  
       2B1g   -0.107224  

    Beta Virtual:                                                         

       2B3g   -0.070085     5B2u    0.197035     6Ag     0.220860  
       3B1u    0.242262     3B3u    0.263264     1B2g    0.361431  
       7Ag     0.363724     8Ag     0.462909     3B3g    0.554480  
       6B2u    0.564737     3B1g    0.568752     4B1u    0.590687  
       4B3u    0.611547     1Au     0.765606     7B2u    0.767729  
       8B2u    0.918933     9Ag     1.004215     4B3g    1.280531  
       4B1g    1.305650     9B2u    2.510415  

    Final Occupation by Irrep:
             Ag   B1g   B2g   B3g    Au   B1u   B2u   B3u 
    DOCC [     5,    2,    0,    1,    0,    2,    4,    2 ]
    SOCC [     0,    0,    0,    0,    0,    0,    0,    0 ]
    NA   [     5,    2,    0,    1,    0,    2,    4,    2 ]
    NB   [     5,    2,    0,    1,    0,    2,    4,    2 ]

  @DF-UKS Final Energy:  -795.16990306750574

   => Energetics <=

    Nuclear Repulsion Energy =            112.8911382762666875
    One-Electron Energy =               -1320.8076733308296298
    Two-Electron Energy =                 454.6703018506751732
    DFT Exchange-Correlation Energy =     -41.9236698636179952
    Empirical Dispersion Energy =           0.0000000000000000
    VV10 Nonlocal Energy =                  0.0000000000000000
    Total Energy =                       -795.1699030675057429

  UHF NO Occupations:
  HONO-2 :    1B1g 2.0000000
  HONO-1 :    2B1g 2.0000000
  HONO-0 :    5 Ag 2.0000000
  LUNO+0 :    6 Ag 0.0000000
  LUNO+1 :    2B3g 0.0000000
  LUNO+2 :    3B3u 0.0000000
  LUNO+3 :    3B1u 0.0000000


Computation Completed


Properties will be evaluated at   0.000000,   0.000000,   0.000000 [a0]

Properties computed using the SCF density matrix


 Multipole Moments:

 ------------------------------------------------------------------------------------
     Multipole            Electronic (a.u.)      Nuclear  (a.u.)        Total (a.u.)
 ------------------------------------------------------------------------------------

 L = 1.  Multiply by 2.5417464519 to convert [e a0] to [Debye]
 Dipole X            :          0.0000000            0.0000000            0.0000000
 Dipole Y            :          0.0000000            0.0000000            0.0000000
 Dipole Z            :          0.0000000            0.0000000            0.0000000
 Magnitude           :                                                    0.0000000

 ------------------------------------------------------------------------------------

*** tstop() called on cics-quant-001 at Tue Dec 23 11:34:01 2025
Module time:
	user time   =       0.78 seconds =       0.01 minutes
	system time =       0.10 seconds =       0.00 minutes
	total time  =          1 seconds =       0.02 minutes
Total time:
	user time   =       0.78 seconds =       0.01 minutes
	system time =       0.10 seconds =       0.00 minutes
	total time  =          1 seconds =       0.02 minutes

*** tstart() called on cics-quant-001
*** at Tue Dec 23 11:34:01 2025


         ------------------------------------------------------------
                                   SCF GRAD                          
                          Rob Parrish, Justin Turney,                
                       Andy Simmonett, and Alex Sokolov              
         ------------------------------------------------------------

  ==> Geometry <==

    Molecular point group: d2h
    Full point group: D_inf_h

    Geometry (in Angstrom), charge = 0, multiplicity = 1:

       Center              X                  Y                   Z               Mass       
    ------------   -----------------  -----------------  -----------------  -----------------
         S           -0.000000000000     0.600000000000     0.000000000000    31.972071174400
         S            0.000000000000    -0.600000000000     0.000000000000    31.972071174400

  Nuclear repulsion =  112.891138276266688

  ==> Basis Set <==

  Basis Set: CC-PVDZ
    Blend: CC-PVDZ
    Number of shells: 16
    Number of basis functions: 36
    Number of Cartesian functions: 38
    Spherical Harmonics?: true
    Max angular momentum: 2

  ==> DFJKGrad: Density-Fitted SCF Gradients <==

    Gradient:                    1
    J tasked:                  Yes
    K tasked:                  Yes
    wK tasked:                  No
    OpenMP threads:              5
    Integrals threads:           5
    Memory [MiB]:             5722
    Schwarz Cutoff:          1E-12
    Fitting Condition:       1E-10

   => Auxiliary Basis Set <=

  Basis Set: (CC-PVDZ AUX)
    Blend: CC-PVDZ-JKFIT
    Number of shells: 72
    Number of basis functions: 224
    Number of Cartesian functions: 260
    Spherical Harmonics?: true
    Max angular momentum: 3

  ==> DFT Potential <==

   => LibXC <=

    Version 7.0.0
    S. Lehtola, C. Steigemann, M. J.T. Oliveira, and M. A.L. Marques.,  SoftwareX 7, 1–5 (2018) (10.1016/j.softx.2017.11.002)

   => Composite Functional: B3LYP <= 

    B3LYP Hyb-GGA Exchange-Correlation Functional

    P. J. Stephens, F. J. Devlin, C. F. Chabalowski, and M. J. Frisch.,  J. Phys. Chem. 98, 11623 (1994) (10.1021/j100096a001)

    Deriv               =              1
    GGA                 =           TRUE
    Meta                =          FALSE

    Exchange Hybrid     =           TRUE
    MP2 Hybrid          =          FALSE

   => Exchange Functionals <=

    0.0800   Slater exchange
    0.7200         Becke 88

   => Exact (HF) Exchange <=

    0.2000               HF 

   => Correlation Functionals <=

    0.1900   Vosko, Wilk & Nusair (VWN5_RPA)
    0.8100   Lee, Yang & Parr

   => LibXC Density Thresholds  <==

    XC_HYB_GGA_XC_B3LYP:  1.00E-15 

   => Molecular Quadrature <=

    Radial Scheme          =       TREUTLER
    Pruning Scheme         =           NONE
    Nuclear Scheme         =       TREUTLER

    Blocking Scheme        =         OCTREE
    BS radius alpha        =              1
    Pruning alpha          =              1
    Radial Points          =             75
    Spherical Points       =            302
    Total Points           =          40082
    Total Blocks           =            370
    Max Points             =            255
    Max Functions          =             36
    Weights Tolerance      =       1.00E-15


  -Total Gradient:
     Atom            X                  Y                   Z
    ------   -----------------  -----------------  -----------------
       1        0.000000000000    -3.130599544935     0.000000000000
       2       -0.000000000000     3.130599544935     0.000000000000


*** tstop() called on cics-quant-001 at Tue Dec 23 11:34:01 2025
Module time:
	user time   =       0.26 seconds =       0.00 minutes
	system time =       0.11 seconds =       0.00 minutes
	total time  =          0 seconds =       0.00 minutes
Total time:
	user time   =       1.04 seconds =       0.02 minutes
	system time =       0.21 seconds =       0.00 minutes
	total time  =          1 seconds =       0.02 minutes

    			-----------------------------------------

    			 OPTKING 3.0: for geometry optimizations 

    			     By R.A. King, Bethel University     

    			        with contributions from          

    			    A.V. Copan, J. Cayton, A. Heide      

    			-----------------------------------------

    
	                            ===> Fragment 1 <== 

	 Z (Atomic Numbers)          Masses                          Geom                  
	      16.000000            31.972071         -0.00000000  1.13383568  0.00000000   
	      16.000000            31.972071          0.00000000 -1.13383568  0.00000000   

	 - Coordinate -           - BOHR/RAD -       - ANG/DEG -
	 R(1,2)           =         2.267671           1.200000


	        --- Internal Coordinate Step in ANG or DEG, aJ/ANG or AJ/DEG ---
	-------------------------------------------------------------------------------
	           Coordinate      Previous         Force          Change          New 
	           ----------      --------        ------          ------        ------
	               R(1,2)       1.20000       25.79214        0.00760       1.20760
	-------------------------------------------------------------------------------

	                                 ==> Convergence Check <==                                  
    
	Measures of convergence in internal coordinates in au.
    
	Criteria marked as inactive (o), active & met (*), and active & unmet ( ).

	----------------------------------------------------------------------------------------------~
	   Step    Total Energy     Delta E     Max Force     RMS Force      Max Disp      RMS Disp   ~
	----------------------------------------------------------------------------------------------~
	  Convergence Criteria     1.00e-06 *    3.00e-04 *             o    1.20e-03 *             o~
	----------------------------------------------------------------------------------------------~
	     1    -795.16990307   -7.95e+02      3.13e+00      3.13e+00 o    1.44e-02      1.44e-02 o  ~
	----------------------------------------------------------------------------------------------

Next Geometry in Ang 
	Fragment 1 (Ang)

	    S  -0.0000000000   0.6038019565   0.0000000000
	    S   0.0000000000  -0.6038019565   0.0000000000


    Structure for next step:
    Molecular point group: d2h
    Full point group: D_inf_h

    Geometry (in Angstrom), charge = 0, multiplicity = 1:

    S           -0.000000000000     0.603801956529     0.000000000000
    S            0.000000000000    -0.603801956529     0.000000000000


Scratch directory: /tmp/
gradient() will perform analytic gradient computation.
   => Libint2 <=

    Primary   basis highest AM E, G, H:  6, 6, 3
    Auxiliary basis highest AM E, G, H:  7, 7, 4
    Onebody   basis highest AM E, G, H:  -, -, -
    Solid Harmonics ordering:            Gaussian

*** tstart() called on cics-quant-001
*** at Tue Dec 23 11:34:01 2025

   => Loading Basis Set <=

    Name: CC-PVDZ
    Role: ORBITAL
    Keyword: BASIS
    atoms 1-2 entry S          line   598 file /home/jrodriguesro/psi4conda/share/psi4/basis/cc-pvdz.gbs 


         ---------------------------------------------------------
                                   SCF
               by Justin Turney, Rob Parrish, Andy Simmonett
                          and Daniel G. A. Smith
                              UKS Reference
                        5 Threads,   7629 MiB Core
         ---------------------------------------------------------

  ==> Geometry <==

    Molecular point group: d2h
    Full point group: D_inf_h

    Geometry (in Angstrom), charge = 0, multiplicity = 1:

       Center              X                  Y                   Z               Mass       
    ------------   -----------------  -----------------  -----------------  -----------------
         S           -0.000000000000     0.603801956529     0.000000000000    31.972071174400
         S            0.000000000000    -0.603801956529     0.000000000000    31.972071174400

  Running in d2h symmetry.

  Rotational constants: A = ************  B =      0.72311  C =      0.72311 [cm^-1]
  Rotational constants: A = ************  B =  21678.40875  C =  21678.40875 [MHz]
  Nuclear repulsion =  112.180297253573968

  Charge       = 0
  Multiplicity = 1
  Electrons    = 32
  Nalpha       = 16
  Nbeta        = 16

  ==> Algorithm <==

  SCF Algorithm Type is DF.
  DIIS enabled.
  MOM disabled.
  Fractional occupation disabled.
  Guess Type is READ.
  Energy threshold   = 1.00e-08
  Density threshold  = 1.00e-08
  Integral threshold = 1.00e-12

  ==> Primary Basis <==

  Basis Set: CC-PVDZ
    Blend: CC-PVDZ
    Number of shells: 16
    Number of basis functions: 36
    Number of Cartesian functions: 38
    Spherical Harmonics?: true
    Max angular momentum: 2

  ==> DFT Potential <==

   => LibXC <=

    Version 7.0.0
    S. Lehtola, C. Steigemann, M. J.T. Oliveira, and M. A.L. Marques.,  SoftwareX 7, 1–5 (2018) (10.1016/j.softx.2017.11.002)

   => Composite Functional: B3LYP <= 

    B3LYP Hyb-GGA Exchange-Correlation Functional

    P. J. Stephens, F. J. Devlin, C. F. Chabalowski, and M. J. Frisch.,  J. Phys. Chem. 98, 11623 (1994) (10.1021/j100096a001)

    Deriv               =              1
    GGA                 =           TRUE
    Meta                =          FALSE

    Exchange Hybrid     =           TRUE
    MP2 Hybrid          =          FALSE

   => Exchange Functionals <=

    0.0800   Slater exchange
    0.7200         Becke 88

   => Exact (HF) Exchange <=

    0.2000               HF 

   => Correlation Functionals <=

    0.1900   Vosko, Wilk & Nusair (VWN5_RPA)
    0.8100   Lee, Yang & Parr

   => LibXC Density Thresholds  <==

    XC_HYB_GGA_XC_B3LYP:  1.00E-15 

   => Molecular Quadrature <=

    Radial Scheme          =       TREUTLER
    Pruning Scheme         =           NONE
    Nuclear Scheme         =       TREUTLER

    Blocking Scheme        =         OCTREE
    BS radius alpha        =              1
    Pruning alpha          =              1
    Radial Points          =             75
    Spherical Points       =            302
    Total Points           =          40082
    Total Blocks           =            372
    Max Points             =            254
    Max Functions          =             36
    Weights Tolerance      =       1.00E-15

   => Loading Basis Set <=

    Name: (CC-PVDZ AUX)
    Role: JKFIT
    Keyword: DF_BASIS_SCF
    atoms 1-2 entry S          line   593 file /home/jrodriguesro/psi4conda/share/psi4/basis/cc-pvdz-jkfit.gbs 

   => Loading Basis Set <=

    Name: CC-PVDZ
    Role: ORBITAL
    Keyword: BASIS
    atoms 1-2 entry S          line   598 file /home/jrodriguesro/psi4conda/share/psi4/basis/cc-pvdz.gbs 

  Reading orbitals from file /tmp/singlet_SS.default.409969.180.npy, no projection.

  ==> Integral Setup <==

  DFHelper Memory: AOs need 0.003 GiB; user supplied 5.546 GiB. 
  SCF_SUBTYPE=INCORE selected. In-core MEM_DF algorithm will be used.
  Using in-core AOs.

  ==> MemDFJK: Density-Fitted J/K Matrices <==

    J tasked:                   Yes
    K tasked:                   Yes
    wK tasked:                   No
    OpenMP threads:               5
    Memory [MiB]:              5679
    Algorithm:                 Core
    Schwarz Cutoff:           1E-12
    Mask sparsity (%):       0.0000
    Fitting Condition:        1E-10

   => Auxiliary Basis Set <=

  Basis Set: (CC-PVDZ AUX)
    Blend: CC-PVDZ-JKFIT
    Number of shells: 72
    Number of basis functions: 224
    Number of Cartesian functions: 260
    Spherical Harmonics?: true
    Max angular momentum: 3

  Cached 100.0% of DFT collocation blocks in 0.042 [GiB].

  Minimum eigenvalue in the overlap matrix is 7.3017545686E-03.
  Reciprocal condition number of the overlap matrix is 2.4279652656E-03.
    Using symmetric orthogonalization.

  ==> Pre-Iterations <==

  SCF Guess: Orbitals guess was supplied from a previous computation.

   -------------------------------------------------------
    Irrep   Nso     Nmo     Nalpha   Nbeta   Ndocc  Nsocc
   -------------------------------------------------------
     Ag         9       9       5       5       5       0
     B1g        4       4       2       2       2       0
     B2g        1       1       0       0       0       0
     B3g        4       4       1       1       1       0
     Au         1       1       0       0       0       0
     B1u        4       4       2       2       2       0
     B2u        9       9       4       4       4       0
     B3u        4       4       2       2       2       0
   -------------------------------------------------------
    Total      36      36      16      16      16       0
   -------------------------------------------------------

  ==> Iterations <==

                           Total Energy        Delta E     RMS |[F,P]|

   @DF-UKS iter   0:  -795.22090971323371   -7.95221e+02   5.72919e-03 
   @DF-UKS iter   1:  -795.21411815763588    6.79156e-03   6.21304e-04 ADIIS/DIIS
   @DF-UKS iter   2:  -795.21413984886817   -2.16912e-05   4.64458e-04 ADIIS/DIIS/DAMP=1%
   @DF-UKS iter   3:  -795.21477577225812   -6.35923e-04   2.28083e-05 DIIS/DAMP=1%
   @DF-UKS iter   4:  -795.21416524108929    6.10531e-04   1.44966e-06 DIIS/DAMP=1%
   @DF-UKS iter   5:  -795.21417094639230   -5.70530e-06   8.00511e-08 DIIS/DAMP=1%
   @DF-UKS iter   6:  -795.21416948004105    1.46635e-06   6.34307e-09 DIIS/DAMP=1%
   @DF-UKS iter   7:  -795.21416943479153    4.52495e-08   8.96003e-10 DIIS/DAMP=1%
   @DF-UKS iter   8:  -795.21416944436999   -9.57846e-09   2.93059e-11 DIIS/DAMP=1%
  Energy and wave function converged.


  ==> Post-Iterations <==

   Electrons on quadrature grid:
      Nalpha   =   15.9999974895 ; deviation = -2.510e-06
      Nbeta    =   15.9999974895 ; deviation = -2.510e-06
      Ntotal   =   31.9999949791 ; deviation = -5.021e-06 

   @Spin Contamination Metric:  -2.131628207E-14
   @S^2 Expected:                0.000000000E+00
   @S^2 Observed:               -2.131628207E-14
   @S   Expected:                0.000000000E+00
   @S   Observed:                0.000000000E+00

    Orbital Energies [Eh]
    ---------------------

    Alpha Occupied:                                                       

       1Ag   -88.874600     1B2u  -88.874595     2Ag    -8.038830  
       2B2u   -8.007686     3Ag    -6.029782     1B1u   -5.971859  
       1B3g   -5.962355     1B3u   -5.958971     3B2u   -5.958254  
       1B1g   -5.949567     4Ag    -1.057962     2B1u   -0.537346  
       4B2u   -0.519077     2B3u   -0.511113     5Ag    -0.367063  
       2B1g   -0.108370  

    Alpha Virtual:                                                        

       2B3g   -0.071269     5B2u    0.196114     6Ag     0.220215  
       3B1u    0.243837     3B3u    0.264852     1B2g    0.364198  
       7Ag     0.366466     8Ag     0.462914     3B3g    0.554192  
       6B2u    0.562243     3B1g    0.568499     4B1u    0.589050  
       4B3u    0.609915     1Au     0.763667     7B2u    0.765782  
       8B2u    0.917300     9Ag     1.002213     4B3g    1.273452  
       4B1g    1.298567     9B2u    2.477398  

    Beta Occupied:                                                        

       1Ag   -88.874600     1B2u  -88.874595     2Ag    -8.038830  
       2B2u   -8.007686     3Ag    -6.029782     1B1u   -5.971859  
       1B3g   -5.962355     1B3u   -5.958971     3B2u   -5.958254  
       1B1g   -5.949567     4Ag    -1.057962     2B1u   -0.537346  
       4B2u   -0.519077     2B3u   -0.511113     5Ag    -0.367063  
       2B1g   -0.108370  

    Beta Virtual:                                                         

       2B3g   -0.071269     5B2u    0.196114     6Ag     0.220215  
       3B1u    0.243837     3B3u    0.264852     1B2g    0.364198  
       7Ag     0.366466     8Ag     0.462914     3B3g    0.554192  
       6B2u    0.562243     3B1g    0.568499     4B1u    0.589050  
       4B3u    0.609915     1Au     0.763667     7B2u    0.765782  
       8B2u    0.917300     9Ag     1.002213     4B3g    1.273452  
       4B1g    1.298567     9B2u    2.477398  

    Final Occupation by Irrep:
             Ag   B1g   B2g   B3g    Au   B1u   B2u   B3u 
    DOCC [     5,    2,    0,    1,    0,    2,    4,    2 ]
    SOCC [     0,    0,    0,    0,    0,    0,    0,    0 ]
    NA   [     5,    2,    0,    1,    0,    2,    4,    2 ]
    NB   [     5,    2,    0,    1,    0,    2,    4,    2 ]

  @DF-UKS Final Energy:  -795.21416944436999

   => Energetics <=

    Nuclear Repulsion Energy =            112.1802972535739684
    One-Electron Energy =               -1319.5454320992298562
    Two-Electron Energy =                 454.0647865455590590
    DFT Exchange-Correlation Energy =     -41.9138211442732569
    Empirical Dispersion Energy =           0.0000000000000000
    VV10 Nonlocal Energy =                  0.0000000000000000
    Total Energy =                       -795.2141694443699862

  UHF NO Occupations:
  HONO-2 :    4 Ag 2.0000000
  HONO-1 :    5 Ag 2.0000000
  HONO-0 :    4B2u 2.0000000
  LUNO+0 :    5B2u 0.0000000
  LUNO+1 :    2B3g 0.0000000
  LUNO+2 :    3B3u 0.0000000
  LUNO+3 :    3B1g 0.0000000


Computation Completed


Properties will be evaluated at   0.000000,   0.000000,   0.000000 [a0]

Properties computed using the SCF density matrix


 Multipole Moments:

 ------------------------------------------------------------------------------------
     Multipole            Electronic (a.u.)      Nuclear  (a.u.)        Total (a.u.)
 ------------------------------------------------------------------------------------

 L = 1.  Multiply by 2.5417464519 to convert [e a0] to [Debye]
 Dipole X            :          0.0000000            0.0000000            0.0000000
 Dipole Y            :          0.0000000            0.0000000            0.0000000
 Dipole Z            :          0.0000000            0.0000000            0.0000000
 Magnitude           :                                                    0.0000000

 ------------------------------------------------------------------------------------

*** tstop() called on cics-quant-001 at Tue Dec 23 11:34:01 2025
Module time:
	user time   =       0.75 seconds =       0.01 minutes
	system time =       0.08 seconds =       0.00 minutes
	total time  =          0 seconds =       0.00 minutes
Total time:
	user time   =       1.81 seconds =       0.03 minutes
	system time =       0.29 seconds =       0.00 minutes
	total time  =          1 seconds =       0.02 minutes

*** tstart() called on cics-quant-001
*** at Tue Dec 23 11:34:01 2025


         ------------------------------------------------------------
                                   SCF GRAD                          
                          Rob Parrish, Justin Turney,                
                       Andy Simmonett, and Alex Sokolov              
         ------------------------------------------------------------

  ==> Geometry <==

    Molecular point group: d2h
    Full point group: D_inf_h

    Geometry (in Angstrom), charge = 0, multiplicity = 1:

       Center              X                  Y                   Z               Mass       
    ------------   -----------------  -----------------  -----------------  -----------------
         S           -0.000000000000     0.603801956529     0.000000000000    31.972071174400
         S            0.000000000000    -0.603801956529     0.000000000000    31.972071174400

  Nuclear repulsion =  112.180297253573968

  ==> Basis Set <==

  Basis Set: CC-PVDZ
    Blend: CC-PVDZ
    Number of shells: 16
    Number of basis functions: 36
    Number of Cartesian functions: 38
    Spherical Harmonics?: true
    Max angular momentum: 2

  ==> DFJKGrad: Density-Fitted SCF Gradients <==

    Gradient:                    1
    J tasked:                  Yes
    K tasked:                  Yes
    wK tasked:                  No
    OpenMP threads:              5
    Integrals threads:           5
    Memory [MiB]:             5722
    Schwarz Cutoff:          1E-12
    Fitting Condition:       1E-10

   => Auxiliary Basis Set <=

  Basis Set: (CC-PVDZ AUX)
    Blend: CC-PVDZ-JKFIT
    Number of shells: 72
    Number of basis functions: 224
    Number of Cartesian functions: 260
    Spherical Harmonics?: true
    Max angular momentum: 3

  ==> DFT Potential <==

   => LibXC <=

    Version 7.0.0
    S. Lehtola, C. Steigemann, M. J.T. Oliveira, and M. A.L. Marques.,  SoftwareX 7, 1–5 (2018) (10.1016/j.softx.2017.11.002)

   => Composite Functional: B3LYP <= 

    B3LYP Hyb-GGA Exchange-Correlation Functional

    P. J. Stephens, F. J. Devlin, C. F. Chabalowski, and M. J. Frisch.,  J. Phys. Chem. 98, 11623 (1994) (10.1021/j100096a001)

    Deriv               =              1
    GGA                 =           TRUE
    Meta                =          FALSE

    Exchange Hybrid     =           TRUE
    MP2 Hybrid          =          FALSE

   => Exchange Functionals <=

    0.0800   Slater exchange
    0.7200         Becke 88

   => Exact (HF) Exchange <=

    0.2000               HF 

   => Correlation Functionals <=

    0.1900   Vosko, Wilk & Nusair (VWN5_RPA)
    0.8100   Lee, Yang & Parr

   => LibXC Density Thresholds  <==

    XC_HYB_GGA_XC_B3LYP:  1.00E-15 

   => Molecular Quadrature <=

    Radial Scheme          =       TREUTLER
    Pruning Scheme         =           NONE
    Nuclear Scheme         =       TREUTLER

    Blocking Scheme        =         OCTREE
    BS radius alpha        =              1
    Pruning alpha          =              1
    Radial Points          =             75
    Spherical Points       =            302
    Total Points           =          40082
    Total Blocks           =            372
    Max Points             =            254
    Max Functions          =             36
    Weights Tolerance      =       1.00E-15


  -Total Gradient:
     Atom            X                  Y                   Z
    ------   -----------------  -----------------  -----------------
       1        0.000000000000    -3.031080221125     0.000000000000
       2       -0.000000000000     3.031080221125     0.000000000000


*** tstop() called on cics-quant-001 at Tue Dec 23 11:34:01 2025
Module time:
	user time   =       0.30 seconds =       0.00 minutes
	system time =       0.12 seconds =       0.00 minutes
	total time  =          0 seconds =       0.00 minutes
Total time:
	user time   =       2.11 seconds =       0.04 minutes
	system time =       0.41 seconds =       0.01 minutes
	total time  =          1 seconds =       0.02 minutes

    			-----------------------------------------

    			 OPTKING 3.0: for geometry optimizations 

    			     By R.A. King, Bethel University     

    			        with contributions from          

    			    A.V. Copan, J. Cayton, A. Heide      

    			-----------------------------------------

    
	                            ===> Fragment 1 <== 

	 Z (Atomic Numbers)          Masses                          Geom                  
	      16.000000            31.972071         -0.00000000  1.14102033  0.00000000   
	      16.000000            31.972071          0.00000000 -1.14102033  0.00000000   

	 - Coordinate -           - BOHR/RAD -       - ANG/DEG -
	 R(1,2)           =         2.282041           1.207604


	        --- Internal Coordinate Step in ANG or DEG, aJ/ANG or AJ/DEG ---
	-------------------------------------------------------------------------------
	           Coordinate      Previous         Force          Change          New 
	           ----------      --------        ------          ------        ------
	               R(1,2)       1.20760       24.97223        0.01472       1.22232
	-------------------------------------------------------------------------------

	                                 ==> Convergence Check <==                                  
    
	Measures of convergence in internal coordinates in au.
    
	Criteria marked as inactive (o), active & met (*), and active & unmet ( ).

	----------------------------------------------------------------------------------------------
	   Step    Total Energy     Delta E     Max Force     RMS Force      Max Disp      RMS Disp   
	----------------------------------------------------------------------------------------------
	  Convergence Criteria     1.00e-06 *    3.00e-04 *             o    1.20e-03 *             o
	----------------------------------------------------------------------------------------------
	     2    -795.21416944   -4.43e-02      3.03e+00      3.03e+00 o    2.78e-02      2.78e-02 o  ~
	----------------------------------------------------------------------------------------------

Next Geometry in Ang 
	Fragment 1 (Ang)

	    S  -0.0000000000   0.6111599728   0.0000000000
	    S   0.0000000000  -0.6111599728   0.0000000000


    Structure for next step:
    Molecular point group: d2h
    Full point group: D_inf_h

    Geometry (in Angstrom), charge = 0, multiplicity = 1:

    S           -0.000000000000     0.611159972780     0.000000000000
    S            0.000000000000    -0.611159972780     0.000000000000


Scratch directory: /tmp/
gradient() will perform analytic gradient computation.
   => Libint2 <=

    Primary   basis highest AM E, G, H:  6, 6, 3
    Auxiliary basis highest AM E, G, H:  7, 7, 4
    Onebody   basis highest AM E, G, H:  -, -, -
    Solid Harmonics ordering:            Gaussian

*** tstart() called on cics-quant-001
*** at Tue Dec 23 11:34:01 2025

   => Loading Basis Set <=

    Name: CC-PVDZ
    Role: ORBITAL
    Keyword: BASIS
    atoms 1-2 entry S          line   598 file /home/jrodriguesro/psi4conda/share/psi4/basis/cc-pvdz.gbs 


         ---------------------------------------------------------
                                   SCF
               by Justin Turney, Rob Parrish, Andy Simmonett
                          and Daniel G. A. Smith
                              UKS Reference
                        5 Threads,   7629 MiB Core
         ---------------------------------------------------------

  ==> Geometry <==

    Molecular point group: d2h
    Full point group: D_inf_h

    Geometry (in Angstrom), charge = 0, multiplicity = 1:

       Center              X                  Y                   Z               Mass       
    ------------   -----------------  -----------------  -----------------  -----------------
         S           -0.000000000000     0.611159972780     0.000000000000    31.972071174400
         S            0.000000000000    -0.611159972780     0.000000000000    31.972071174400

  Running in d2h symmetry.

  Rotational constants: A = ************  B =      0.70581  C =      0.70581 [cm^-1]
  Rotational constants: A = ************  B =  21159.55972  C =  21159.55972 [MHz]
  Nuclear repulsion =  110.829710685571868

  Charge       = 0
  Multiplicity = 1
  Electrons    = 32
  Nalpha       = 16
  Nbeta        = 16

  ==> Algorithm <==

  SCF Algorithm Type is DF.
  DIIS enabled.
  MOM disabled.
  Fractional occupation disabled.
  Guess Type is READ.
  Energy threshold   = 1.00e-08
  Density threshold  = 1.00e-08
  Integral threshold = 1.00e-12

  ==> Primary Basis <==

  Basis Set: CC-PVDZ
    Blend: CC-PVDZ
    Number of shells: 16
    Number of basis functions: 36
    Number of Cartesian functions: 38
    Spherical Harmonics?: true
    Max angular momentum: 2

  ==> DFT Potential <==

   => LibXC <=

    Version 7.0.0
    S. Lehtola, C. Steigemann, M. J.T. Oliveira, and M. A.L. Marques.,  SoftwareX 7, 1–5 (2018) (10.1016/j.softx.2017.11.002)

   => Composite Functional: B3LYP <= 

    B3LYP Hyb-GGA Exchange-Correlation Functional

    P. J. Stephens, F. J. Devlin, C. F. Chabalowski, and M. J. Frisch.,  J. Phys. Chem. 98, 11623 (1994) (10.1021/j100096a001)

    Deriv               =              1
    GGA                 =           TRUE
    Meta                =          FALSE

    Exchange Hybrid     =           TRUE
    MP2 Hybrid          =          FALSE

   => Exchange Functionals <=

    0.0800   Slater exchange
    0.7200         Becke 88

   => Exact (HF) Exchange <=

    0.2000               HF 

   => Correlation Functionals <=

    0.1900   Vosko, Wilk & Nusair (VWN5_RPA)
    0.8100   Lee, Yang & Parr

   => LibXC Density Thresholds  <==

    XC_HYB_GGA_XC_B3LYP:  1.00E-15 

   => Molecular Quadrature <=

    Radial Scheme          =       TREUTLER
    Pruning Scheme         =           NONE
    Nuclear Scheme         =       TREUTLER

    Blocking Scheme        =         OCTREE
    BS radius alpha        =              1
    Pruning alpha          =              1
    Radial Points          =             75
    Spherical Points       =            302
    Total Points           =          40082
    Total Blocks           =            372
    Max Points             =            254
    Max Functions          =             36
    Weights Tolerance      =       1.00E-15

   => Loading Basis Set <=

    Name: (CC-PVDZ AUX)
    Role: JKFIT
    Keyword: DF_BASIS_SCF
    atoms 1-2 entry S          line   593 file /home/jrodriguesro/psi4conda/share/psi4/basis/cc-pvdz-jkfit.gbs 

   => Loading Basis Set <=

    Name: CC-PVDZ
    Role: ORBITAL
    Keyword: BASIS
    atoms 1-2 entry S          line   598 file /home/jrodriguesro/psi4conda/share/psi4/basis/cc-pvdz.gbs 

  Reading orbitals from file /tmp/singlet_SS.default.409969.180.npy, no projection.

  ==> Integral Setup <==

  DFHelper Memory: AOs need 0.003 GiB; user supplied 5.546 GiB. 
  SCF_SUBTYPE=INCORE selected. In-core MEM_DF algorithm will be used.
  Using in-core AOs.

  ==> MemDFJK: Density-Fitted J/K Matrices <==

    J tasked:                   Yes
    K tasked:                   Yes
    wK tasked:                   No
    OpenMP threads:               5
    Memory [MiB]:              5679
    Algorithm:                 Core
    Schwarz Cutoff:           1E-12
    Mask sparsity (%):       0.0000
    Fitting Condition:        1E-10

   => Auxiliary Basis Set <=

  Basis Set: (CC-PVDZ AUX)
    Blend: CC-PVDZ-JKFIT
    Number of shells: 72
    Number of basis functions: 224
    Number of Cartesian functions: 260
    Spherical Harmonics?: true
    Max angular momentum: 3

  Cached 100.0% of DFT collocation blocks in 0.042 [GiB].

  Minimum eigenvalue in the overlap matrix is 7.5531516469E-03.
  Reciprocal condition number of the overlap matrix is 2.5167883127E-03.
    Using symmetric orthogonalization.

  ==> Pre-Iterations <==

  SCF Guess: Orbitals guess was supplied from a previous computation.

   -------------------------------------------------------
    Irrep   Nso     Nmo     Nalpha   Nbeta   Ndocc  Nsocc
   -------------------------------------------------------
     Ag         9       9       5       5       5       0
     B1g        4       4       2       2       2       0
     B2g        1       1       0       0       0       0
     B3g        4       4       1       1       1       0
     Au         1       1       0       0       0       0
     B1u        4       4       2       2       2       0
     B2u        9       9       4       4       4       0
     B3u        4       4       2       2       2       0
   -------------------------------------------------------
    Total      36      36      16      16      16       0
   -------------------------------------------------------

  ==> Iterations <==

                           Total Energy        Delta E     RMS |[F,P]|

   @DF-UKS iter   0:  -795.30850691814635   -7.95309e+02   1.09023e-02 
   @DF-UKS iter   1:  -795.29568970695993    1.28172e-02   1.15618e-03 ADIIS/DIIS
   @DF-UKS iter   2:  -795.29576484857841   -7.51416e-05   8.60896e-04 ADIIS/DIIS/DAMP=1%
   @DF-UKS iter   3:  -795.29698768359174   -1.22284e-03   4.43736e-05 DIIS/DAMP=1%
   @DF-UKS iter   4:  -795.29585825478136    1.12943e-03   2.57562e-06 DIIS/DAMP=1%
   @DF-UKS iter   5:  -795.29586940023160   -1.11455e-05   1.57301e-07 DIIS/DAMP=1%
   @DF-UKS iter   6:  -795.29586690432200    2.49591e-06   1.27397e-08 DIIS/DAMP=1%
   @DF-UKS iter   7:  -795.29586681161743    9.27046e-08   1.64117e-09 DIIS/DAMP=1%
   @DF-UKS iter   8:  -795.29586683094465   -1.93272e-08   5.35035e-11 DIIS/DAMP=1%
   @DF-UKS iter   9:  -795.29586682926652    1.67813e-09   1.00889e-11 DIIS/DAMP=1%
  Energy and wave function converged.


  ==> Post-Iterations <==

   Electrons on quadrature grid:
      Nalpha   =   15.9999977066 ; deviation = -2.293e-06
      Nbeta    =   15.9999977066 ; deviation = -2.293e-06
      Ntotal   =   31.9999954132 ; deviation = -4.587e-06 

   @Spin Contamination Metric:  -1.776356839E-14
   @S^2 Expected:                0.000000000E+00
   @S^2 Observed:               -1.776356839E-14
   @S   Expected:                0.000000000E+00
   @S   Observed:                0.000000000E+00

    Orbital Energies [Eh]
    ---------------------

    Alpha Occupied:                                                       

       1Ag   -88.872875     1B2u  -88.872871     2Ag    -8.030820  
       2B2u   -8.003090     3Ag    -6.019792     1B1u   -5.966709  
       1B3g   -5.958185     3B2u   -5.954543     1B3u   -5.953784  
       1B1g   -5.945352     4Ag    -1.054959     2B1u   -0.531115  
       4B2u   -0.520624     2B3u   -0.505151     5Ag    -0.369484  
       2B1g   -0.110615  

    Alpha Virtual:                                                        

       2B3g   -0.073586     5B2u    0.194250     6Ag     0.219139  
       3B1u    0.246909     3B3u    0.267951     1B2g    0.369455  
       7Ag     0.371680     8Ag     0.462904     3B3g    0.553579  
       6B2u    0.557484     3B1g    0.567951     4B1u    0.585888  
       4B3u    0.606762     1Au     0.759926     7B2u    0.762026  
       8B2u    0.914101     9Ag     0.998521     4B3g    1.259936  
       4B1g    1.285042     9B2u    2.416640  

    Beta Occupied:                                                        

       1Ag   -88.872875     1B2u  -88.872871     2Ag    -8.030820  
       2B2u   -8.003090     3Ag    -6.019792     1B1u   -5.966709  
       1B3g   -5.958185     3B2u   -5.954543     1B3u   -5.953784  
       1B1g   -5.945352     4Ag    -1.054959     2B1u   -0.531115  
       4B2u   -0.520624     2B3u   -0.505151     5Ag    -0.369484  
       2B1g   -0.110615  

    Beta Virtual:                                                         

       2B3g   -0.073586     5B2u    0.194250     6Ag     0.219139  
       3B1u    0.246909     3B3u    0.267951     1B2g    0.369455  
       7Ag     0.371680     8Ag     0.462904     3B3g    0.553579  
       6B2u    0.557484     3B1g    0.567951     4B1u    0.585888  
       4B3u    0.606762     1Au     0.759926     7B2u    0.762026  
       8B2u    0.914101     9Ag     0.998521     4B3g    1.259936  
       4B1g    1.285042     9B2u    2.416640  

    Final Occupation by Irrep:
             Ag   B1g   B2g   B3g    Au   B1u   B2u   B3u 
    DOCC [     5,    2,    0,    1,    0,    2,    4,    2 ]
    SOCC [     0,    0,    0,    0,    0,    0,    0,    0 ]
    NA   [     5,    2,    0,    1,    0,    2,    4,    2 ]
    NB   [     5,    2,    0,    1,    0,    2,    4,    2 ]

  @DF-UKS Final Energy:  -795.29586682926652

   => Energetics <=

    Nuclear Repulsion Energy =            110.8297106855718681
    One-Electron Energy =               -1317.1353740481449677
    Two-Electron Energy =                 452.9047857123366043
    DFT Exchange-Correlation Energy =     -41.8949891790299915
    Empirical Dispersion Energy =           0.0000000000000000
    VV10 Nonlocal Energy =                  0.0000000000000000
    Total Energy =                       -795.2958668292664015

  UHF NO Occupations:
  HONO-2 :    4 Ag 2.0000000
  HONO-1 :    2B1g 2.0000000
  HONO-0 :    5 Ag 2.0000000
  LUNO+0 :    2B3g 0.0000000
  LUNO+1 :    6 Ag 0.0000000
  LUNO+2 :    5B2u 0.0000000
  LUNO+3 :    7 Ag 0.0000000


Computation Completed


Properties will be evaluated at   0.000000,   0.000000,   0.000000 [a0]

Properties computed using the SCF density matrix


 Multipole Moments:

 ------------------------------------------------------------------------------------
     Multipole            Electronic (a.u.)      Nuclear  (a.u.)        Total (a.u.)
 ------------------------------------------------------------------------------------

 L = 1.  Multiply by 2.5417464519 to convert [e a0] to [Debye]
 Dipole X            :          0.0000000            0.0000000            0.0000000
 Dipole Y            :          0.0000000            0.0000000            0.0000000
 Dipole Z            :          0.0000000            0.0000000            0.0000000
 Magnitude           :                                                    0.0000000

 ------------------------------------------------------------------------------------

*** tstop() called on cics-quant-001 at Tue Dec 23 11:34:02 2025
Module time:
	user time   =       1.12 seconds =       0.02 minutes
	system time =       0.10 seconds =       0.00 minutes
	total time  =          1 seconds =       0.02 minutes
Total time:
	user time   =       3.25 seconds =       0.05 minutes
	system time =       0.51 seconds =       0.01 minutes
	total time  =          2 seconds =       0.03 minutes

*** tstart() called on cics-quant-001
*** at Tue Dec 23 11:34:02 2025


         ------------------------------------------------------------
                                   SCF GRAD                          
                          Rob Parrish, Justin Turney,                
                       Andy Simmonett, and Alex Sokolov              
         ------------------------------------------------------------

  ==> Geometry <==

    Molecular point group: d2h
    Full point group: D_inf_h

    Geometry (in Angstrom), charge = 0, multiplicity = 1:

       Center              X                  Y                   Z               Mass       
    ------------   -----------------  -----------------  -----------------  -----------------
         S           -0.000000000000     0.611159972780     0.000000000000    31.972071174400
         S            0.000000000000    -0.611159972780     0.000000000000    31.972071174400

  Nuclear repulsion =  110.829710685571868

  ==> Basis Set <==

  Basis Set: CC-PVDZ
    Blend: CC-PVDZ
    Number of shells: 16
    Number of basis functions: 36
    Number of Cartesian functions: 38
    Spherical Harmonics?: true
    Max angular momentum: 2

  ==> DFJKGrad: Density-Fitted SCF Gradients <==

    Gradient:                    1
    J tasked:                  Yes
    K tasked:                  Yes
    wK tasked:                  No
    OpenMP threads:              5
    Integrals threads:           5
    Memory [MiB]:             5722
    Schwarz Cutoff:          1E-12
    Fitting Condition:       1E-10

   => Auxiliary Basis Set <=

  Basis Set: (CC-PVDZ AUX)
    Blend: CC-PVDZ-JKFIT
    Number of shells: 72
    Number of basis functions: 224
    Number of Cartesian functions: 260
    Spherical Harmonics?: true
    Max angular momentum: 3

  ==> DFT Potential <==

   => LibXC <=

    Version 7.0.0
    S. Lehtola, C. Steigemann, M. J.T. Oliveira, and M. A.L. Marques.,  SoftwareX 7, 1–5 (2018) (10.1016/j.softx.2017.11.002)

   => Composite Functional: B3LYP <= 

    B3LYP Hyb-GGA Exchange-Correlation Functional

    P. J. Stephens, F. J. Devlin, C. F. Chabalowski, and M. J. Frisch.,  J. Phys. Chem. 98, 11623 (1994) (10.1021/j100096a001)

    Deriv               =              1
    GGA                 =           TRUE
    Meta                =          FALSE

    Exchange Hybrid     =           TRUE
    MP2 Hybrid          =          FALSE

   => Exchange Functionals <=

    0.0800   Slater exchange
    0.7200         Becke 88

   => Exact (HF) Exchange <=

    0.2000               HF 

   => Correlation Functionals <=

    0.1900   Vosko, Wilk & Nusair (VWN5_RPA)
    0.8100   Lee, Yang & Parr

   => LibXC Density Thresholds  <==

    XC_HYB_GGA_XC_B3LYP:  1.00E-15 

   => Molecular Quadrature <=

    Radial Scheme          =       TREUTLER
    Pruning Scheme         =           NONE
    Nuclear Scheme         =       TREUTLER

    Blocking Scheme        =         OCTREE
    BS radius alpha        =              1
    Pruning alpha          =              1
    Radial Points          =             75
    Spherical Points       =            302
    Total Points           =          40082
    Total Blocks           =            372
    Max Points             =            254
    Max Functions          =             36
    Weights Tolerance      =       1.00E-15


  -Total Gradient:
     Atom            X                  Y                   Z
    ------   -----------------  -----------------  -----------------
       1        0.000000000000    -2.846091824538     0.000000000000
       2       -0.000000000000     2.846091824538    -0.000000000000


*** tstop() called on cics-quant-001 at Tue Dec 23 11:34:02 2025
Module time:
	user time   =       0.24 seconds =       0.00 minutes
	system time =       0.13 seconds =       0.00 minutes
	total time  =          0 seconds =       0.00 minutes
Total time:
	user time   =       3.49 seconds =       0.06 minutes
	system time =       0.64 seconds =       0.01 minutes
	total time  =          2 seconds =       0.03 minutes

    			-----------------------------------------

    			 OPTKING 3.0: for geometry optimizations 

    			     By R.A. King, Bethel University     

    			        with contributions from          

    			    A.V. Copan, J. Cayton, A. Heide      

    			-----------------------------------------

    
	                            ===> Fragment 1 <== 

	 Z (Atomic Numbers)          Masses                          Geom                  
	      16.000000            31.972071         -0.00000000  1.15492497  0.00000000   
	      16.000000            31.972071          0.00000000 -1.15492497  0.00000000   

	 - Coordinate -           - BOHR/RAD -       - ANG/DEG -
	 R(1,2)           =         2.309850           1.222320


	        --- Internal Coordinate Step in ANG or DEG, aJ/ANG or AJ/DEG ---
	-------------------------------------------------------------------------------
	           Coordinate      Previous         Force          Change          New 
	           ----------      --------        ------          ------        ------
	               R(1,2)       1.22232       23.44816        0.05472       1.27704
	-------------------------------------------------------------------------------

	                                 ==> Convergence Check <==                                  
    
	Measures of convergence in internal coordinates in au.
    
	Criteria marked as inactive (o), active & met (*), and active & unmet ( ).

	----------------------------------------------------------------------------------------------
	   Step    Total Energy     Delta E     Max Force     RMS Force      Max Disp      RMS Disp   
	----------------------------------------------------------------------------------------------
	  Convergence Criteria     1.00e-06 *    3.00e-04 *             o    1.20e-03 *             o
	----------------------------------------------------------------------------------------------
	     3    -795.29586683   -8.17e-02      2.85e+00      2.85e+00 o    1.03e-01      1.03e-01 o  ~
	----------------------------------------------------------------------------------------------

Next Geometry in Ang 
	Fragment 1 (Ang)

	    S  -0.0000000000   0.6385214095   0.0000000000
	    S   0.0000000000  -0.6385214095   0.0000000000


    Structure for next step:
    Molecular point group: d2h
    Full point group: D_inf_h

    Geometry (in Angstrom), charge = 0, multiplicity = 1:

    S           -0.000000000000     0.638521409529     0.000000000000
    S            0.000000000000    -0.638521409529     0.000000000000


Scratch directory: /tmp/
gradient() will perform analytic gradient computation.
   => Libint2 <=

    Primary   basis highest AM E, G, H:  6, 6, 3
    Auxiliary basis highest AM E, G, H:  7, 7, 4
    Onebody   basis highest AM E, G, H:  -, -, -
    Solid Harmonics ordering:            Gaussian

*** tstart() called on cics-quant-001
*** at Tue Dec 23 11:34:02 2025

   => Loading Basis Set <=

    Name: CC-PVDZ
    Role: ORBITAL
    Keyword: BASIS
    atoms 1-2 entry S          line   598 file /home/jrodriguesro/psi4conda/share/psi4/basis/cc-pvdz.gbs 


         ---------------------------------------------------------
                                   SCF
               by Justin Turney, Rob Parrish, Andy Simmonett
                          and Daniel G. A. Smith
                              UKS Reference
                        5 Threads,   7629 MiB Core
         ---------------------------------------------------------

  ==> Geometry <==

    Molecular point group: d2h
    Full point group: D_inf_h

    Geometry (in Angstrom), charge = 0, multiplicity = 1:

       Center              X                  Y                   Z               Mass       
    ------------   -----------------  -----------------  -----------------  -----------------
         S           -0.000000000000     0.638521409529     0.000000000000    31.972071174400
         S            0.000000000000    -0.638521409529     0.000000000000    31.972071174400

  Running in d2h symmetry.

  Rotational constants: A = ************  B =      0.64661  C =      0.64661 [cm^-1]
  Rotational constants: A = ************  B =  19384.98660  C =  19384.98660 [MHz]
  Nuclear repulsion =  106.080519705256052

  Charge       = 0
  Multiplicity = 1
  Electrons    = 32
  Nalpha       = 16
  Nbeta        = 16

  ==> Algorithm <==

  SCF Algorithm Type is DF.
  DIIS enabled.
  MOM disabled.
  Fractional occupation disabled.
  Guess Type is READ.
  Energy threshold   = 1.00e-08
  Density threshold  = 1.00e-08
  Integral threshold = 1.00e-12

  ==> Primary Basis <==

  Basis Set: CC-PVDZ
    Blend: CC-PVDZ
    Number of shells: 16
    Number of basis functions: 36
    Number of Cartesian functions: 38
    Spherical Harmonics?: true
    Max angular momentum: 2

  ==> DFT Potential <==

   => LibXC <=

    Version 7.0.0
    S. Lehtola, C. Steigemann, M. J.T. Oliveira, and M. A.L. Marques.,  SoftwareX 7, 1–5 (2018) (10.1016/j.softx.2017.11.002)

   => Composite Functional: B3LYP <= 

    B3LYP Hyb-GGA Exchange-Correlation Functional

    P. J. Stephens, F. J. Devlin, C. F. Chabalowski, and M. J. Frisch.,  J. Phys. Chem. 98, 11623 (1994) (10.1021/j100096a001)

    Deriv               =              1
    GGA                 =           TRUE
    Meta                =          FALSE

    Exchange Hybrid     =           TRUE
    MP2 Hybrid          =          FALSE

   => Exchange Functionals <=

    0.0800   Slater exchange
    0.7200         Becke 88

   => Exact (HF) Exchange <=

    0.2000               HF 

   => Correlation Functionals <=

    0.1900   Vosko, Wilk & Nusair (VWN5_RPA)
    0.8100   Lee, Yang & Parr

   => LibXC Density Thresholds  <==

    XC_HYB_GGA_XC_B3LYP:  1.00E-15 

   => Molecular Quadrature <=

    Radial Scheme          =       TREUTLER
    Pruning Scheme         =           NONE
    Nuclear Scheme         =       TREUTLER

    Blocking Scheme        =         OCTREE
    BS radius alpha        =              1
    Pruning alpha          =              1
    Radial Points          =             75
    Spherical Points       =            302
    Total Points           =          40090
    Total Blocks           =            370
    Max Points             =            255
    Max Functions          =             36
    Weights Tolerance      =       1.00E-15

   => Loading Basis Set <=

    Name: (CC-PVDZ AUX)
    Role: JKFIT
    Keyword: DF_BASIS_SCF
    atoms 1-2 entry S          line   593 file /home/jrodriguesro/psi4conda/share/psi4/basis/cc-pvdz-jkfit.gbs 

   => Loading Basis Set <=

    Name: CC-PVDZ
    Role: ORBITAL
    Keyword: BASIS
    atoms 1-2 entry S          line   598 file /home/jrodriguesro/psi4conda/share/psi4/basis/cc-pvdz.gbs 

  Reading orbitals from file /tmp/singlet_SS.default.409969.180.npy, no projection.

  ==> Integral Setup <==

  DFHelper Memory: AOs need 0.003 GiB; user supplied 5.546 GiB. 
  SCF_SUBTYPE=INCORE selected. In-core MEM_DF algorithm will be used.
  Using in-core AOs.

  ==> MemDFJK: Density-Fitted J/K Matrices <==

    J tasked:                   Yes
    K tasked:                   Yes
    wK tasked:                   No
    OpenMP threads:               5
    Memory [MiB]:              5679
    Algorithm:                 Core
    Schwarz Cutoff:           1E-12
    Mask sparsity (%):       0.0000
    Fitting Condition:        1E-10

   => Auxiliary Basis Set <=

  Basis Set: (CC-PVDZ AUX)
    Blend: CC-PVDZ-JKFIT
    Number of shells: 72
    Number of basis functions: 224
    Number of Cartesian functions: 260
    Spherical Harmonics?: true
    Max angular momentum: 3

  Cached 100.0% of DFT collocation blocks in 0.042 [GiB].

  Minimum eigenvalue in the overlap matrix is 8.5334588390E-03.
  Reciprocal condition number of the overlap matrix is 2.8697480034E-03.
    Using symmetric orthogonalization.

  ==> Pre-Iterations <==

  SCF Guess: Orbitals guess was supplied from a previous computation.

   -------------------------------------------------------
    Irrep   Nso     Nmo     Nalpha   Nbeta   Ndocc  Nsocc
   -------------------------------------------------------
     Ag         9       9       5       5       5       0
     B1g        4       4       2       2       2       0
     B2g        1       1       0       0       0       0
     B3g        4       4       1       1       1       0
     Au         1       1       0       0       0       0
     B1u        4       4       2       2       2       0
     B2u        9       9       4       4       4       0
     B3u        4       4       2       2       2       0
   -------------------------------------------------------
    Total      36      36      16      16      16       0
   -------------------------------------------------------

  ==> Iterations <==

                           Total Energy        Delta E     RMS |[F,P]|

   @DF-UKS iter   0:  -795.60565042781127   -7.95606e+02   3.85306e-02 
   @DF-UKS iter   1:  -795.55586890285178    4.97815e-02   3.83712e-03 ADIIS/DIIS
   @DF-UKS iter   2:  -795.55670113168026   -8.32229e-04   2.81299e-03 ADIIS/DIIS/DAMP=1%
   @DF-UKS iter   3:  -795.56142196045903   -4.72083e-03   1.70062e-04 ADIIS/DIIS/DAMP=1%
   @DF-UKS iter   4:  -795.55776736822543    3.65459e-03   7.47987e-06 DIIS/DAMP=1%
   @DF-UKS iter   5:  -795.55780779622432   -4.04280e-05   6.12463e-07 DIIS/DAMP=1%
   @DF-UKS iter   6:  -795.55780164754879    6.14868e-06   4.78553e-08 DIIS/DAMP=1%
   @DF-UKS iter   7:  -795.55780132186919    3.25680e-07   5.24155e-09 DIIS/DAMP=1%
   @DF-UKS iter   8:  -795.55780139249373   -7.06245e-08   1.94156e-10 DIIS/DAMP=1%
   @DF-UKS iter   9:  -795.55780138787838    4.61534e-09   3.24039e-11 DIIS/DAMP=1%
  Energy and wave function converged.


  ==> Post-Iterations <==

   Electrons on quadrature grid:
      Nalpha   =   15.9999989917 ; deviation = -1.008e-06
      Nbeta    =   15.9999989917 ; deviation = -1.008e-06
      Ntotal   =   31.9999979833 ; deviation = -2.017e-06 

   @Spin Contamination Metric:   7.105427358E-15
   @S^2 Expected:                0.000000000E+00
   @S^2 Observed:                7.105427358E-15
   @S   Expected:                0.000000000E+00
   @S   Observed:                0.000000000E+00

    Orbital Energies [Eh]
    ---------------------

    Alpha Occupied:                                                       

       1Ag   -88.870218     1B2u  -88.870214     2Ag    -8.007908  
       2B2u   -7.989887     3Ag    -5.990138     1B1u   -5.952329  
       1B3g   -5.946638     3B2u   -5.943983     1B3u   -5.939254  
       1B1g   -5.933633     4Ag    -1.041755     4B2u   -0.526743  
       2B1u   -0.509317     2B3u   -0.484351     5Ag    -0.377043  
       2B1g   -0.119209  

    Alpha Virtual:                                                        

       2B3g   -0.082436     5B2u    0.186339     6Ag     0.216973  
       3B1u    0.258568     3B3u    0.279721     1B2g    0.387943  
       7Ag     0.390046     8Ag     0.462648     6B2u    0.540623  
       3B3g    0.550723     3B1g    0.565332     4B1u    0.574190  
       4B3u    0.595103     1Au     0.746189     7B2u    0.748233  
       8B2u    0.901688     9Ag     0.986526     4B3g    1.211780  
       4B1g    1.236844     9B2u    2.219421  

    Beta Occupied:                                                        

       1Ag   -88.870218     1B2u  -88.870214     2Ag    -8.007908  
       2B2u   -7.989887     3Ag    -5.990138     1B1u   -5.952329  
       1B3g   -5.946638     3B2u   -5.943983     1B3u   -5.939254  
       1B1g   -5.933633     4Ag    -1.041755     4B2u   -0.526743  
       2B1u   -0.509317     2B3u   -0.484351     5Ag    -0.377043  
       2B1g   -0.119209  

    Beta Virtual:                                                         

       2B3g   -0.082436     5B2u    0.186339     6Ag     0.216973  
       3B1u    0.258568     3B3u    0.279721     1B2g    0.387943  
       7Ag     0.390046     8Ag     0.462648     6B2u    0.540623  
       3B3g    0.550723     3B1g    0.565332     4B1u    0.574190  
       4B3u    0.595103     1Au     0.746189     7B2u    0.748233  
       8B2u    0.901688     9Ag     0.986526     4B3g    1.211780  
       4B1g    1.236844     9B2u    2.219421  

    Final Occupation by Irrep:
             Ag   B1g   B2g   B3g    Au   B1u   B2u   B3u 
    DOCC [     5,    2,    0,    1,    0,    2,    4,    2 ]
    SOCC [     0,    0,    0,    0,    0,    0,    0,    0 ]
    NA   [     5,    2,    0,    1,    0,    2,    4,    2 ]
    NB   [     5,    2,    0,    1,    0,    2,    4,    2 ]

  @DF-UKS Final Energy:  -795.55780138787838

   => Energetics <=

    Nuclear Repulsion Energy =            106.0805197052560516
    One-Electron Energy =               -1308.5411884769216613
    Two-Electron Energy =                 448.7306908299846100
    DFT Exchange-Correlation Energy =     -41.8278234461974634
    Empirical Dispersion Energy =           0.0000000000000000
    VV10 Nonlocal Energy =                  0.0000000000000000
    Total Energy =                       -795.5578013878783850

  UHF NO Occupations:
  HONO-2 :    5 Ag 2.0000000
  HONO-1 :    2B1u 2.0000000
  HONO-0 :    4B2u 2.0000000
  LUNO+0 :    6 Ag 0.0000000
  LUNO+1 :    3B1u 0.0000000
  LUNO+2 :    2B3g 0.0000000
  LUNO+3 :    7 Ag 0.0000000


Computation Completed


Properties will be evaluated at   0.000000,   0.000000,   0.000000 [a0]

Properties computed using the SCF density matrix


 Multipole Moments:

 ------------------------------------------------------------------------------------
     Multipole            Electronic (a.u.)      Nuclear  (a.u.)        Total (a.u.)
 ------------------------------------------------------------------------------------

 L = 1.  Multiply by 2.5417464519 to convert [e a0] to [Debye]
 Dipole X            :          0.0000000            0.0000000            0.0000000
 Dipole Y            :          0.0000000            0.0000000            0.0000000
 Dipole Z            :          0.0000000            0.0000000            0.0000000
 Magnitude           :                                                    0.0000000

 ------------------------------------------------------------------------------------

*** tstop() called on cics-quant-001 at Tue Dec 23 11:34:02 2025
Module time:
	user time   =       0.72 seconds =       0.01 minutes
	system time =       0.08 seconds =       0.00 minutes
	total time  =          0 seconds =       0.00 minutes
Total time:
	user time   =       4.23 seconds =       0.07 minutes
	system time =       0.72 seconds =       0.01 minutes
	total time  =          2 seconds =       0.03 minutes

*** tstart() called on cics-quant-001
*** at Tue Dec 23 11:34:02 2025


         ------------------------------------------------------------
                                   SCF GRAD                          
                          Rob Parrish, Justin Turney,                
                       Andy Simmonett, and Alex Sokolov              
         ------------------------------------------------------------

  ==> Geometry <==

    Molecular point group: d2h
    Full point group: D_inf_h

    Geometry (in Angstrom), charge = 0, multiplicity = 1:

       Center              X                  Y                   Z               Mass       
    ------------   -----------------  -----------------  -----------------  -----------------
         S           -0.000000000000     0.638521409529     0.000000000000    31.972071174400
         S            0.000000000000    -0.638521409529     0.000000000000    31.972071174400

  Nuclear repulsion =  106.080519705256052

  ==> Basis Set <==

  Basis Set: CC-PVDZ
    Blend: CC-PVDZ
    Number of shells: 16
    Number of basis functions: 36
    Number of Cartesian functions: 38
    Spherical Harmonics?: true
    Max angular momentum: 2

  ==> DFJKGrad: Density-Fitted SCF Gradients <==

    Gradient:                    1
    J tasked:                  Yes
    K tasked:                  Yes
    wK tasked:                  No
    OpenMP threads:              5
    Integrals threads:           5
    Memory [MiB]:             5722
    Schwarz Cutoff:          1E-12
    Fitting Condition:       1E-10

   => Auxiliary Basis Set <=

  Basis Set: (CC-PVDZ AUX)
    Blend: CC-PVDZ-JKFIT
    Number of shells: 72
    Number of basis functions: 224
    Number of Cartesian functions: 260
    Spherical Harmonics?: true
    Max angular momentum: 3

  ==> DFT Potential <==

   => LibXC <=

    Version 7.0.0
    S. Lehtola, C. Steigemann, M. J.T. Oliveira, and M. A.L. Marques.,  SoftwareX 7, 1–5 (2018) (10.1016/j.softx.2017.11.002)

   => Composite Functional: B3LYP <= 

    B3LYP Hyb-GGA Exchange-Correlation Functional

    P. J. Stephens, F. J. Devlin, C. F. Chabalowski, and M. J. Frisch.,  J. Phys. Chem. 98, 11623 (1994) (10.1021/j100096a001)

    Deriv               =              1
    GGA                 =           TRUE
    Meta                =          FALSE

    Exchange Hybrid     =           TRUE
    MP2 Hybrid          =          FALSE

   => Exchange Functionals <=

    0.0800   Slater exchange
    0.7200         Becke 88

   => Exact (HF) Exchange <=

    0.2000               HF 

   => Correlation Functionals <=

    0.1900   Vosko, Wilk & Nusair (VWN5_RPA)
    0.8100   Lee, Yang & Parr

   => LibXC Density Thresholds  <==

    XC_HYB_GGA_XC_B3LYP:  1.00E-15 

   => Molecular Quadrature <=

    Radial Scheme          =       TREUTLER
    Pruning Scheme         =           NONE
    Nuclear Scheme         =       TREUTLER

    Blocking Scheme        =         OCTREE
    BS radius alpha        =              1
    Pruning alpha          =              1
    Radial Points          =             75
    Spherical Points       =            302
    Total Points           =          40090
    Total Blocks           =            370
    Max Points             =            255
    Max Functions          =             36
    Weights Tolerance      =       1.00E-15


  -Total Gradient:
     Atom            X                  Y                   Z
    ------   -----------------  -----------------  -----------------
       1        0.000000000000    -2.240505424850     0.000000000000
       2       -0.000000000000     2.240505424850     0.000000000000


*** tstop() called on cics-quant-001 at Tue Dec 23 11:34:03 2025
Module time:
	user time   =       0.29 seconds =       0.00 minutes
	system time =       0.11 seconds =       0.00 minutes
	total time  =          1 seconds =       0.02 minutes
Total time:
	user time   =       4.52 seconds =       0.08 minutes
	system time =       0.83 seconds =       0.01 minutes
	total time  =          3 seconds =       0.05 minutes

    			-----------------------------------------

    			 OPTKING 3.0: for geometry optimizations 

    			     By R.A. King, Bethel University     

    			        with contributions from          

    			    A.V. Copan, J. Cayton, A. Heide      

    			-----------------------------------------

    
	                            ===> Fragment 1 <== 

	 Z (Atomic Numbers)          Masses                          Geom                  
	      16.000000            31.972071         -0.00000000  1.20663059  0.00000000   
	      16.000000            31.972071          0.00000000 -1.20663059  0.00000000   

	 - Coordinate -           - BOHR/RAD -       - ANG/DEG -
	 R(1,2)           =         2.413261           1.277043


	        --- Internal Coordinate Step in ANG or DEG, aJ/ANG or AJ/DEG ---
	-------------------------------------------------------------------------------
	           Coordinate      Previous         Force          Change          New 
	           ----------      --------        ------          ------        ------
	               R(1,2)       1.27704       18.45890        0.17316       1.45021
	-------------------------------------------------------------------------------

	                                 ==> Convergence Check <==                                  
    
	Measures of convergence in internal coordinates in au.
    
	Criteria marked as inactive (o), active & met (*), and active & unmet ( ).

	----------------------------------------------------------------------------------------------
	   Step    Total Energy     Delta E     Max Force     RMS Force      Max Disp      RMS Disp   
	----------------------------------------------------------------------------------------------
	  Convergence Criteria     1.00e-06 *    3.00e-04 *             o    1.20e-03 *             o
	----------------------------------------------------------------------------------------------
	     4    -795.55780139   -2.62e-01      2.24e+00      2.24e+00 o    3.27e-01      3.27e-01 o  ~
	----------------------------------------------------------------------------------------------

Next Geometry in Ang 
	Fragment 1 (Ang)

	    S  -0.0000000000   0.7251028667   0.0000000000
	    S   0.0000000000  -0.7251028667   0.0000000000


    Structure for next step:
    Molecular point group: d2h
    Full point group: D_inf_h

    Geometry (in Angstrom), charge = 0, multiplicity = 1:

    S           -0.000000000000     0.725102866700     0.000000000000
    S            0.000000000000    -0.725102866700     0.000000000000


Scratch directory: /tmp/
gradient() will perform analytic gradient computation.
   => Libint2 <=

    Primary   basis highest AM E, G, H:  6, 6, 3
    Auxiliary basis highest AM E, G, H:  7, 7, 4
    Onebody   basis highest AM E, G, H:  -, -, -
    Solid Harmonics ordering:            Gaussian

*** tstart() called on cics-quant-001
*** at Tue Dec 23 11:34:03 2025

   => Loading Basis Set <=

    Name: CC-PVDZ
    Role: ORBITAL
    Keyword: BASIS
    atoms 1-2 entry S          line   598 file /home/jrodriguesro/psi4conda/share/psi4/basis/cc-pvdz.gbs 


         ---------------------------------------------------------
                                   SCF
               by Justin Turney, Rob Parrish, Andy Simmonett
                          and Daniel G. A. Smith
                              UKS Reference
                        5 Threads,   7629 MiB Core
         ---------------------------------------------------------

  ==> Geometry <==

    Molecular point group: d2h
    Full point group: D_inf_h

    Geometry (in Angstrom), charge = 0, multiplicity = 1:

       Center              X                  Y                   Z               Mass       
    ------------   -----------------  -----------------  -----------------  -----------------
         S           -0.000000000000     0.725102866700     0.000000000000    31.972071174400
         S            0.000000000000    -0.725102866700     0.000000000000    31.972071174400

  Running in d2h symmetry.

  Rotational constants: A = ************  B =      0.50141  C =      0.50141 [cm^-1]
  Rotational constants: A = ************  B =  15032.01458  C =  15032.01458 [MHz]
  Nuclear repulsion =   93.413894878137242

  Charge       = 0
  Multiplicity = 1
  Electrons    = 32
  Nalpha       = 16
  Nbeta        = 16

  ==> Algorithm <==

  SCF Algorithm Type is DF.
  DIIS enabled.
  MOM disabled.
  Fractional occupation disabled.
  Guess Type is READ.
  Energy threshold   = 1.00e-08
  Density threshold  = 1.00e-08
  Integral threshold = 1.00e-12

  ==> Primary Basis <==

  Basis Set: CC-PVDZ
    Blend: CC-PVDZ
    Number of shells: 16
    Number of basis functions: 36
    Number of Cartesian functions: 38
    Spherical Harmonics?: true
    Max angular momentum: 2

  ==> DFT Potential <==

   => LibXC <=

    Version 7.0.0
    S. Lehtola, C. Steigemann, M. J.T. Oliveira, and M. A.L. Marques.,  SoftwareX 7, 1–5 (2018) (10.1016/j.softx.2017.11.002)

   => Composite Functional: B3LYP <= 

    B3LYP Hyb-GGA Exchange-Correlation Functional

    P. J. Stephens, F. J. Devlin, C. F. Chabalowski, and M. J. Frisch.,  J. Phys. Chem. 98, 11623 (1994) (10.1021/j100096a001)

    Deriv               =              1
    GGA                 =           TRUE
    Meta                =          FALSE

    Exchange Hybrid     =           TRUE
    MP2 Hybrid          =          FALSE

   => Exchange Functionals <=

    0.0800   Slater exchange
    0.7200         Becke 88

   => Exact (HF) Exchange <=

    0.2000               HF 

   => Correlation Functionals <=

    0.1900   Vosko, Wilk & Nusair (VWN5_RPA)
    0.8100   Lee, Yang & Parr

   => LibXC Density Thresholds  <==

    XC_HYB_GGA_XC_B3LYP:  1.00E-15 

   => Molecular Quadrature <=

    Radial Scheme          =       TREUTLER
    Pruning Scheme         =           NONE
    Nuclear Scheme         =       TREUTLER

    Blocking Scheme        =         OCTREE
    BS radius alpha        =              1
    Pruning alpha          =              1
    Radial Points          =             75
    Spherical Points       =            302
    Total Points           =          40110
    Total Blocks           =            370
    Max Points             =            253
    Max Functions          =             36
    Weights Tolerance      =       1.00E-15

   => Loading Basis Set <=

    Name: (CC-PVDZ AUX)
    Role: JKFIT
    Keyword: DF_BASIS_SCF
    atoms 1-2 entry S          line   593 file /home/jrodriguesro/psi4conda/share/psi4/basis/cc-pvdz-jkfit.gbs 

   => Loading Basis Set <=

    Name: CC-PVDZ
    Role: ORBITAL
    Keyword: BASIS
    atoms 1-2 entry S          line   598 file /home/jrodriguesro/psi4conda/share/psi4/basis/cc-pvdz.gbs 

  Reading orbitals from file /tmp/singlet_SS.default.409969.180.npy, no projection.

  ==> Integral Setup <==

  DFHelper Memory: AOs need 0.003 GiB; user supplied 5.546 GiB. 
  SCF_SUBTYPE=INCORE selected. In-core MEM_DF algorithm will be used.
  Using in-core AOs.

  ==> MemDFJK: Density-Fitted J/K Matrices <==

    J tasked:                   Yes
    K tasked:                   Yes
    wK tasked:                   No
    OpenMP threads:               5
    Memory [MiB]:              5679
    Algorithm:                 Core
    Schwarz Cutoff:           1E-12
    Mask sparsity (%):       0.0000
    Fitting Condition:        1E-10

   => Auxiliary Basis Set <=

  Basis Set: (CC-PVDZ AUX)
    Blend: CC-PVDZ-JKFIT
    Number of shells: 72
    Number of basis functions: 224
    Number of Cartesian functions: 260
    Spherical Harmonics?: true
    Max angular momentum: 3

  Cached 100.0% of DFT collocation blocks in 0.042 [GiB].

  Minimum eigenvalue in the overlap matrix is 1.2247663347E-02.
  Reciprocal condition number of the overlap matrix is 4.2944760926E-03.
    Using symmetric orthogonalization.

  ==> Pre-Iterations <==

  SCF Guess: Orbitals guess was supplied from a previous computation.

   -------------------------------------------------------
    Irrep   Nso     Nmo     Nalpha   Nbeta   Ndocc  Nsocc
   -------------------------------------------------------
     Ag         9       9       5       5       5       0
     B1g        4       4       2       2       2       0
     B2g        1       1       0       0       0       0
     B3g        4       4       1       1       1       0
     Au         1       1       0       0       0       0
     B1u        4       4       2       2       2       0
     B2u        9       9       4       4       4       0
     B3u        4       4       2       2       2       0
   -------------------------------------------------------
    Total      36      36      16      16      16       0
   -------------------------------------------------------

  ==> Iterations <==

                           Total Energy        Delta E     RMS |[F,P]|

   @DF-UKS iter   0:  -796.19139585513085   -7.96191e+02   9.74217e-02 
   @DF-UKS iter   1:  -796.05722146083053    1.34174e-01   7.20685e-03 ADIIS/DIIS
   @DF-UKS iter   2:  -796.06056343645446   -3.34198e-03   4.74725e-03 ADIIS/DIIS/DAMP=1%
   @DF-UKS iter   3:  -796.06997350387576   -9.41007e-03   5.97883e-04 ADIIS/DIIS/DAMP=1%
   @DF-UKS iter   4:  -796.06341022508218    6.56328e-03   1.21090e-05 DIIS/DAMP=1%
   @DF-UKS iter   5:  -796.06371292934534   -3.02704e-04   2.63304e-06 DIIS/DAMP=1%
   @DF-UKS iter   6:  -796.06372469592202   -1.17666e-05   2.12106e-07 DIIS/DAMP=1%
   @DF-UKS iter   7:  -796.06372500705902   -3.11137e-07   6.45900e-09 DIIS/DAMP=1%
   @DF-UKS iter   8:  -796.06372529983082   -2.92772e-07   6.66407e-10 DIIS/DAMP=1%
   @DF-UKS iter   9:  -796.06372529469400    5.13683e-09   3.19872e-11 DIIS/DAMP=1%
  Energy and wave function converged.


  ==> Post-Iterations <==

   Electrons on quadrature grid:
      Nalpha   =   16.0000017245 ; deviation = 1.725e-06
      Nbeta    =   16.0000017245 ; deviation = 1.725e-06
      Ntotal   =   32.0000034491 ; deviation = 3.449e-06 

   @Spin Contamination Metric:  -3.552713679E-15
   @S^2 Expected:                0.000000000E+00
   @S^2 Observed:               -3.552713679E-15
   @S   Expected:                0.000000000E+00
   @S   Observed:                0.000000000E+00

    Orbital Energies [Eh]
    ---------------------

    Alpha Occupied:                                                       

       1Ag   -88.882511     1B2u  -88.882508     2Ag    -7.979077  
       2B2u   -7.974477     3Ag    -5.947889     1B1u   -5.937362  
       1B3g   -5.935764     3B2u   -5.932922     1B3u   -5.923803  
       1B1g   -5.922236     4Ag    -0.985020     4B2u   -0.548614  
       2B1u   -0.452440     2B3u   -0.430602     5Ag    -0.390394  
       2B1g   -0.147371  

    Alpha Virtual:                                                        

       2B3g   -0.111316     5B2u    0.150825     6Ag     0.224810  
       3B1u    0.297049     3B3u    0.318541     1B2g    0.437413  
       7Ag     0.439326     8Ag     0.460006     6B2u    0.496661  
       3B3g    0.537761     4B1u    0.538143     3B1g    0.553029  
       4B3u    0.559096     1Au     0.705580     7B2u    0.707455  
       8B2u    0.854497     9Ag     0.955972     4B3g    1.080262  
       4B1g    1.105047     9B2u    1.768943  

    Beta Occupied:                                                        

       1Ag   -88.882511     1B2u  -88.882508     2Ag    -7.979077  
       2B2u   -7.974477     3Ag    -5.947889     1B1u   -5.937362  
       1B3g   -5.935764     3B2u   -5.932922     1B3u   -5.923803  
       1B1g   -5.922236     4Ag    -0.985020     4B2u   -0.548614  
       2B1u   -0.452440     2B3u   -0.430602     5Ag    -0.390394  
       2B1g   -0.147371  

    Beta Virtual:                                                         

       2B3g   -0.111316     5B2u    0.150825     6Ag     0.224810  
       3B1u    0.297049     3B3u    0.318541     1B2g    0.437413  
       7Ag     0.439326     8Ag     0.460006     6B2u    0.496661  
       3B3g    0.537761     4B1u    0.538143     3B1g    0.553029  
       4B3u    0.559096     1Au     0.705580     7B2u    0.707455  
       8B2u    0.854497     9Ag     0.955972     4B3g    1.080262  
       4B1g    1.105047     9B2u    1.768943  

    Final Occupation by Irrep:
             Ag   B1g   B2g   B3g    Au   B1u   B2u   B3u 
    DOCC [     5,    2,    0,    1,    0,    2,    4,    2 ]
    SOCC [     0,    0,    0,    0,    0,    0,    0,    0 ]
    NA   [     5,    2,    0,    1,    0,    2,    4,    2 ]
    NB   [     5,    2,    0,    1,    0,    2,    4,    2 ]

  @DF-UKS Final Energy:  -796.06372529469400

   => Energetics <=

    Nuclear Repulsion Energy =             93.4138948781372420
    One-Electron Energy =               -1284.8012662975975218
    Two-Electron Energy =                 436.9714211200982845
    DFT Exchange-Correlation Energy =     -41.6477749953318721
    Empirical Dispersion Energy =           0.0000000000000000
    VV10 Nonlocal Energy =                  0.0000000000000000
    Total Energy =                       -796.0637252946939952

  UHF NO Occupations:
  HONO-2 :    2B1u 2.0000000
  HONO-1 :    4 Ag 2.0000000
  HONO-0 :    5 Ag 2.0000000
  LUNO+0 :    6 Ag 0.0000000
  LUNO+1 :    5B2u 0.0000000
  LUNO+2 :    3B1g 0.0000000
  LUNO+3 :    3B1u 0.0000000


Computation Completed


Properties will be evaluated at   0.000000,   0.000000,   0.000000 [a0]

Properties computed using the SCF density matrix


 Multipole Moments:

 ------------------------------------------------------------------------------------
     Multipole            Electronic (a.u.)      Nuclear  (a.u.)        Total (a.u.)
 ------------------------------------------------------------------------------------

 L = 1.  Multiply by 2.5417464519 to convert [e a0] to [Debye]
 Dipole X            :          0.0000000            0.0000000            0.0000000
 Dipole Y            :          0.0000000            0.0000000            0.0000000
 Dipole Z            :          0.0000000            0.0000000            0.0000000
 Magnitude           :                                                    0.0000000

 ------------------------------------------------------------------------------------

*** tstop() called on cics-quant-001 at Tue Dec 23 11:34:03 2025
Module time:
	user time   =       0.76 seconds =       0.01 minutes
	system time =       0.09 seconds =       0.00 minutes
	total time  =          0 seconds =       0.00 minutes
Total time:
	user time   =       5.30 seconds =       0.09 minutes
	system time =       0.92 seconds =       0.02 minutes
	total time  =          3 seconds =       0.05 minutes

*** tstart() called on cics-quant-001
*** at Tue Dec 23 11:34:03 2025


         ------------------------------------------------------------
                                   SCF GRAD                          
                          Rob Parrish, Justin Turney,                
                       Andy Simmonett, and Alex Sokolov              
         ------------------------------------------------------------

  ==> Geometry <==

    Molecular point group: d2h
    Full point group: D_inf_h

    Geometry (in Angstrom), charge = 0, multiplicity = 1:

       Center              X                  Y                   Z               Mass       
    ------------   -----------------  -----------------  -----------------  -----------------
         S           -0.000000000000     0.725102866700     0.000000000000    31.972071174400
         S            0.000000000000    -0.725102866700     0.000000000000    31.972071174400

  Nuclear repulsion =   93.413894878137242

  ==> Basis Set <==

  Basis Set: CC-PVDZ
    Blend: CC-PVDZ
    Number of shells: 16
    Number of basis functions: 36
    Number of Cartesian functions: 38
    Spherical Harmonics?: true
    Max angular momentum: 2

  ==> DFJKGrad: Density-Fitted SCF Gradients <==

    Gradient:                    1
    J tasked:                  Yes
    K tasked:                  Yes
    wK tasked:                  No
    OpenMP threads:              5
    Integrals threads:           5
    Memory [MiB]:             5722
    Schwarz Cutoff:          1E-12
    Fitting Condition:       1E-10

   => Auxiliary Basis Set <=

  Basis Set: (CC-PVDZ AUX)
    Blend: CC-PVDZ-JKFIT
    Number of shells: 72
    Number of basis functions: 224
    Number of Cartesian functions: 260
    Spherical Harmonics?: true
    Max angular momentum: 3

  ==> DFT Potential <==

   => LibXC <=

    Version 7.0.0
    S. Lehtola, C. Steigemann, M. J.T. Oliveira, and M. A.L. Marques.,  SoftwareX 7, 1–5 (2018) (10.1016/j.softx.2017.11.002)

   => Composite Functional: B3LYP <= 

    B3LYP Hyb-GGA Exchange-Correlation Functional

    P. J. Stephens, F. J. Devlin, C. F. Chabalowski, and M. J. Frisch.,  J. Phys. Chem. 98, 11623 (1994) (10.1021/j100096a001)

    Deriv               =              1
    GGA                 =           TRUE
    Meta                =          FALSE

    Exchange Hybrid     =           TRUE
    MP2 Hybrid          =          FALSE

   => Exchange Functionals <=

    0.0800   Slater exchange
    0.7200         Becke 88

   => Exact (HF) Exchange <=

    0.2000               HF 

   => Correlation Functionals <=

    0.1900   Vosko, Wilk & Nusair (VWN5_RPA)
    0.8100   Lee, Yang & Parr

   => LibXC Density Thresholds  <==

    XC_HYB_GGA_XC_B3LYP:  1.00E-15 

   => Molecular Quadrature <=

    Radial Scheme          =       TREUTLER
    Pruning Scheme         =           NONE
    Nuclear Scheme         =       TREUTLER

    Blocking Scheme        =         OCTREE
    BS radius alpha        =              1
    Pruning alpha          =              1
    Radial Points          =             75
    Spherical Points       =            302
    Total Points           =          40110
    Total Blocks           =            370
    Max Points             =            253
    Max Functions          =             36
    Weights Tolerance      =       1.00E-15


  -Total Gradient:
     Atom            X                  Y                   Z
    ------   -----------------  -----------------  -----------------
       1        0.000000000000    -0.996056308008     0.000000000000
       2       -0.000000000000     0.996056308008     0.000000000000


*** tstop() called on cics-quant-001 at Tue Dec 23 11:34:03 2025
Module time:
	user time   =       0.27 seconds =       0.00 minutes
	system time =       0.12 seconds =       0.00 minutes
	total time  =          0 seconds =       0.00 minutes
Total time:
	user time   =       5.57 seconds =       0.09 minutes
	system time =       1.04 seconds =       0.02 minutes
	total time  =          3 seconds =       0.05 minutes

    			-----------------------------------------

    			 OPTKING 3.0: for geometry optimizations 

    			     By R.A. King, Bethel University     

    			        with contributions from          

    			    A.V. Copan, J. Cayton, A. Heide      

    			-----------------------------------------

    
	                            ===> Fragment 1 <== 

	 Z (Atomic Numbers)          Masses                          Geom                  
	      16.000000            31.972071         -0.00000000  1.37024583  0.00000000   
	      16.000000            31.972071          0.00000000 -1.37024583  0.00000000   

	 - Coordinate -           - BOHR/RAD -       - ANG/DEG -
	 R(1,2)           =         2.740492           1.450206


	        --- Internal Coordinate Step in ANG or DEG, aJ/ANG or AJ/DEG ---
	-------------------------------------------------------------------------------
	           Coordinate      Previous         Force          Change          New 
	           ----------      --------        ------          ------        ------
	               R(1,2)       1.45021        8.20623        0.11157       1.56177
	-------------------------------------------------------------------------------

	                                 ==> Convergence Check <==                                  
    
	Measures of convergence in internal coordinates in au.
    
	Criteria marked as inactive (o), active & met (*), and active & unmet ( ).

	----------------------------------------------------------------------------------------------
	   Step    Total Energy     Delta E     Max Force     RMS Force      Max Disp      RMS Disp   
	----------------------------------------------------------------------------------------------
	  Convergence Criteria     1.00e-06 *    3.00e-04 *             o    1.20e-03 *             o
	----------------------------------------------------------------------------------------------
	     5    -796.06372529   -5.06e-01      9.96e-01      9.96e-01 o    2.11e-01      2.11e-01 o  ~
	----------------------------------------------------------------------------------------------

Next Geometry in Ang 
	Fragment 1 (Ang)

	    S  -0.0000000000   0.7808856581   0.0000000000
	    S   0.0000000000  -0.7808856581   0.0000000000


    Structure for next step:
    Molecular point group: d2h
    Full point group: D_inf_h

    Geometry (in Angstrom), charge = 0, multiplicity = 1:

    S           -0.000000000000     0.780885658106     0.000000000000
    S            0.000000000000    -0.780885658106     0.000000000000


Scratch directory: /tmp/
gradient() will perform analytic gradient computation.
   => Libint2 <=

    Primary   basis highest AM E, G, H:  6, 6, 3
    Auxiliary basis highest AM E, G, H:  7, 7, 4
    Onebody   basis highest AM E, G, H:  -, -, -
    Solid Harmonics ordering:            Gaussian

*** tstart() called on cics-quant-001
*** at Tue Dec 23 11:34:03 2025

   => Loading Basis Set <=

    Name: CC-PVDZ
    Role: ORBITAL
    Keyword: BASIS
    atoms 1-2 entry S          line   598 file /home/jrodriguesro/psi4conda/share/psi4/basis/cc-pvdz.gbs 


         ---------------------------------------------------------
                                   SCF
               by Justin Turney, Rob Parrish, Andy Simmonett
                          and Daniel G. A. Smith
                              UKS Reference
                        5 Threads,   7629 MiB Core
         ---------------------------------------------------------

  ==> Geometry <==

    Molecular point group: d2h
    Full point group: D_inf_h

    Geometry (in Angstrom), charge = 0, multiplicity = 1:

       Center              X                  Y                   Z               Mass       
    ------------   -----------------  -----------------  -----------------  -----------------
         S           -0.000000000000     0.780885658106     0.000000000000    31.972071174400
         S            0.000000000000    -0.780885658106     0.000000000000    31.972071174400

  Running in d2h symmetry.

  Rotational constants: A = ************  B =      0.43234  C =      0.43234 [cm^-1]
  Rotational constants: A = ************  B =  12961.09039  C =  12961.09039 [MHz]
  Nuclear repulsion =   86.740846451253617

  Charge       = 0
  Multiplicity = 1
  Electrons    = 32
  Nalpha       = 16
  Nbeta        = 16

  ==> Algorithm <==

  SCF Algorithm Type is DF.
  DIIS enabled.
  MOM disabled.
  Fractional occupation disabled.
  Guess Type is READ.
  Energy threshold   = 1.00e-08
  Density threshold  = 1.00e-08
  Integral threshold = 1.00e-12

  ==> Primary Basis <==

  Basis Set: CC-PVDZ
    Blend: CC-PVDZ
    Number of shells: 16
    Number of basis functions: 36
    Number of Cartesian functions: 38
    Spherical Harmonics?: true
    Max angular momentum: 2

  ==> DFT Potential <==

   => LibXC <=

    Version 7.0.0
    S. Lehtola, C. Steigemann, M. J.T. Oliveira, and M. A.L. Marques.,  SoftwareX 7, 1–5 (2018) (10.1016/j.softx.2017.11.002)

   => Composite Functional: B3LYP <= 

    B3LYP Hyb-GGA Exchange-Correlation Functional

    P. J. Stephens, F. J. Devlin, C. F. Chabalowski, and M. J. Frisch.,  J. Phys. Chem. 98, 11623 (1994) (10.1021/j100096a001)

    Deriv               =              1
    GGA                 =           TRUE
    Meta                =          FALSE

    Exchange Hybrid     =           TRUE
    MP2 Hybrid          =          FALSE

   => Exchange Functionals <=

    0.0800   Slater exchange
    0.7200         Becke 88

   => Exact (HF) Exchange <=

    0.2000               HF 

   => Correlation Functionals <=

    0.1900   Vosko, Wilk & Nusair (VWN5_RPA)
    0.8100   Lee, Yang & Parr

   => LibXC Density Thresholds  <==

    XC_HYB_GGA_XC_B3LYP:  1.00E-15 

   => Molecular Quadrature <=

    Radial Scheme          =       TREUTLER
    Pruning Scheme         =           NONE
    Nuclear Scheme         =       TREUTLER

    Blocking Scheme        =         OCTREE
    BS radius alpha        =              1
    Pruning alpha          =              1
    Radial Points          =             75
    Spherical Points       =            302
    Total Points           =          40128
    Total Blocks           =            376
    Max Points             =            249
    Max Functions          =             36
    Weights Tolerance      =       1.00E-15

   => Loading Basis Set <=

    Name: (CC-PVDZ AUX)
    Role: JKFIT
    Keyword: DF_BASIS_SCF
    atoms 1-2 entry S          line   593 file /home/jrodriguesro/psi4conda/share/psi4/basis/cc-pvdz-jkfit.gbs 

   => Loading Basis Set <=

    Name: CC-PVDZ
    Role: ORBITAL
    Keyword: BASIS
    atoms 1-2 entry S          line   598 file /home/jrodriguesro/psi4conda/share/psi4/basis/cc-pvdz.gbs 

  Reading orbitals from file /tmp/singlet_SS.default.409969.180.npy, no projection.

  ==> Integral Setup <==

  DFHelper Memory: AOs need 0.003 GiB; user supplied 5.546 GiB. 
  SCF_SUBTYPE=INCORE selected. In-core MEM_DF algorithm will be used.
  Using in-core AOs.

  ==> MemDFJK: Density-Fitted J/K Matrices <==

    J tasked:                   Yes
    K tasked:                   Yes
    wK tasked:                   No
    OpenMP threads:               5
    Memory [MiB]:              5679
    Algorithm:                 Core
    Schwarz Cutoff:           1E-12
    Mask sparsity (%):       0.0000
    Fitting Condition:        1E-10

   => Auxiliary Basis Set <=

  Basis Set: (CC-PVDZ AUX)
    Blend: CC-PVDZ-JKFIT
    Number of shells: 72
    Number of basis functions: 224
    Number of Cartesian functions: 260
    Spherical Harmonics?: true
    Max angular momentum: 3

  Cached 100.0% of DFT collocation blocks in 0.042 [GiB].

  Minimum eigenvalue in the overlap matrix is 1.5223332714E-02.
  Reciprocal condition number of the overlap matrix is 5.5149575604E-03.
    Using symmetric orthogonalization.

  ==> Pre-Iterations <==

  SCF Guess: Orbitals guess was supplied from a previous computation.

   -------------------------------------------------------
    Irrep   Nso     Nmo     Nalpha   Nbeta   Ndocc  Nsocc
   -------------------------------------------------------
     Ag         9       9       5       5       5       0
     B1g        4       4       2       2       2       0
     B2g        1       1       0       0       0       0
     B3g        4       4       1       1       1       0
     Au         1       1       0       0       0       0
     B1u        4       4       2       2       2       0
     B2u        9       9       4       4       4       0
     B3u        4       4       2       2       2       0
   -------------------------------------------------------
    Total      36      36      16      16      16       0
   -------------------------------------------------------

  ==> Iterations <==

                           Total Energy        Delta E     RMS |[F,P]|

   @DF-UKS iter   0:  -796.20910855073726   -7.96209e+02   4.26097e-02 
   @DF-UKS iter   1:  -796.22343754145561   -1.43290e-02   1.98625e-03 ADIIS/DIIS
   @DF-UKS iter   2:  -796.22383014945069   -3.92608e-04   8.18236e-04 ADIIS/DIIS/DAMP=1%
   @DF-UKS iter   3:  -796.22413915541824   -3.09006e-04   9.42647e-05 DIIS/DAMP=1%
   @DF-UKS iter   4:  -796.22404142179721    9.77336e-05   2.87173e-05 DIIS/DAMP=1%
   @DF-UKS iter   5:  -796.22388613293924    1.55289e-04   1.32730e-06 DIIS/DAMP=1%
   @DF-UKS iter   6:  -796.22391920696543   -3.30740e-05   1.30981e-07 DIIS/DAMP=1%
   @DF-UKS iter   7:  -796.22391777524876    1.43172e-06   4.98915e-09 DIIS/DAMP=1%
   @DF-UKS iter   8:  -796.22391792450617   -1.49257e-07   3.28710e-10 DIIS/DAMP=1%
   @DF-UKS iter   9:  -796.22391792440465    1.01522e-10   1.79685e-11 DIIS/DAMP=1%
  Energy and wave function converged.


  ==> Post-Iterations <==

   Electrons on quadrature grid:
      Nalpha   =   16.0000012377 ; deviation = 1.238e-06
      Nbeta    =   16.0000012377 ; deviation = 1.238e-06
      Ntotal   =   32.0000024754 ; deviation = 2.475e-06 

   @Spin Contamination Metric:  -1.421085472E-14
   @S^2 Expected:                0.000000000E+00
   @S^2 Observed:               -1.421085472E-14
   @S   Expected:                0.000000000E+00
   @S   Observed:                0.000000000E+00

    Orbital Energies [Eh]
    ---------------------

    Alpha Occupied:                                                       

       1Ag   -88.895621     1B2u  -88.895619     2Ag    -7.977279  
       2B2u   -7.975402     3Ag    -5.942374     1B1u   -5.939269  
       1B3g   -5.938559     3B2u   -5.935201     1B3u   -5.925450  
       1B1g   -5.924757     4Ag    -0.943629     4B2u   -0.563666  
       2B1u   -0.423587     2B3u   -0.403743     5Ag    -0.393785  
       2B1g   -0.164978  

    Alpha Virtual:                                                        

       2B3g   -0.129337     5B2u    0.120067     6Ag     0.238006  
       3B1u    0.322271     3B3u    0.343868     7Ag     0.457456  
       1B2g    0.463551     8Ag     0.465418     6B2u    0.475953  
       4B1u    0.516462     3B3g    0.528069     4B3u    0.537312  
       3B1g    0.543674     1Au     0.682479     7B2u    0.684239  
       8B2u    0.816677     9Ag     0.933225     4B3g    1.010646  
       4B1g    1.035095     9B2u    1.565955  

    Beta Occupied:                                                        

       1Ag   -88.895621     1B2u  -88.895619     2Ag    -7.977279  
       2B2u   -7.975402     3Ag    -5.942374     1B1u   -5.939269  
       1B3g   -5.938559     3B2u   -5.935201     1B3u   -5.925450  
       1B1g   -5.924757     4Ag    -0.943629     4B2u   -0.563666  
       2B1u   -0.423587     2B3u   -0.403743     5Ag    -0.393785  
       2B1g   -0.164978  

    Beta Virtual:                                                         

       2B3g   -0.129337     5B2u    0.120067     6Ag     0.238006  
       3B1u    0.322271     3B3u    0.343868     7Ag     0.457456  
       1B2g    0.463551     8Ag     0.465418     6B2u    0.475953  
       4B1u    0.516462     3B3g    0.528069     4B3u    0.537312  
       3B1g    0.543674     1Au     0.682479     7B2u    0.684239  
       8B2u    0.816677     9Ag     0.933225     4B3g    1.010646  
       4B1g    1.035095     9B2u    1.565955  

    Final Occupation by Irrep:
             Ag   B1g   B2g   B3g    Au   B1u   B2u   B3u 
    DOCC [     5,    2,    0,    1,    0,    2,    4,    2 ]
    SOCC [     0,    0,    0,    0,    0,    0,    0,    0 ]
    NA   [     5,    2,    0,    1,    0,    2,    4,    2 ]
    NB   [     5,    2,    0,    1,    0,    2,    4,    2 ]

  @DF-UKS Final Energy:  -796.22391792440465

   => Energetics <=

    Nuclear Repulsion Energy =             86.7408464512536170
    One-Electron Energy =               -1271.8972797135356814
    Two-Electron Energy =                 430.4894126205655880
    DFT Exchange-Correlation Energy =     -41.5568972826882828
    Empirical Dispersion Energy =           0.0000000000000000
    VV10 Nonlocal Energy =                  0.0000000000000000
    Total Energy =                       -796.2239179244046454

  UHF NO Occupations:
  HONO-2 :    2B1u 2.0000000
  HONO-1 :    5 Ag 2.0000000
  HONO-0 :    4B2u 2.0000000
  LUNO+0 :    3B1u 0.0000000
  LUNO+1 :    5B2u 0.0000000
  LUNO+2 :    3B3u 0.0000000
  LUNO+3 :    3B1g 0.0000000


Computation Completed


Properties will be evaluated at   0.000000,   0.000000,   0.000000 [a0]

Properties computed using the SCF density matrix


 Multipole Moments:

 ------------------------------------------------------------------------------------
     Multipole            Electronic (a.u.)      Nuclear  (a.u.)        Total (a.u.)
 ------------------------------------------------------------------------------------

 L = 1.  Multiply by 2.5417464519 to convert [e a0] to [Debye]
 Dipole X            :          0.0000000            0.0000000            0.0000000
 Dipole Y            :          0.0000000            0.0000000            0.0000000
 Dipole Z            :          0.0000000            0.0000000            0.0000000
 Magnitude           :                                                    0.0000000

 ------------------------------------------------------------------------------------

*** tstop() called on cics-quant-001 at Tue Dec 23 11:34:04 2025
Module time:
	user time   =       0.69 seconds =       0.01 minutes
	system time =       0.10 seconds =       0.00 minutes
	total time  =          1 seconds =       0.02 minutes
Total time:
	user time   =       6.28 seconds =       0.10 minutes
	system time =       1.14 seconds =       0.02 minutes
	total time  =          4 seconds =       0.07 minutes

*** tstart() called on cics-quant-001
*** at Tue Dec 23 11:34:04 2025


         ------------------------------------------------------------
                                   SCF GRAD                          
                          Rob Parrish, Justin Turney,                
                       Andy Simmonett, and Alex Sokolov              
         ------------------------------------------------------------

  ==> Geometry <==

    Molecular point group: d2h
    Full point group: D_inf_h

    Geometry (in Angstrom), charge = 0, multiplicity = 1:

       Center              X                  Y                   Z               Mass       
    ------------   -----------------  -----------------  -----------------  -----------------
         S           -0.000000000000     0.780885658106     0.000000000000    31.972071174400
         S            0.000000000000    -0.780885658106     0.000000000000    31.972071174400

  Nuclear repulsion =   86.740846451253617

  ==> Basis Set <==

  Basis Set: CC-PVDZ
    Blend: CC-PVDZ
    Number of shells: 16
    Number of basis functions: 36
    Number of Cartesian functions: 38
    Spherical Harmonics?: true
    Max angular momentum: 2

  ==> DFJKGrad: Density-Fitted SCF Gradients <==

    Gradient:                    1
    J tasked:                  Yes
    K tasked:                  Yes
    wK tasked:                  No
    OpenMP threads:              5
    Integrals threads:           5
    Memory [MiB]:             5722
    Schwarz Cutoff:          1E-12
    Fitting Condition:       1E-10

   => Auxiliary Basis Set <=

  Basis Set: (CC-PVDZ AUX)
    Blend: CC-PVDZ-JKFIT
    Number of shells: 72
    Number of basis functions: 224
    Number of Cartesian functions: 260
    Spherical Harmonics?: true
    Max angular momentum: 3

  ==> DFT Potential <==

   => LibXC <=

    Version 7.0.0
    S. Lehtola, C. Steigemann, M. J.T. Oliveira, and M. A.L. Marques.,  SoftwareX 7, 1–5 (2018) (10.1016/j.softx.2017.11.002)

   => Composite Functional: B3LYP <= 

    B3LYP Hyb-GGA Exchange-Correlation Functional

    P. J. Stephens, F. J. Devlin, C. F. Chabalowski, and M. J. Frisch.,  J. Phys. Chem. 98, 11623 (1994) (10.1021/j100096a001)

    Deriv               =              1
    GGA                 =           TRUE
    Meta                =          FALSE

    Exchange Hybrid     =           TRUE
    MP2 Hybrid          =          FALSE

   => Exchange Functionals <=

    0.0800   Slater exchange
    0.7200         Becke 88

   => Exact (HF) Exchange <=

    0.2000               HF 

   => Correlation Functionals <=

    0.1900   Vosko, Wilk & Nusair (VWN5_RPA)
    0.8100   Lee, Yang & Parr

   => LibXC Density Thresholds  <==

    XC_HYB_GGA_XC_B3LYP:  1.00E-15 

   => Molecular Quadrature <=

    Radial Scheme          =       TREUTLER
    Pruning Scheme         =           NONE
    Nuclear Scheme         =       TREUTLER

    Blocking Scheme        =         OCTREE
    BS radius alpha        =              1
    Pruning alpha          =              1
    Radial Points          =             75
    Spherical Points       =            302
    Total Points           =          40128
    Total Blocks           =            376
    Max Points             =            249
    Max Functions          =             36
    Weights Tolerance      =       1.00E-15


  -Total Gradient:
     Atom            X                  Y                   Z
    ------   -----------------  -----------------  -----------------
       1        0.000000000000    -0.558204797633     0.000000000000
       2       -0.000000000000     0.558204797633     0.000000000000


*** tstop() called on cics-quant-001 at Tue Dec 23 11:34:04 2025
Module time:
	user time   =       0.27 seconds =       0.00 minutes
	system time =       0.12 seconds =       0.00 minutes
	total time  =          0 seconds =       0.00 minutes
Total time:
	user time   =       6.55 seconds =       0.11 minutes
	system time =       1.26 seconds =       0.02 minutes
	total time  =          4 seconds =       0.07 minutes

    			-----------------------------------------

    			 OPTKING 3.0: for geometry optimizations 

    			     By R.A. King, Bethel University     

    			        with contributions from          

    			    A.V. Copan, J. Cayton, A. Heide      

    			-----------------------------------------

    
	                            ===> Fragment 1 <== 

	 Z (Atomic Numbers)          Masses                          Geom                  
	      16.000000            31.972071         -0.00000000  1.47566003  0.00000000   
	      16.000000            31.972071          0.00000000 -1.47566003  0.00000000   

	 - Coordinate -           - BOHR/RAD -       - ANG/DEG -
	 R(1,2)           =         2.951320           1.561771


	        --- Internal Coordinate Step in ANG or DEG, aJ/ANG or AJ/DEG ---
	-------------------------------------------------------------------------------
	           Coordinate      Previous         Force          Change          New 
	           ----------      --------        ------          ------        ------
	               R(1,2)       1.56177        4.59889        0.12371       1.68548
	-------------------------------------------------------------------------------

	                                 ==> Convergence Check <==                                  
    
	Measures of convergence in internal coordinates in au.
    
	Criteria marked as inactive (o), active & met (*), and active & unmet ( ).

	----------------------------------------------------------------------------------------------
	   Step    Total Energy     Delta E     Max Force     RMS Force      Max Disp      RMS Disp   
	----------------------------------------------------------------------------------------------
	  Convergence Criteria     1.00e-06 *    3.00e-04 *             o    1.20e-03 *             o
	----------------------------------------------------------------------------------------------
	     6    -796.22391792   -1.60e-01      5.58e-01      5.58e-01 o    2.34e-01      2.34e-01 o  ~
	----------------------------------------------------------------------------------------------

Next Geometry in Ang 
	Fragment 1 (Ang)

	    S  -0.0000000000   0.8427410015   0.0000000000
	    S   0.0000000000  -0.8427410015   0.0000000000


    Structure for next step:
    Molecular point group: d2h
    Full point group: D_inf_h

    Geometry (in Angstrom), charge = 0, multiplicity = 1:

    S           -0.000000000000     0.842741001504     0.000000000000
    S            0.000000000000    -0.842741001504     0.000000000000


Scratch directory: /tmp/
gradient() will perform analytic gradient computation.
   => Libint2 <=

    Primary   basis highest AM E, G, H:  6, 6, 3
    Auxiliary basis highest AM E, G, H:  7, 7, 4
    Onebody   basis highest AM E, G, H:  -, -, -
    Solid Harmonics ordering:            Gaussian

*** tstart() called on cics-quant-001
*** at Tue Dec 23 11:34:04 2025

   => Loading Basis Set <=

    Name: CC-PVDZ
    Role: ORBITAL
    Keyword: BASIS
    atoms 1-2 entry S          line   598 file /home/jrodriguesro/psi4conda/share/psi4/basis/cc-pvdz.gbs 


         ---------------------------------------------------------
                                   SCF
               by Justin Turney, Rob Parrish, Andy Simmonett
                          and Daniel G. A. Smith
                              UKS Reference
                        5 Threads,   7629 MiB Core
         ---------------------------------------------------------

  ==> Geometry <==

    Molecular point group: d2h
    Full point group: D_inf_h

    Geometry (in Angstrom), charge = 0, multiplicity = 1:

       Center              X                  Y                   Z               Mass       
    ------------   -----------------  -----------------  -----------------  -----------------
         S           -0.000000000000     0.842741001504     0.000000000000    31.972071174400
         S            0.000000000000    -0.842741001504     0.000000000000    31.972071174400

  Running in d2h symmetry.

  Rotational constants: A = ************  B =      0.37120  C =      0.37120 [cm^-1]
  Rotational constants: A = ************  B =  11128.28359  C =  11128.28359 [MHz]
  Nuclear repulsion =   80.374258336632920

  Charge       = 0
  Multiplicity = 1
  Electrons    = 32
  Nalpha       = 16
  Nbeta        = 16

  ==> Algorithm <==

  SCF Algorithm Type is DF.
  DIIS enabled.
  MOM disabled.
  Fractional occupation disabled.
  Guess Type is READ.
  Energy threshold   = 1.00e-08
  Density threshold  = 1.00e-08
  Integral threshold = 1.00e-12

  ==> Primary Basis <==

  Basis Set: CC-PVDZ
    Blend: CC-PVDZ
    Number of shells: 16
    Number of basis functions: 36
    Number of Cartesian functions: 38
    Spherical Harmonics?: true
    Max angular momentum: 2

  ==> DFT Potential <==

   => LibXC <=

    Version 7.0.0
    S. Lehtola, C. Steigemann, M. J.T. Oliveira, and M. A.L. Marques.,  SoftwareX 7, 1–5 (2018) (10.1016/j.softx.2017.11.002)

   => Composite Functional: B3LYP <= 

    B3LYP Hyb-GGA Exchange-Correlation Functional

    P. J. Stephens, F. J. Devlin, C. F. Chabalowski, and M. J. Frisch.,  J. Phys. Chem. 98, 11623 (1994) (10.1021/j100096a001)

    Deriv               =              1
    GGA                 =           TRUE
    Meta                =          FALSE

    Exchange Hybrid     =           TRUE
    MP2 Hybrid          =          FALSE

   => Exchange Functionals <=

    0.0800   Slater exchange
    0.7200         Becke 88

   => Exact (HF) Exchange <=

    0.2000               HF 

   => Correlation Functionals <=

    0.1900   Vosko, Wilk & Nusair (VWN5_RPA)
    0.8100   Lee, Yang & Parr

   => LibXC Density Thresholds  <==

    XC_HYB_GGA_XC_B3LYP:  1.00E-15 

   => Molecular Quadrature <=

    Radial Scheme          =       TREUTLER
    Pruning Scheme         =           NONE
    Nuclear Scheme         =       TREUTLER

    Blocking Scheme        =         OCTREE
    BS radius alpha        =              1
    Pruning alpha          =              1
    Radial Points          =             75
    Spherical Points       =            302
    Total Points           =          40154
    Total Blocks           =            376
    Max Points             =            246
    Max Functions          =             36
    Weights Tolerance      =       1.00E-15

   => Loading Basis Set <=

    Name: (CC-PVDZ AUX)
    Role: JKFIT
    Keyword: DF_BASIS_SCF
    atoms 1-2 entry S          line   593 file /home/jrodriguesro/psi4conda/share/psi4/basis/cc-pvdz-jkfit.gbs 

   => Loading Basis Set <=

    Name: CC-PVDZ
    Role: ORBITAL
    Keyword: BASIS
    atoms 1-2 entry S          line   598 file /home/jrodriguesro/psi4conda/share/psi4/basis/cc-pvdz.gbs 

  Reading orbitals from file /tmp/singlet_SS.default.409969.180.npy, no projection.

  ==> Integral Setup <==

  DFHelper Memory: AOs need 0.003 GiB; user supplied 5.546 GiB. 
  SCF_SUBTYPE=INCORE selected. In-core MEM_DF algorithm will be used.
  Using in-core AOs.

  ==> MemDFJK: Density-Fitted J/K Matrices <==

    J tasked:                   Yes
    K tasked:                   Yes
    wK tasked:                   No
    OpenMP threads:               5
    Memory [MiB]:              5679
    Algorithm:                 Core
    Schwarz Cutoff:           1E-12
    Mask sparsity (%):       0.0000
    Fitting Condition:        1E-10

   => Auxiliary Basis Set <=

  Basis Set: (CC-PVDZ AUX)
    Blend: CC-PVDZ-JKFIT
    Number of shells: 72
    Number of basis functions: 224
    Number of Cartesian functions: 260
    Spherical Harmonics?: true
    Max angular momentum: 3

  Cached 100.0% of DFT collocation blocks in 0.042 [GiB].

  Minimum eigenvalue in the overlap matrix is 1.9112110643E-02.
  Reciprocal condition number of the overlap matrix is 7.1849054385E-03.
    Using symmetric orthogonalization.

  ==> Pre-Iterations <==

  SCF Guess: Orbitals guess was supplied from a previous computation.

   -------------------------------------------------------
    Irrep   Nso     Nmo     Nalpha   Nbeta   Ndocc  Nsocc
   -------------------------------------------------------
     Ag         9       9       5       5       5       0
     B1g        4       4       2       2       2       0
     B2g        1       1       0       0       0       0
     B3g        4       4       1       1       1       0
     Au         1       1       0       0       0       0
     B1u        4       4       2       2       2       0
     B2u        9       9       4       4       4       0
     B3u        4       4       2       2       2       0
   -------------------------------------------------------
    Total      36      36      16      16      16       0
   -------------------------------------------------------

  ==> Iterations <==

                           Total Energy        Delta E     RMS |[F,P]|

   @DF-UKS iter   0:  -796.27178995494364   -7.96272e+02   3.46596e-02 
   @DF-UKS iter   1:  -796.31620038314406   -4.44104e-02   2.59095e-03 ADIIS/DIIS
   @DF-UKS iter   2:  -796.31661048207297   -4.10099e-04   1.97275e-03 ADIIS/DIIS/DAMP=1%
   @DF-UKS iter   3:  -796.31576065145987    8.49831e-04   1.71307e-04 ADIIS/DIIS/DAMP=1%
   @DF-UKS iter   4:  -796.31739753770830   -1.63689e-03   2.31121e-05 DIIS/DAMP=1%
   @DF-UKS iter   5:  -796.31714214330282    2.55394e-04   1.31665e-06 DIIS/DAMP=1%
   @DF-UKS iter   6:  -796.31717045134440   -2.83080e-05   5.63158e-08 DIIS/DAMP=1%
   @DF-UKS iter   7:  -796.31716943744505    1.01390e-06   3.79095e-09 DIIS/DAMP=1%
   @DF-UKS iter   8:  -796.31716947683367   -3.93886e-08   2.72278e-10 DIIS/DAMP=1%
   @DF-UKS iter   9:  -796.31716947797668   -1.14301e-09   1.79649e-11 DIIS/DAMP=1%
  Energy and wave function converged.


  ==> Post-Iterations <==

   Electrons on quadrature grid:
      Nalpha   =   15.9999998092 ; deviation = -1.908e-07
      Nbeta    =   15.9999998092 ; deviation = -1.908e-07
      Ntotal   =   31.9999996184 ; deviation = -3.816e-07 

   @Spin Contamination Metric:  -7.105427358E-15
   @S^2 Expected:                0.000000000E+00
   @S^2 Observed:               -7.105427358E-15
   @S   Expected:                0.000000000E+00
   @S   Observed:                0.000000000E+00

    Orbital Energies [Eh]
    ---------------------

    Alpha Occupied:                                                       

       1Ag   -88.909608     1B2u  -88.909607     2Ag    -7.980770  
       2B2u   -7.980116     1B1u   -5.944800     1B3g   -5.944509  
       3Ag    -5.944139     3B2u   -5.940969     1B3u   -5.930766  
       1B1g   -5.930484     4Ag    -0.899088     4B2u   -0.580386  
       2B1u   -0.397127     5Ag    -0.394614     2B3u   -0.379452  
       2B1g   -0.183075  

    Alpha Virtual:                                                        

       2B3g   -0.147877     5B2u    0.080785     6Ag     0.257433  
       3B1u    0.349961     3B3u    0.371508     7Ag     0.454450  
       6B2u    0.459175     1B2g    0.488241     8Ag     0.490059  
       4B1u    0.494902     4B3u    0.515493     3B3g    0.517535  
       3B1g    0.533428     1Au     0.660046     7B2u    0.661657  
       8B2u    0.769574     9Ag     0.899738     4B3g    0.944726  
       4B1g    0.968661     9B2u    1.403141  

    Beta Occupied:                                                        

       1Ag   -88.909608     1B2u  -88.909607     2Ag    -7.980770  
       2B2u   -7.980116     1B1u   -5.944800     1B3g   -5.944509  
       3Ag    -5.944139     3B2u   -5.940969     1B3u   -5.930766  
       1B1g   -5.930484     4Ag    -0.899088     4B2u   -0.580386  
       2B1u   -0.397127     5Ag    -0.394614     2B3u   -0.379452  
       2B1g   -0.183075  

    Beta Virtual:                                                         

       2B3g   -0.147877     5B2u    0.080785     6Ag     0.257433  
       3B1u    0.349961     3B3u    0.371508     7Ag     0.454450  
       6B2u    0.459175     1B2g    0.488241     8Ag     0.490059  
       4B1u    0.494902     4B3u    0.515493     3B3g    0.517535  
       3B1g    0.533428     1Au     0.660046     7B2u    0.661657  
       8B2u    0.769574     9Ag     0.899738     4B3g    0.944726  
       4B1g    0.968661     9B2u    1.403141  

    Final Occupation by Irrep:
             Ag   B1g   B2g   B3g    Au   B1u   B2u   B3u 
    DOCC [     5,    2,    0,    1,    0,    2,    4,    2 ]
    SOCC [     0,    0,    0,    0,    0,    0,    0,    0 ]
    NA   [     5,    2,    0,    1,    0,    2,    4,    2 ]
    NB   [     5,    2,    0,    1,    0,    2,    4,    2 ]

  @DF-UKS Final Energy:  -796.31716947797668

   => Energetics <=

    Nuclear Repulsion Energy =             80.3742583366329200
    One-Electron Energy =               -1259.3923918964776476
    Two-Electron Energy =                 424.1765061817560536
    DFT Exchange-Correlation Energy =     -41.4755420998880169
    Empirical Dispersion Energy =           0.0000000000000000
    VV10 Nonlocal Energy =                  0.0000000000000000
    Total Energy =                       -796.3171694779766767

  UHF NO Occupations:
  HONO-2 :    1B3g 2.0000000
  HONO-1 :    4B2u 2.0000000
  HONO-0 :    2B1g 2.0000000
  LUNO+0 :    6 Ag 0.0000000
  LUNO+1 :    5B2u 0.0000000
  LUNO+2 :    7 Ag 0.0000000
  LUNO+3 :    3B1g 0.0000000


Computation Completed


Properties will be evaluated at   0.000000,   0.000000,   0.000000 [a0]

Properties computed using the SCF density matrix


 Multipole Moments:

 ------------------------------------------------------------------------------------
     Multipole            Electronic (a.u.)      Nuclear  (a.u.)        Total (a.u.)
 ------------------------------------------------------------------------------------

 L = 1.  Multiply by 2.5417464519 to convert [e a0] to [Debye]
 Dipole X            :          0.0000000            0.0000000            0.0000000
 Dipole Y            :          0.0000000            0.0000000            0.0000000
 Dipole Z            :          0.0000000            0.0000000            0.0000000
 Magnitude           :                                                    0.0000000

 ------------------------------------------------------------------------------------

*** tstop() called on cics-quant-001 at Tue Dec 23 11:34:04 2025
Module time:
	user time   =       0.79 seconds =       0.01 minutes
	system time =       0.08 seconds =       0.00 minutes
	total time  =          0 seconds =       0.00 minutes
Total time:
	user time   =       7.36 seconds =       0.12 minutes
	system time =       1.34 seconds =       0.02 minutes
	total time  =          4 seconds =       0.07 minutes

*** tstart() called on cics-quant-001
*** at Tue Dec 23 11:34:04 2025


         ------------------------------------------------------------
                                   SCF GRAD                          
                          Rob Parrish, Justin Turney,                
                       Andy Simmonett, and Alex Sokolov              
         ------------------------------------------------------------

  ==> Geometry <==

    Molecular point group: d2h
    Full point group: D_inf_h

    Geometry (in Angstrom), charge = 0, multiplicity = 1:

       Center              X                  Y                   Z               Mass       
    ------------   -----------------  -----------------  -----------------  -----------------
         S           -0.000000000000     0.842741001504     0.000000000000    31.972071174400
         S            0.000000000000    -0.842741001504     0.000000000000    31.972071174400

  Nuclear repulsion =   80.374258336632920

  ==> Basis Set <==

  Basis Set: CC-PVDZ
    Blend: CC-PVDZ
    Number of shells: 16
    Number of basis functions: 36
    Number of Cartesian functions: 38
    Spherical Harmonics?: true
    Max angular momentum: 2

  ==> DFJKGrad: Density-Fitted SCF Gradients <==

    Gradient:                    1
    J tasked:                  Yes
    K tasked:                  Yes
    wK tasked:                  No
    OpenMP threads:              5
    Integrals threads:           5
    Memory [MiB]:             5722
    Schwarz Cutoff:          1E-12
    Fitting Condition:       1E-10

   => Auxiliary Basis Set <=

  Basis Set: (CC-PVDZ AUX)
    Blend: CC-PVDZ-JKFIT
    Number of shells: 72
    Number of basis functions: 224
    Number of Cartesian functions: 260
    Spherical Harmonics?: true
    Max angular momentum: 3

  ==> DFT Potential <==

   => LibXC <=

    Version 7.0.0
    S. Lehtola, C. Steigemann, M. J.T. Oliveira, and M. A.L. Marques.,  SoftwareX 7, 1–5 (2018) (10.1016/j.softx.2017.11.002)

   => Composite Functional: B3LYP <= 

    B3LYP Hyb-GGA Exchange-Correlation Functional

    P. J. Stephens, F. J. Devlin, C. F. Chabalowski, and M. J. Frisch.,  J. Phys. Chem. 98, 11623 (1994) (10.1021/j100096a001)

    Deriv               =              1
    GGA                 =           TRUE
    Meta                =          FALSE

    Exchange Hybrid     =           TRUE
    MP2 Hybrid          =          FALSE

   => Exchange Functionals <=

    0.0800   Slater exchange
    0.7200         Becke 88

   => Exact (HF) Exchange <=

    0.2000               HF 

   => Correlation Functionals <=

    0.1900   Vosko, Wilk & Nusair (VWN5_RPA)
    0.8100   Lee, Yang & Parr

   => LibXC Density Thresholds  <==

    XC_HYB_GGA_XC_B3LYP:  1.00E-15 

   => Molecular Quadrature <=

    Radial Scheme          =       TREUTLER
    Pruning Scheme         =           NONE
    Nuclear Scheme         =       TREUTLER

    Blocking Scheme        =         OCTREE
    BS radius alpha        =              1
    Pruning alpha          =              1
    Radial Points          =             75
    Spherical Points       =            302
    Total Points           =          40154
    Total Blocks           =            376
    Max Points             =            246
    Max Functions          =             36
    Weights Tolerance      =       1.00E-15


  -Total Gradient:
     Atom            X                  Y                   Z
    ------   -----------------  -----------------  -----------------
       1        0.000000000000    -0.265869083286     0.000000000000
       2       -0.000000000000     0.265869083286    -0.000000000000


*** tstop() called on cics-quant-001 at Tue Dec 23 11:34:05 2025
Module time:
	user time   =       0.27 seconds =       0.00 minutes
	system time =       0.14 seconds =       0.00 minutes
	total time  =          1 seconds =       0.02 minutes
Total time:
	user time   =       7.63 seconds =       0.13 minutes
	system time =       1.48 seconds =       0.02 minutes
	total time  =          5 seconds =       0.08 minutes

    			-----------------------------------------

    			 OPTKING 3.0: for geometry optimizations 

    			     By R.A. King, Bethel University     

    			        with contributions from          

    			    A.V. Copan, J. Cayton, A. Heide      

    			-----------------------------------------

    
	                            ===> Fragment 1 <== 

	 Z (Atomic Numbers)          Masses                          Geom                  
	      16.000000            31.972071         -0.00000000  1.59254969  0.00000000   
	      16.000000            31.972071          0.00000000 -1.59254969  0.00000000   

	 - Coordinate -           - BOHR/RAD -       - ANG/DEG -
	 R(1,2)           =         3.185099           1.685482


	        --- Internal Coordinate Step in ANG or DEG, aJ/ANG or AJ/DEG ---
	-------------------------------------------------------------------------------
	           Coordinate      Previous         Force          Change          New 
	           ----------      --------        ------          ------        ------
	               R(1,2)       1.68548        2.19042        0.08353       1.76901
	-------------------------------------------------------------------------------

	                                 ==> Convergence Check <==                                  
    
	Measures of convergence in internal coordinates in au.
    
	Criteria marked as inactive (o), active & met (*), and active & unmet ( ).

	----------------------------------------------------------------------------------------------
	   Step    Total Energy     Delta E     Max Force     RMS Force      Max Disp      RMS Disp   
	----------------------------------------------------------------------------------------------
	  Convergence Criteria     1.00e-06 *    3.00e-04 *             o    1.20e-03 *             o
	----------------------------------------------------------------------------------------------
	     7    -796.31716948   -9.33e-02      2.66e-01      2.66e-01 o    1.58e-01      1.58e-01 o  ~
	----------------------------------------------------------------------------------------------

Next Geometry in Ang 
	Fragment 1 (Ang)

	    S  -0.0000000000   0.8845070235   0.0000000000
	    S   0.0000000000  -0.8845070235   0.0000000000


    Structure for next step:
    Molecular point group: d2h
    Full point group: D_inf_h

    Geometry (in Angstrom), charge = 0, multiplicity = 1:

    S           -0.000000000000     0.884507023523     0.000000000000
    S            0.000000000000    -0.884507023523     0.000000000000


Scratch directory: /tmp/
gradient() will perform analytic gradient computation.
   => Libint2 <=

    Primary   basis highest AM E, G, H:  6, 6, 3
    Auxiliary basis highest AM E, G, H:  7, 7, 4
    Onebody   basis highest AM E, G, H:  -, -, -
    Solid Harmonics ordering:            Gaussian

*** tstart() called on cics-quant-001
*** at Tue Dec 23 11:34:05 2025

   => Loading Basis Set <=

    Name: CC-PVDZ
    Role: ORBITAL
    Keyword: BASIS
    atoms 1-2 entry S          line   598 file /home/jrodriguesro/psi4conda/share/psi4/basis/cc-pvdz.gbs 


         ---------------------------------------------------------
                                   SCF
               by Justin Turney, Rob Parrish, Andy Simmonett
                          and Daniel G. A. Smith
                              UKS Reference
                        5 Threads,   7629 MiB Core
         ---------------------------------------------------------

  ==> Geometry <==

    Molecular point group: d2h
    Full point group: D_inf_h

    Geometry (in Angstrom), charge = 0, multiplicity = 1:

       Center              X                  Y                   Z               Mass       
    ------------   -----------------  -----------------  -----------------  -----------------
         S           -0.000000000000     0.884507023523     0.000000000000    31.972071174400
         S            0.000000000000    -0.884507023523     0.000000000000    31.972071174400

  Running in d2h symmetry.

  Rotational constants: A = ************  B =      0.33697  C =      0.33697 [cm^-1]
  Rotational constants: A = ************  B =  10102.15112  C =  10102.15112 [MHz]
  Nuclear repulsion =   76.579022172123260

  Charge       = 0
  Multiplicity = 1
  Electrons    = 32
  Nalpha       = 16
  Nbeta        = 16

  ==> Algorithm <==

  SCF Algorithm Type is DF.
  DIIS enabled.
  MOM disabled.
  Fractional occupation disabled.
  Guess Type is READ.
  Energy threshold   = 1.00e-08
  Density threshold  = 1.00e-08
  Integral threshold = 1.00e-12

  ==> Primary Basis <==

  Basis Set: CC-PVDZ
    Blend: CC-PVDZ
    Number of shells: 16
    Number of basis functions: 36
    Number of Cartesian functions: 38
    Spherical Harmonics?: true
    Max angular momentum: 2

  ==> DFT Potential <==

   => LibXC <=

    Version 7.0.0
    S. Lehtola, C. Steigemann, M. J.T. Oliveira, and M. A.L. Marques.,  SoftwareX 7, 1–5 (2018) (10.1016/j.softx.2017.11.002)

   => Composite Functional: B3LYP <= 

    B3LYP Hyb-GGA Exchange-Correlation Functional

    P. J. Stephens, F. J. Devlin, C. F. Chabalowski, and M. J. Frisch.,  J. Phys. Chem. 98, 11623 (1994) (10.1021/j100096a001)

    Deriv               =              1
    GGA                 =           TRUE
    Meta                =          FALSE

    Exchange Hybrid     =           TRUE
    MP2 Hybrid          =          FALSE

   => Exchange Functionals <=

    0.0800   Slater exchange
    0.7200         Becke 88

   => Exact (HF) Exchange <=

    0.2000               HF 

   => Correlation Functionals <=

    0.1900   Vosko, Wilk & Nusair (VWN5_RPA)
    0.8100   Lee, Yang & Parr

   => LibXC Density Thresholds  <==

    XC_HYB_GGA_XC_B3LYP:  1.00E-15 

   => Molecular Quadrature <=

    Radial Scheme          =       TREUTLER
    Pruning Scheme         =           NONE
    Nuclear Scheme         =       TREUTLER

    Blocking Scheme        =         OCTREE
    BS radius alpha        =              1
    Pruning alpha          =              1
    Radial Points          =             75
    Spherical Points       =            302
    Total Points           =          40164
    Total Blocks           =            374
    Max Points             =            248
    Max Functions          =             36
    Weights Tolerance      =       1.00E-15

   => Loading Basis Set <=

    Name: (CC-PVDZ AUX)
    Role: JKFIT
    Keyword: DF_BASIS_SCF
    atoms 1-2 entry S          line   593 file /home/jrodriguesro/psi4conda/share/psi4/basis/cc-pvdz-jkfit.gbs 

   => Loading Basis Set <=

    Name: CC-PVDZ
    Role: ORBITAL
    Keyword: BASIS
    atoms 1-2 entry S          line   598 file /home/jrodriguesro/psi4conda/share/psi4/basis/cc-pvdz.gbs 

  Reading orbitals from file /tmp/singlet_SS.default.409969.180.npy, no projection.

  ==> Integral Setup <==

  DFHelper Memory: AOs need 0.003 GiB; user supplied 5.546 GiB. 
  SCF_SUBTYPE=INCORE selected. In-core MEM_DF algorithm will be used.
  Using in-core AOs.

  ==> MemDFJK: Density-Fitted J/K Matrices <==

    J tasked:                   Yes
    K tasked:                   Yes
    wK tasked:                   No
    OpenMP threads:               5
    Memory [MiB]:              5679
    Algorithm:                 Core
    Schwarz Cutoff:           1E-12
    Mask sparsity (%):       0.0000
    Fitting Condition:        1E-10

   => Auxiliary Basis Set <=

  Basis Set: (CC-PVDZ AUX)
    Blend: CC-PVDZ-JKFIT
    Number of shells: 72
    Number of basis functions: 224
    Number of Cartesian functions: 260
    Spherical Harmonics?: true
    Max angular momentum: 3

  Cached 100.0% of DFT collocation blocks in 0.042 [GiB].

  Minimum eigenvalue in the overlap matrix is 2.2098166539E-02.
  Reciprocal condition number of the overlap matrix is 8.5130359546E-03.
    Using symmetric orthogonalization.

  ==> Pre-Iterations <==

  SCF Guess: Orbitals guess was supplied from a previous computation.

   -------------------------------------------------------
    Irrep   Nso     Nmo     Nalpha   Nbeta   Ndocc  Nsocc
   -------------------------------------------------------
     Ag         9       9       5       5       5       0
     B1g        4       4       2       2       2       0
     B2g        1       1       0       0       0       0
     B3g        4       4       1       1       1       0
     Au         1       1       0       0       0       0
     B1u        4       4       2       2       2       0
     B2u        9       9       4       4       4       0
     B3u        4       4       2       2       2       0
   -------------------------------------------------------
    Total      36      36      16      16      16       0
   -------------------------------------------------------

  ==> Iterations <==

                           Total Energy        Delta E     RMS |[F,P]|

   @DF-UKS iter   0:  -796.30688121689946   -7.96307e+02   1.81874e-02 
   @DF-UKS iter   1:  -796.34811536177449   -4.12341e-02   2.07364e-03 ADIIS/DIIS
   @DF-UKS iter   2:  -796.34830962404840   -1.94262e-04   1.75385e-03 ADIIS/DIIS/DAMP=1%
   @DF-UKS iter   3:  -796.34744249220500    8.67132e-04   7.84437e-05 DIIS/DAMP=1%
   @DF-UKS iter   4:  -796.34885094178276   -1.40845e-03   1.52493e-05 DIIS/DAMP=1%
   @DF-UKS iter   5:  -796.34873931092500    1.11631e-04   9.96972e-07 DIIS/DAMP=1%
   @DF-UKS iter   6:  -796.34875713506631   -1.78241e-05   4.83817e-08 DIIS/DAMP=1%
   @DF-UKS iter   7:  -796.34875696847814    1.66588e-07   3.71564e-09 DIIS/DAMP=1%
   @DF-UKS iter   8:  -796.34875697652217   -8.04403e-09   2.08911e-10 DIIS/DAMP=1%
  Energy and wave function converged.


  ==> Post-Iterations <==

   Electrons on quadrature grid:
      Nalpha   =   15.9999990650 ; deviation = -9.350e-07
      Nbeta    =   15.9999990650 ; deviation = -9.350e-07
      Ntotal   =   31.9999981301 ; deviation = -1.870e-06 

   @Spin Contamination Metric:   0.000000000E+00
   @S^2 Expected:                0.000000000E+00
   @S^2 Observed:                0.000000000E+00
   @S   Expected:                0.000000000E+00
   @S   Observed:                0.000000000E+00

    Orbital Energies [Eh]
    ---------------------

    Alpha Occupied:                                                       

       1Ag   -88.917991     1B2u  -88.917990     2Ag    -7.984382  
       2B2u   -7.984090     1B1u   -5.949123     1B3g   -5.948964  
       3Ag    -5.947355     3B2u   -5.945529     1B3u   -5.934988  
       1B1g   -5.934835     4Ag    -0.871312     4B2u   -0.591380  
       5Ag    -0.393790     2B1u   -0.382007     2B3u   -0.365753  
       2B1g   -0.194212  

    Alpha Virtual:                                                        

       2B3g   -0.159311     5B2u    0.052642     6Ag     0.272631  
       3B1u    0.368272     3B3u    0.389687     6B2u    0.450812  
       7Ag     0.452411     4B1u    0.482295     1B2g    0.502594  
       4B3u    0.502636     8Ag     0.504390     3B3g    0.510984  
       3B1g    0.527020     1Au     0.646815     7B2u    0.648295  
       8B2u    0.736545     9Ag     0.871977     4B3g    0.905625  
       4B1g    0.929145     9B2u    1.324755  

    Beta Occupied:                                                        

       1Ag   -88.917991     1B2u  -88.917990     2Ag    -7.984382  
       2B2u   -7.984090     1B1u   -5.949123     1B3g   -5.948964  
       3Ag    -5.947355     3B2u   -5.945529     1B3u   -5.934988  
       1B1g   -5.934835     4Ag    -0.871312     4B2u   -0.591380  
       5Ag    -0.393790     2B1u   -0.382007     2B3u   -0.365753  
       2B1g   -0.194212  

    Beta Virtual:                                                         

       2B3g   -0.159311     5B2u    0.052642     6Ag     0.272631  
       3B1u    0.368272     3B3u    0.389687     6B2u    0.450812  
       7Ag     0.452411     4B1u    0.482295     1B2g    0.502594  
       4B3u    0.502636     8Ag     0.504390     3B3g    0.510984  
       3B1g    0.527020     1Au     0.646815     7B2u    0.648295  
       8B2u    0.736545     9Ag     0.871977     4B3g    0.905625  
       4B1g    0.929145     9B2u    1.324755  

    Final Occupation by Irrep:
             Ag   B1g   B2g   B3g    Au   B1u   B2u   B3u 
    DOCC [     5,    2,    0,    1,    0,    2,    4,    2 ]
    SOCC [     0,    0,    0,    0,    0,    0,    0,    0 ]
    NA   [     5,    2,    0,    1,    0,    2,    4,    2 ]
    NB   [     5,    2,    0,    1,    0,    2,    4,    2 ]

  @DF-UKS Final Energy:  -796.34875697652217

   => Energetics <=

    Nuclear Repulsion Energy =             76.5790221721232598
    One-Electron Energy =               -1251.8671976000023278
    Two-Electron Energy =                 420.3696866790573381
    DFT Exchange-Correlation Energy =     -41.4302682277004379
    Empirical Dispersion Energy =           0.0000000000000000
    VV10 Nonlocal Energy =                  0.0000000000000000
    Total Energy =                       -796.3487569765220542

  UHF NO Occupations:
  HONO-2 :    3B2u 2.0000000
  HONO-1 :    5 Ag 2.0000000
  HONO-0 :    4B2u 2.0000000
  LUNO+0 :    6 Ag 0.0000000
  LUNO+1 :    7 Ag 0.0000000
  LUNO+2 :    2B3g 0.0000000
  LUNO+3 :    5B2u 0.0000000


Computation Completed


Properties will be evaluated at   0.000000,   0.000000,   0.000000 [a0]

Properties computed using the SCF density matrix


 Multipole Moments:

 ------------------------------------------------------------------------------------
     Multipole            Electronic (a.u.)      Nuclear  (a.u.)        Total (a.u.)
 ------------------------------------------------------------------------------------

 L = 1.  Multiply by 2.5417464519 to convert [e a0] to [Debye]
 Dipole X            :          0.0000000            0.0000000            0.0000000
 Dipole Y            :          0.0000000            0.0000000            0.0000000
 Dipole Z            :          0.0000000            0.0000000            0.0000000
 Magnitude           :                                                    0.0000000

 ------------------------------------------------------------------------------------

*** tstop() called on cics-quant-001 at Tue Dec 23 11:34:05 2025
Module time:
	user time   =       0.70 seconds =       0.01 minutes
	system time =       0.08 seconds =       0.00 minutes
	total time  =          0 seconds =       0.00 minutes
Total time:
	user time   =       8.35 seconds =       0.14 minutes
	system time =       1.56 seconds =       0.03 minutes
	total time  =          5 seconds =       0.08 minutes

*** tstart() called on cics-quant-001
*** at Tue Dec 23 11:34:05 2025


         ------------------------------------------------------------
                                   SCF GRAD                          
                          Rob Parrish, Justin Turney,                
                       Andy Simmonett, and Alex Sokolov              
         ------------------------------------------------------------

  ==> Geometry <==

    Molecular point group: d2h
    Full point group: D_inf_h

    Geometry (in Angstrom), charge = 0, multiplicity = 1:

       Center              X                  Y                   Z               Mass       
    ------------   -----------------  -----------------  -----------------  -----------------
         S           -0.000000000000     0.884507023523     0.000000000000    31.972071174400
         S            0.000000000000    -0.884507023523     0.000000000000    31.972071174400

  Nuclear repulsion =   76.579022172123260

  ==> Basis Set <==

  Basis Set: CC-PVDZ
    Blend: CC-PVDZ
    Number of shells: 16
    Number of basis functions: 36
    Number of Cartesian functions: 38
    Spherical Harmonics?: true
    Max angular momentum: 2

  ==> DFJKGrad: Density-Fitted SCF Gradients <==

    Gradient:                    1
    J tasked:                  Yes
    K tasked:                  Yes
    wK tasked:                  No
    OpenMP threads:              5
    Integrals threads:           5
    Memory [MiB]:             5722
    Schwarz Cutoff:          1E-12
    Fitting Condition:       1E-10

   => Auxiliary Basis Set <=

  Basis Set: (CC-PVDZ AUX)
    Blend: CC-PVDZ-JKFIT
    Number of shells: 72
    Number of basis functions: 224
    Number of Cartesian functions: 260
    Spherical Harmonics?: true
    Max angular momentum: 3

  ==> DFT Potential <==

   => LibXC <=

    Version 7.0.0
    S. Lehtola, C. Steigemann, M. J.T. Oliveira, and M. A.L. Marques.,  SoftwareX 7, 1–5 (2018) (10.1016/j.softx.2017.11.002)

   => Composite Functional: B3LYP <= 

    B3LYP Hyb-GGA Exchange-Correlation Functional

    P. J. Stephens, F. J. Devlin, C. F. Chabalowski, and M. J. Frisch.,  J. Phys. Chem. 98, 11623 (1994) (10.1021/j100096a001)

    Deriv               =              1
    GGA                 =           TRUE
    Meta                =          FALSE

    Exchange Hybrid     =           TRUE
    MP2 Hybrid          =          FALSE

   => Exchange Functionals <=

    0.0800   Slater exchange
    0.7200         Becke 88

   => Exact (HF) Exchange <=

    0.2000               HF 

   => Correlation Functionals <=

    0.1900   Vosko, Wilk & Nusair (VWN5_RPA)
    0.8100   Lee, Yang & Parr

   => LibXC Density Thresholds  <==

    XC_HYB_GGA_XC_B3LYP:  1.00E-15 

   => Molecular Quadrature <=

    Radial Scheme          =       TREUTLER
    Pruning Scheme         =           NONE
    Nuclear Scheme         =       TREUTLER

    Blocking Scheme        =         OCTREE
    BS radius alpha        =              1
    Pruning alpha          =              1
    Radial Points          =             75
    Spherical Points       =            302
    Total Points           =          40164
    Total Blocks           =            374
    Max Points             =            248
    Max Functions          =             36
    Weights Tolerance      =       1.00E-15


  -Total Gradient:
     Atom            X                  Y                   Z
    ------   -----------------  -----------------  -----------------
       1        0.000000000000    -0.142074489347     0.000000000000
       2       -0.000000000000     0.142074489347     0.000000000000


*** tstop() called on cics-quant-001 at Tue Dec 23 11:34:05 2025
Module time:
	user time   =       0.25 seconds =       0.00 minutes
	system time =       0.13 seconds =       0.00 minutes
	total time  =          0 seconds =       0.00 minutes
Total time:
	user time   =       8.61 seconds =       0.14 minutes
	system time =       1.69 seconds =       0.03 minutes
	total time  =          5 seconds =       0.08 minutes

    			-----------------------------------------

    			 OPTKING 3.0: for geometry optimizations 

    			     By R.A. King, Bethel University     

    			        with contributions from          

    			    A.V. Copan, J. Cayton, A. Heide      

    			-----------------------------------------

    
	                            ===> Fragment 1 <== 

	 Z (Atomic Numbers)          Masses                          Geom                  
	      16.000000            31.972071         -0.00000000  1.67147603  0.00000000   
	      16.000000            31.972071          0.00000000 -1.67147603  0.00000000   

	 - Coordinate -           - BOHR/RAD -       - ANG/DEG -
	 R(1,2)           =         3.342952           1.769014


	        --- Internal Coordinate Step in ANG or DEG, aJ/ANG or AJ/DEG ---
	-------------------------------------------------------------------------------
	           Coordinate      Previous         Force          Change          New 
	           ----------      --------        ------          ------        ------
	               R(1,2)       1.76901        1.17051        0.06953       1.83855
	-------------------------------------------------------------------------------

	                                 ==> Convergence Check <==                                  
    
	Measures of convergence in internal coordinates in au.
    
	Criteria marked as inactive (o), active & met (*), and active & unmet ( ).

	----------------------------------------------------------------------------------------------
	   Step    Total Energy     Delta E     Max Force     RMS Force      Max Disp      RMS Disp   
	----------------------------------------------------------------------------------------------
	  Convergence Criteria     1.00e-06 *    3.00e-04 *             o    1.20e-03 *             o
	----------------------------------------------------------------------------------------------
	     8    -796.34875698   -3.16e-02      1.42e-01      1.42e-01 o    1.31e-01      1.31e-01 o  ~
	----------------------------------------------------------------------------------------------

Next Geometry in Ang 
	Fragment 1 (Ang)

	    S  -0.0000000000   0.9192743965   0.0000000000
	    S   0.0000000000  -0.9192743965   0.0000000000


    Structure for next step:
    Molecular point group: d2h
    Full point group: D_inf_h

    Geometry (in Angstrom), charge = 0, multiplicity = 1:

    S           -0.000000000000     0.919274396515     0.000000000000
    S            0.000000000000    -0.919274396515     0.000000000000


Scratch directory: /tmp/
gradient() will perform analytic gradient computation.
   => Libint2 <=

    Primary   basis highest AM E, G, H:  6, 6, 3
    Auxiliary basis highest AM E, G, H:  7, 7, 4
    Onebody   basis highest AM E, G, H:  -, -, -
    Solid Harmonics ordering:            Gaussian

*** tstart() called on cics-quant-001
*** at Tue Dec 23 11:34:05 2025

   => Loading Basis Set <=

    Name: CC-PVDZ
    Role: ORBITAL
    Keyword: BASIS
    atoms 1-2 entry S          line   598 file /home/jrodriguesro/psi4conda/share/psi4/basis/cc-pvdz.gbs 


         ---------------------------------------------------------
                                   SCF
               by Justin Turney, Rob Parrish, Andy Simmonett
                          and Daniel G. A. Smith
                              UKS Reference
                        5 Threads,   7629 MiB Core
         ---------------------------------------------------------

  ==> Geometry <==

    Molecular point group: d2h
    Full point group: D_inf_h

    Geometry (in Angstrom), charge = 0, multiplicity = 1:

       Center              X                  Y                   Z               Mass       
    ------------   -----------------  -----------------  -----------------  -----------------
         S           -0.000000000000     0.919274396515     0.000000000000    31.972071174400
         S            0.000000000000    -0.919274396515     0.000000000000    31.972071174400

  Running in d2h symmetry.

  Rotational constants: A = ************  B =      0.31196  C =      0.31196 [cm^-1]
  Rotational constants: A = ************  B =   9352.46526  C =   9352.46526 [MHz]
  Nuclear repulsion =   73.682768956212811

  Charge       = 0
  Multiplicity = 1
  Electrons    = 32
  Nalpha       = 16
  Nbeta        = 16

  ==> Algorithm <==

  SCF Algorithm Type is DF.
  DIIS enabled.
  MOM disabled.
  Fractional occupation disabled.
  Guess Type is READ.
  Energy threshold   = 1.00e-08
  Density threshold  = 1.00e-08
  Integral threshold = 1.00e-12

  ==> Primary Basis <==

  Basis Set: CC-PVDZ
    Blend: CC-PVDZ
    Number of shells: 16
    Number of basis functions: 36
    Number of Cartesian functions: 38
    Spherical Harmonics?: true
    Max angular momentum: 2

  ==> DFT Potential <==

   => LibXC <=

    Version 7.0.0
    S. Lehtola, C. Steigemann, M. J.T. Oliveira, and M. A.L. Marques.,  SoftwareX 7, 1–5 (2018) (10.1016/j.softx.2017.11.002)

   => Composite Functional: B3LYP <= 

    B3LYP Hyb-GGA Exchange-Correlation Functional

    P. J. Stephens, F. J. Devlin, C. F. Chabalowski, and M. J. Frisch.,  J. Phys. Chem. 98, 11623 (1994) (10.1021/j100096a001)

    Deriv               =              1
    GGA                 =           TRUE
    Meta                =          FALSE

    Exchange Hybrid     =           TRUE
    MP2 Hybrid          =          FALSE

   => Exchange Functionals <=

    0.0800   Slater exchange
    0.7200         Becke 88

   => Exact (HF) Exchange <=

    0.2000               HF 

   => Correlation Functionals <=

    0.1900   Vosko, Wilk & Nusair (VWN5_RPA)
    0.8100   Lee, Yang & Parr

   => LibXC Density Thresholds  <==

    XC_HYB_GGA_XC_B3LYP:  1.00E-15 

   => Molecular Quadrature <=

    Radial Scheme          =       TREUTLER
    Pruning Scheme         =           NONE
    Nuclear Scheme         =       TREUTLER

    Blocking Scheme        =         OCTREE
    BS radius alpha        =              1
    Pruning alpha          =              1
    Radial Points          =             75
    Spherical Points       =            302
    Total Points           =          40188
    Total Blocks           =            374
    Max Points             =            252
    Max Functions          =             36
    Weights Tolerance      =       1.00E-15

   => Loading Basis Set <=

    Name: (CC-PVDZ AUX)
    Role: JKFIT
    Keyword: DF_BASIS_SCF
    atoms 1-2 entry S          line   593 file /home/jrodriguesro/psi4conda/share/psi4/basis/cc-pvdz-jkfit.gbs 

   => Loading Basis Set <=

    Name: CC-PVDZ
    Role: ORBITAL
    Keyword: BASIS
    atoms 1-2 entry S          line   598 file /home/jrodriguesro/psi4conda/share/psi4/basis/cc-pvdz.gbs 

  Reading orbitals from file /tmp/singlet_SS.default.409969.180.npy, no projection.

  ==> Integral Setup <==

  DFHelper Memory: AOs need 0.003 GiB; user supplied 5.546 GiB. 
  SCF_SUBTYPE=INCORE selected. In-core MEM_DF algorithm will be used.
  Using in-core AOs.

  ==> MemDFJK: Density-Fitted J/K Matrices <==

    J tasked:                   Yes
    K tasked:                   Yes
    wK tasked:                   No
    OpenMP threads:               5
    Memory [MiB]:              5679
    Algorithm:                 Core
    Schwarz Cutoff:           1E-12
    Mask sparsity (%):       0.0000
    Fitting Condition:        1E-10

   => Auxiliary Basis Set <=

  Basis Set: (CC-PVDZ AUX)
    Blend: CC-PVDZ-JKFIT
    Number of shells: 72
    Number of basis functions: 224
    Number of Cartesian functions: 260
    Spherical Harmonics?: true
    Max angular momentum: 3

  Cached 100.0% of DFT collocation blocks in 0.042 [GiB].

  Minimum eigenvalue in the overlap matrix is 2.4803416904E-02.
  Reciprocal condition number of the overlap matrix is 9.7469620136E-03.
    Using symmetric orthogonalization.

  ==> Pre-Iterations <==

  SCF Guess: Orbitals guess was supplied from a previous computation.

   -------------------------------------------------------
    Irrep   Nso     Nmo     Nalpha   Nbeta   Ndocc  Nsocc
   -------------------------------------------------------
     Ag         9       9       5       5       5       0
     B1g        4       4       2       2       2       0
     B2g        1       1       0       0       0       0
     B3g        4       4       1       1       1       0
     Au         1       1       0       0       0       0
     B1u        4       4       2       2       2       0
     B2u        9       9       4       4       4       0
     B3u        4       4       2       2       2       0
   -------------------------------------------------------
    Total      36      36      16      16      16       0
   -------------------------------------------------------

  ==> Iterations <==

                           Total Energy        Delta E     RMS |[F,P]|

   @DF-UKS iter   0:  -796.32625834640442   -7.96326e+02   1.27550e-02 
   @DF-UKS iter   1:  -796.36189968478993   -3.56413e-02   1.82263e-03 ADIIS/DIIS
   @DF-UKS iter   2:  -796.36203476537708   -1.35081e-04   1.57761e-03 ADIIS/DIIS/DAMP=1%
   @DF-UKS iter   3:  -796.36123787679219    7.96889e-04   5.17149e-05 DIIS/DAMP=1%
   @DF-UKS iter   4:  -796.36245596980211   -1.21809e-03   1.22993e-05 DIIS/DAMP=1%
   @DF-UKS iter   5:  -796.36238547435516    7.04954e-05   9.51732e-07 DIIS/DAMP=1%
   @DF-UKS iter   6:  -796.36239945469231   -1.39803e-05   5.10229e-08 DIIS/DAMP=1%
   @DF-UKS iter   7:  -796.36239952993469   -7.52424e-08   3.80100e-09 DIIS/DAMP=1%
   @DF-UKS iter   8:  -796.36239952749713    2.43756e-09   1.74269e-10 DIIS/DAMP=1%
  Energy and wave function converged.


  ==> Post-Iterations <==

   Electrons on quadrature grid:
      Nalpha   =   15.9999988887 ; deviation = -1.111e-06
      Nbeta    =   15.9999988887 ; deviation = -1.111e-06
      Ntotal   =   31.9999977774 ; deviation = -2.223e-06 

   @Spin Contamination Metric:   7.105427358E-15
   @S^2 Expected:                0.000000000E+00
   @S^2 Observed:                7.105427358E-15
   @S   Expected:                0.000000000E+00
   @S   Observed:                0.000000000E+00

    Orbital Energies [Eh]
    ---------------------

    Alpha Occupied:                                                       

       1Ag   -88.924229     1B2u  -88.924228     2Ag    -7.987613  
       2B2u   -7.987485     1B1u   -5.952707     1B3g   -5.952611  
       3Ag    -5.950514     3B2u   -5.949360     1B3u   -5.938514  
       1B1g   -5.938422     4Ag    -0.850032     4B2u   -0.600210  
       5Ag    -0.392349     2B1u   -0.370876     2B3u   -0.355769  
       2B1g   -0.202756  

    Alpha Virtual:                                                        

       2B3g   -0.168105     5B2u    0.029050     6Ag     0.286290  
       3B1u    0.383119     3B3u    0.404376     6B2u    0.445269  
       7Ag     0.450725     4B1u    0.473243     4B3u    0.493342  
       3B3g    0.506019     1B2g    0.513206     8Ag     0.514987  
       3B1g    0.522143     1Au     0.636951     7B2u    0.638287  
       8B2u    0.709545     9Ag     0.846297     4B3g    0.875787  
       4B1g    0.898932     9B2u    1.275087  

    Beta Occupied:                                                        

       1Ag   -88.924229     1B2u  -88.924228     2Ag    -7.987613  
       2B2u   -7.987485     1B1u   -5.952707     1B3g   -5.952611  
       3Ag    -5.950514     3B2u   -5.949360     1B3u   -5.938514  
       1B1g   -5.938422     4Ag    -0.850032     4B2u   -0.600210  
       5Ag    -0.392349     2B1u   -0.370876     2B3u   -0.355769  
       2B1g   -0.202756  

    Beta Virtual:                                                         

       2B3g   -0.168105     5B2u    0.029050     6Ag     0.286290  
       3B1u    0.383119     3B3u    0.404376     6B2u    0.445269  
       7Ag     0.450725     4B1u    0.473243     4B3u    0.493342  
       3B3g    0.506019     1B2g    0.513206     8Ag     0.514987  
       3B1g    0.522143     1Au     0.636951     7B2u    0.638287  
       8B2u    0.709545     9Ag     0.846297     4B3g    0.875787  
       4B1g    0.898932     9B2u    1.275087  

    Final Occupation by Irrep:
             Ag   B1g   B2g   B3g    Au   B1u   B2u   B3u 
    DOCC [     5,    2,    0,    1,    0,    2,    4,    2 ]
    SOCC [     0,    0,    0,    0,    0,    0,    0,    0 ]
    NA   [     5,    2,    0,    1,    0,    2,    4,    2 ]
    NB   [     5,    2,    0,    1,    0,    2,    4,    2 ]

  @DF-UKS Final Energy:  -796.36239952749713

   => Energetics <=

    Nuclear Repulsion Energy =             73.6827689562128114
    One-Electron Energy =               -1246.0959506540384609
    Two-Electron Energy =                 417.4483806633565450
    DFT Exchange-Correlation Energy =     -41.3975984930279637
    Empirical Dispersion Energy =           0.0000000000000000
    VV10 Nonlocal Energy =                  0.0000000000000000
    Total Energy =                       -796.3623995274970184

  UHF NO Occupations:
  HONO-2 :    3 Ag 2.0000000
  HONO-1 :    4 Ag 2.0000000
  HONO-0 :    5 Ag 2.0000000
  LUNO+0 :    3B1u 0.0000000
  LUNO+1 :    5B2u 0.0000000
  LUNO+2 :    6B2u 0.0000000
  LUNO+3 :    4B1u 0.0000000


Computation Completed


Properties will be evaluated at   0.000000,   0.000000,   0.000000 [a0]

Properties computed using the SCF density matrix


 Multipole Moments:

 ------------------------------------------------------------------------------------
     Multipole            Electronic (a.u.)      Nuclear  (a.u.)        Total (a.u.)
 ------------------------------------------------------------------------------------

 L = 1.  Multiply by 2.5417464519 to convert [e a0] to [Debye]
 Dipole X            :          0.0000000            0.0000000            0.0000000
 Dipole Y            :          0.0000000            0.0000000            0.0000000
 Dipole Z            :          0.0000000            0.0000000            0.0000000
 Magnitude           :                                                    0.0000000

 ------------------------------------------------------------------------------------

*** tstop() called on cics-quant-001 at Tue Dec 23 11:34:06 2025
Module time:
	user time   =       0.84 seconds =       0.01 minutes
	system time =       0.09 seconds =       0.00 minutes
	total time  =          1 seconds =       0.02 minutes
Total time:
	user time   =       9.47 seconds =       0.16 minutes
	system time =       1.78 seconds =       0.03 minutes
	total time  =          6 seconds =       0.10 minutes

*** tstart() called on cics-quant-001
*** at Tue Dec 23 11:34:06 2025


         ------------------------------------------------------------
                                   SCF GRAD                          
                          Rob Parrish, Justin Turney,                
                       Andy Simmonett, and Alex Sokolov              
         ------------------------------------------------------------

  ==> Geometry <==

    Molecular point group: d2h
    Full point group: D_inf_h

    Geometry (in Angstrom), charge = 0, multiplicity = 1:

       Center              X                  Y                   Z               Mass       
    ------------   -----------------  -----------------  -----------------  -----------------
         S           -0.000000000000     0.919274396515     0.000000000000    31.972071174400
         S            0.000000000000    -0.919274396515     0.000000000000    31.972071174400

  Nuclear repulsion =   73.682768956212811

  ==> Basis Set <==

  Basis Set: CC-PVDZ
    Blend: CC-PVDZ
    Number of shells: 16
    Number of basis functions: 36
    Number of Cartesian functions: 38
    Spherical Harmonics?: true
    Max angular momentum: 2

  ==> DFJKGrad: Density-Fitted SCF Gradients <==

    Gradient:                    1
    J tasked:                  Yes
    K tasked:                  Yes
    wK tasked:                  No
    OpenMP threads:              5
    Integrals threads:           5
    Memory [MiB]:             5722
    Schwarz Cutoff:          1E-12
    Fitting Condition:       1E-10

   => Auxiliary Basis Set <=

  Basis Set: (CC-PVDZ AUX)
    Blend: CC-PVDZ-JKFIT
    Number of shells: 72
    Number of basis functions: 224
    Number of Cartesian functions: 260
    Spherical Harmonics?: true
    Max angular momentum: 3

  ==> DFT Potential <==

   => LibXC <=

    Version 7.0.0
    S. Lehtola, C. Steigemann, M. J.T. Oliveira, and M. A.L. Marques.,  SoftwareX 7, 1–5 (2018) (10.1016/j.softx.2017.11.002)

   => Composite Functional: B3LYP <= 

    B3LYP Hyb-GGA Exchange-Correlation Functional

    P. J. Stephens, F. J. Devlin, C. F. Chabalowski, and M. J. Frisch.,  J. Phys. Chem. 98, 11623 (1994) (10.1021/j100096a001)

    Deriv               =              1
    GGA                 =           TRUE
    Meta                =          FALSE

    Exchange Hybrid     =           TRUE
    MP2 Hybrid          =          FALSE

   => Exchange Functionals <=

    0.0800   Slater exchange
    0.7200         Becke 88

   => Exact (HF) Exchange <=

    0.2000               HF 

   => Correlation Functionals <=

    0.1900   Vosko, Wilk & Nusair (VWN5_RPA)
    0.8100   Lee, Yang & Parr

   => LibXC Density Thresholds  <==

    XC_HYB_GGA_XC_B3LYP:  1.00E-15 

   => Molecular Quadrature <=

    Radial Scheme          =       TREUTLER
    Pruning Scheme         =           NONE
    Nuclear Scheme         =       TREUTLER

    Blocking Scheme        =         OCTREE
    BS radius alpha        =              1
    Pruning alpha          =              1
    Radial Points          =             75
    Spherical Points       =            302
    Total Points           =          40188
    Total Blocks           =            374
    Max Points             =            252
    Max Functions          =             36
    Weights Tolerance      =       1.00E-15


  -Total Gradient:
     Atom            X                  Y                   Z
    ------   -----------------  -----------------  -----------------
       1        0.000000000000    -0.069428728586     0.000000000000
       2       -0.000000000000     0.069428728586    -0.000000000000


*** tstop() called on cics-quant-001 at Tue Dec 23 11:34:06 2025
Module time:
	user time   =       0.32 seconds =       0.01 minutes
	system time =       0.12 seconds =       0.00 minutes
	total time  =          0 seconds =       0.00 minutes
Total time:
	user time   =       9.79 seconds =       0.16 minutes
	system time =       1.90 seconds =       0.03 minutes
	total time  =          6 seconds =       0.10 minutes

    			-----------------------------------------

    			 OPTKING 3.0: for geometry optimizations 

    			     By R.A. King, Bethel University     

    			        with contributions from          

    			    A.V. Copan, J. Cayton, A. Heide      

    			-----------------------------------------

    
	                            ===> Fragment 1 <== 

	 Z (Atomic Numbers)          Masses                          Geom                  
	      16.000000            31.972071         -0.00000000  1.73717684  0.00000000   
	      16.000000            31.972071          0.00000000 -1.73717684  0.00000000   

	 - Coordinate -           - BOHR/RAD -       - ANG/DEG -
	 R(1,2)           =         3.474354           1.838549


	        --- Internal Coordinate Step in ANG or DEG, aJ/ANG or AJ/DEG ---
	-------------------------------------------------------------------------------
	           Coordinate      Previous         Force          Change          New 
	           ----------      --------        ------          ------        ------
	               R(1,2)       1.83855        0.57200        0.05355       1.89209
	-------------------------------------------------------------------------------

	                                 ==> Convergence Check <==                                  
    
	Measures of convergence in internal coordinates in au.
    
	Criteria marked as inactive (o), active & met (*), and active & unmet ( ).

	----------------------------------------------------------------------------------------------
	   Step    Total Energy     Delta E     Max Force     RMS Force      Max Disp      RMS Disp   
	----------------------------------------------------------------------------------------------
	  Convergence Criteria     1.00e-06 *    3.00e-04 *             o    1.20e-03 *             o
	----------------------------------------------------------------------------------------------
	     9    -796.36239953   -1.36e-02      6.94e-02      6.94e-02 o    1.01e-01      1.01e-01 o  ~
	----------------------------------------------------------------------------------------------

Next Geometry in Ang 
	Fragment 1 (Ang)

	    S  -0.0000000000   0.9460469641   0.0000000000
	    S   0.0000000000  -0.9460469641   0.0000000000


    Structure for next step:
    Molecular point group: d2h
    Full point group: D_inf_h

    Geometry (in Angstrom), charge = 0, multiplicity = 1:

    S           -0.000000000000     0.946046964083     0.000000000000
    S            0.000000000000    -0.946046964083     0.000000000000


Scratch directory: /tmp/
gradient() will perform analytic gradient computation.
   => Libint2 <=

    Primary   basis highest AM E, G, H:  6, 6, 3
    Auxiliary basis highest AM E, G, H:  7, 7, 4
    Onebody   basis highest AM E, G, H:  -, -, -
    Solid Harmonics ordering:            Gaussian

*** tstart() called on cics-quant-001
*** at Tue Dec 23 11:34:06 2025

   => Loading Basis Set <=

    Name: CC-PVDZ
    Role: ORBITAL
    Keyword: BASIS
    atoms 1-2 entry S          line   598 file /home/jrodriguesro/psi4conda/share/psi4/basis/cc-pvdz.gbs 


         ---------------------------------------------------------
                                   SCF
               by Justin Turney, Rob Parrish, Andy Simmonett
                          and Daniel G. A. Smith
                              UKS Reference
                        5 Threads,   7629 MiB Core
         ---------------------------------------------------------

  ==> Geometry <==

    Molecular point group: d2h
    Full point group: D_inf_h

    Geometry (in Angstrom), charge = 0, multiplicity = 1:

       Center              X                  Y                   Z               Mass       
    ------------   -----------------  -----------------  -----------------  -----------------
         S           -0.000000000000     0.946046964083     0.000000000000    31.972071174400
         S            0.000000000000    -0.946046964083     0.000000000000    31.972071174400

  Running in d2h symmetry.

  Rotational constants: A = ************  B =      0.29456  C =      0.29456 [cm^-1]
  Rotational constants: A = ************  B =   8830.61681  C =   8830.61681 [MHz]
  Nuclear repulsion =   71.597590328334434

  Charge       = 0
  Multiplicity = 1
  Electrons    = 32
  Nalpha       = 16
  Nbeta        = 16

  ==> Algorithm <==

  SCF Algorithm Type is DF.
  DIIS enabled.
  MOM disabled.
  Fractional occupation disabled.
  Guess Type is READ.
  Energy threshold   = 1.00e-08
  Density threshold  = 1.00e-08
  Integral threshold = 1.00e-12

  ==> Primary Basis <==

  Basis Set: CC-PVDZ
    Blend: CC-PVDZ
    Number of shells: 16
    Number of basis functions: 36
    Number of Cartesian functions: 38
    Spherical Harmonics?: true
    Max angular momentum: 2

  ==> DFT Potential <==

   => LibXC <=

    Version 7.0.0
    S. Lehtola, C. Steigemann, M. J.T. Oliveira, and M. A.L. Marques.,  SoftwareX 7, 1–5 (2018) (10.1016/j.softx.2017.11.002)

   => Composite Functional: B3LYP <= 

    B3LYP Hyb-GGA Exchange-Correlation Functional

    P. J. Stephens, F. J. Devlin, C. F. Chabalowski, and M. J. Frisch.,  J. Phys. Chem. 98, 11623 (1994) (10.1021/j100096a001)

    Deriv               =              1
    GGA                 =           TRUE
    Meta                =          FALSE

    Exchange Hybrid     =           TRUE
    MP2 Hybrid          =          FALSE

   => Exchange Functionals <=

    0.0800   Slater exchange
    0.7200         Becke 88

   => Exact (HF) Exchange <=

    0.2000               HF 

   => Correlation Functionals <=

    0.1900   Vosko, Wilk & Nusair (VWN5_RPA)
    0.8100   Lee, Yang & Parr

   => LibXC Density Thresholds  <==

    XC_HYB_GGA_XC_B3LYP:  1.00E-15 

   => Molecular Quadrature <=

    Radial Scheme          =       TREUTLER
    Pruning Scheme         =           NONE
    Nuclear Scheme         =       TREUTLER

    Blocking Scheme        =         OCTREE
    BS radius alpha        =              1
    Pruning alpha          =              1
    Radial Points          =             75
    Spherical Points       =            302
    Total Points           =          40206
    Total Blocks           =            374
    Max Points             =            248
    Max Functions          =             36
    Weights Tolerance      =       1.00E-15

   => Loading Basis Set <=

    Name: (CC-PVDZ AUX)
    Role: JKFIT
    Keyword: DF_BASIS_SCF
    atoms 1-2 entry S          line   593 file /home/jrodriguesro/psi4conda/share/psi4/basis/cc-pvdz-jkfit.gbs 

   => Loading Basis Set <=

    Name: CC-PVDZ
    Role: ORBITAL
    Keyword: BASIS
    atoms 1-2 entry S          line   598 file /home/jrodriguesro/psi4conda/share/psi4/basis/cc-pvdz.gbs 

  Reading orbitals from file /tmp/singlet_SS.default.409969.180.npy, no projection.

  ==> Integral Setup <==

  DFHelper Memory: AOs need 0.003 GiB; user supplied 5.546 GiB. 
  SCF_SUBTYPE=INCORE selected. In-core MEM_DF algorithm will be used.
  Using in-core AOs.

  ==> MemDFJK: Density-Fitted J/K Matrices <==

    J tasked:                   Yes
    K tasked:                   Yes
    wK tasked:                   No
    OpenMP threads:               5
    Memory [MiB]:              5679
    Algorithm:                 Core
    Schwarz Cutoff:           1E-12
    Mask sparsity (%):       0.0000
    Fitting Condition:        1E-10

   => Auxiliary Basis Set <=

  Basis Set: (CC-PVDZ AUX)
    Blend: CC-PVDZ-JKFIT
    Number of shells: 72
    Number of basis functions: 224
    Number of Cartesian functions: 260
    Spherical Harmonics?: true
    Max angular momentum: 3

  Cached 100.0% of DFT collocation blocks in 0.042 [GiB].

  Minimum eigenvalue in the overlap matrix is 2.7018476445E-02.
  Reciprocal condition number of the overlap matrix is 1.0778430930E-02.
    Using symmetric orthogonalization.

  ==> Pre-Iterations <==

  SCF Guess: Orbitals guess was supplied from a previous computation.

   -------------------------------------------------------
    Irrep   Nso     Nmo     Nalpha   Nbeta   Ndocc  Nsocc
   -------------------------------------------------------
     Ag         9       9       5       5       5       0
     B1g        4       4       2       2       2       0
     B2g        1       1       0       0       0       0
     B3g        4       4       1       1       1       0
     Au         1       1       0       0       0       0
     B1u        4       4       2       2       2       0
     B2u        9       9       4       4       4       0
     B3u        4       4       2       2       2       0
   -------------------------------------------------------
    Total      36      36      16      16      16       0
   -------------------------------------------------------

  ==> Iterations <==

                           Total Energy        Delta E     RMS |[F,P]|

   @DF-UKS iter   0:  -796.33963877343092   -7.96340e+02   8.65764e-03 
   @DF-UKS iter   1:  -796.36691039498578   -2.72716e-02   1.41611e-03 ADIIS/DIIS
   @DF-UKS iter   2:  -796.36698819644539   -7.78015e-05   1.23650e-03 ADIIS/DIIS/DAMP=1%
   @DF-UKS iter   3:  -796.36632265939954    6.65537e-04   3.31001e-05 DIIS/DAMP=1%
   @DF-UKS iter   4:  -796.36724760784693   -9.24948e-04   9.11948e-06 DIIS/DAMP=1%
   @DF-UKS iter   5:  -796.36720327559431    4.43323e-05   8.22082e-07 DIIS/DAMP=1%
   @DF-UKS iter   6:  -796.36721343428064   -1.01587e-05   4.58810e-08 DIIS/DAMP=1%
   @DF-UKS iter   7:  -796.36721360250806   -1.68227e-07   3.32928e-09 DIIS/DAMP=1%
   @DF-UKS iter   8:  -796.36721359598494    6.52312e-09   1.14240e-10 DIIS/DAMP=1%
  Energy and wave function converged.


  ==> Post-Iterations <==

   Electrons on quadrature grid:
      Nalpha   =   15.9999988896 ; deviation = -1.110e-06
      Nbeta    =   15.9999988896 ; deviation = -1.110e-06
      Ntotal   =   31.9999977792 ; deviation = -2.221e-06 

   @Spin Contamination Metric:   2.131628207E-14
   @S^2 Expected:                0.000000000E+00
   @S^2 Observed:                2.131628207E-14
   @S   Expected:                0.000000000E+00
   @S   Observed:                0.000000000E+00

    Orbital Energies [Eh]
    ---------------------

    Alpha Occupied:                                                       

       1Ag   -88.928591     1B2u  -88.928591     2Ag    -7.990103  
       2B2u   -7.990051     1B1u   -5.955370     1B3g   -5.955305  
       3Ag    -5.953046     3B2u   -5.952237     1B3u   -5.941146  
       1B1g   -5.941085     4Ag    -0.834882     4B2u   -0.606757  
       5Ag    -0.390804     2B1u   -0.363117     2B3u   -0.348865  
       2B1g   -0.208876  

    Alpha Virtual:                                                        

       2B3g   -0.174419     5B2u    0.011130     6Ag     0.297349  
       3B1u    0.394163     3B3u    0.415274     6B2u    0.441718  
       7Ag     0.449432     4B1u    0.467314     4B3u    0.487212  
       3B3g    0.502534     3B1g    0.518708     1B2g    0.520587  
       8Ag     0.522359     1Au     0.630043     7B2u    0.631230  
       8B2u    0.689620     9Ag     0.825360     4B3g    0.854257  
       4B1g    0.877102     9B2u    1.244453  

    Beta Occupied:                                                        

       1Ag   -88.928591     1B2u  -88.928591     2Ag    -7.990103  
       2B2u   -7.990051     1B1u   -5.955370     1B3g   -5.955305  
       3Ag    -5.953046     3B2u   -5.952237     1B3u   -5.941146  
       1B1g   -5.941085     4Ag    -0.834882     4B2u   -0.606757  
       5Ag    -0.390804     2B1u   -0.363117     2B3u   -0.348865  
       2B1g   -0.208876  

    Beta Virtual:                                                         

       2B3g   -0.174419     5B2u    0.011130     6Ag     0.297349  
       3B1u    0.394163     3B3u    0.415274     6B2u    0.441718  
       7Ag     0.449432     4B1u    0.467314     4B3u    0.487212  
       3B3g    0.502534     3B1g    0.518708     1B2g    0.520587  
       8Ag     0.522359     1Au     0.630043     7B2u    0.631230  
       8B2u    0.689620     9Ag     0.825360     4B3g    0.854257  
       4B1g    0.877102     9B2u    1.244453  

    Final Occupation by Irrep:
             Ag   B1g   B2g   B3g    Au   B1u   B2u   B3u 
    DOCC [     5,    2,    0,    1,    0,    2,    4,    2 ]
    SOCC [     0,    0,    0,    0,    0,    0,    0,    0 ]
    NA   [     5,    2,    0,    1,    0,    2,    4,    2 ]
    NB   [     5,    2,    0,    1,    0,    2,    4,    2 ]

  @DF-UKS Final Energy:  -796.36721359598494

   => Energetics <=

    Nuclear Repulsion Energy =             71.5975903283344337
    One-Electron Energy =               -1241.9279239481379591
    Two-Electron Energy =                 415.3382910588980508
    DFT Exchange-Correlation Energy =     -41.3751710350794468
    Empirical Dispersion Energy =           0.0000000000000000
    VV10 Nonlocal Energy =                  0.0000000000000000
    Total Energy =                       -796.3672135959849356

  UHF NO Occupations:
  HONO-2 :    3B2u 2.0000000
  HONO-1 :    4B2u 2.0000000
  HONO-0 :    5 Ag 2.0000000
  LUNO+0 :    5B2u 0.0000000
  LUNO+1 :    6 Ag 0.0000000
  LUNO+2 :    2B3g 0.0000000
  LUNO+3 :    3B1g 0.0000000


Computation Completed


Properties will be evaluated at   0.000000,   0.000000,   0.000000 [a0]

Properties computed using the SCF density matrix


 Multipole Moments:

 ------------------------------------------------------------------------------------
     Multipole            Electronic (a.u.)      Nuclear  (a.u.)        Total (a.u.)
 ------------------------------------------------------------------------------------

 L = 1.  Multiply by 2.5417464519 to convert [e a0] to [Debye]
 Dipole X            :          0.0000000            0.0000000            0.0000000
 Dipole Y            :          0.0000000            0.0000000            0.0000000
 Dipole Z            :          0.0000000            0.0000000            0.0000000
 Magnitude           :                                                    0.0000000

 ------------------------------------------------------------------------------------

*** tstop() called on cics-quant-001 at Tue Dec 23 11:34:06 2025
Module time:
	user time   =       0.88 seconds =       0.01 minutes
	system time =       0.08 seconds =       0.00 minutes
	total time  =          0 seconds =       0.00 minutes
Total time:
	user time   =      10.69 seconds =       0.18 minutes
	system time =       1.98 seconds =       0.03 minutes
	total time  =          6 seconds =       0.10 minutes

*** tstart() called on cics-quant-001
*** at Tue Dec 23 11:34:06 2025


         ------------------------------------------------------------
                                   SCF GRAD                          
                          Rob Parrish, Justin Turney,                
                       Andy Simmonett, and Alex Sokolov              
         ------------------------------------------------------------

  ==> Geometry <==

    Molecular point group: d2h
    Full point group: D_inf_h

    Geometry (in Angstrom), charge = 0, multiplicity = 1:

       Center              X                  Y                   Z               Mass       
    ------------   -----------------  -----------------  -----------------  -----------------
         S           -0.000000000000     0.946046964083     0.000000000000    31.972071174400
         S            0.000000000000    -0.946046964083     0.000000000000    31.972071174400

  Nuclear repulsion =   71.597590328334434

  ==> Basis Set <==

  Basis Set: CC-PVDZ
    Blend: CC-PVDZ
    Number of shells: 16
    Number of basis functions: 36
    Number of Cartesian functions: 38
    Spherical Harmonics?: true
    Max angular momentum: 2

  ==> DFJKGrad: Density-Fitted SCF Gradients <==

    Gradient:                    1
    J tasked:                  Yes
    K tasked:                  Yes
    wK tasked:                  No
    OpenMP threads:              5
    Integrals threads:           5
    Memory [MiB]:             5722
    Schwarz Cutoff:          1E-12
    Fitting Condition:       1E-10

   => Auxiliary Basis Set <=

  Basis Set: (CC-PVDZ AUX)
    Blend: CC-PVDZ-JKFIT
    Number of shells: 72
    Number of basis functions: 224
    Number of Cartesian functions: 260
    Spherical Harmonics?: true
    Max angular momentum: 3

  ==> DFT Potential <==

   => LibXC <=

    Version 7.0.0
    S. Lehtola, C. Steigemann, M. J.T. Oliveira, and M. A.L. Marques.,  SoftwareX 7, 1–5 (2018) (10.1016/j.softx.2017.11.002)

   => Composite Functional: B3LYP <= 

    B3LYP Hyb-GGA Exchange-Correlation Functional

    P. J. Stephens, F. J. Devlin, C. F. Chabalowski, and M. J. Frisch.,  J. Phys. Chem. 98, 11623 (1994) (10.1021/j100096a001)

    Deriv               =              1
    GGA                 =           TRUE
    Meta                =          FALSE

    Exchange Hybrid     =           TRUE
    MP2 Hybrid          =          FALSE

   => Exchange Functionals <=

    0.0800   Slater exchange
    0.7200         Becke 88

   => Exact (HF) Exchange <=

    0.2000               HF 

   => Correlation Functionals <=

    0.1900   Vosko, Wilk & Nusair (VWN5_RPA)
    0.8100   Lee, Yang & Parr

   => LibXC Density Thresholds  <==

    XC_HYB_GGA_XC_B3LYP:  1.00E-15 

   => Molecular Quadrature <=

    Radial Scheme          =       TREUTLER
    Pruning Scheme         =           NONE
    Nuclear Scheme         =       TREUTLER

    Blocking Scheme        =         OCTREE
    BS radius alpha        =              1
    Pruning alpha          =              1
    Radial Points          =             75
    Spherical Points       =            302
    Total Points           =          40206
    Total Blocks           =            374
    Max Points             =            248
    Max Functions          =             36
    Weights Tolerance      =       1.00E-15


  -Total Gradient:
     Atom            X                  Y                   Z
    ------   -----------------  -----------------  -----------------
       1        0.000000000000    -0.027494828720     0.000000000000
       2       -0.000000000000     0.027494828720     0.000000000000


*** tstop() called on cics-quant-001 at Tue Dec 23 11:34:06 2025
Module time:
	user time   =       0.34 seconds =       0.01 minutes
	system time =       0.13 seconds =       0.00 minutes
	total time  =          0 seconds =       0.00 minutes
Total time:
	user time   =      11.03 seconds =       0.18 minutes
	system time =       2.11 seconds =       0.04 minutes
	total time  =          6 seconds =       0.10 minutes

    			-----------------------------------------

    			 OPTKING 3.0: for geometry optimizations 

    			     By R.A. King, Bethel University     

    			        with contributions from          

    			    A.V. Copan, J. Cayton, A. Heide      

    			-----------------------------------------

    
	                            ===> Fragment 1 <== 

	 Z (Atomic Numbers)          Masses                          Geom                  
	      16.000000            31.972071         -0.00000000  1.78776966  0.00000000   
	      16.000000            31.972071          0.00000000 -1.78776966  0.00000000   

	 - Coordinate -           - BOHR/RAD -       - ANG/DEG -
	 R(1,2)           =         3.575539           1.892094


	        --- Internal Coordinate Step in ANG or DEG, aJ/ANG or AJ/DEG ---
	-------------------------------------------------------------------------------
	           Coordinate      Previous         Force          Change          New 
	           ----------      --------        ------          ------        ------
	               R(1,2)       1.89209        0.22652        0.02378       1.91588
	-------------------------------------------------------------------------------

	                                 ==> Convergence Check <==                                  
    
	Measures of convergence in internal coordinates in au.
    
	Criteria marked as inactive (o), active & met (*), and active & unmet ( ).

	----------------------------------------------------------------------------------------------
	   Step    Total Energy     Delta E     Max Force     RMS Force      Max Disp      RMS Disp   
	----------------------------------------------------------------------------------------------
	  Convergence Criteria     1.00e-06 *    3.00e-04 *             o    1.20e-03 *             o
	----------------------------------------------------------------------------------------------
	    10    -796.36721360   -4.81e-03      2.75e-02      2.75e-02 o    4.49e-02      4.49e-02 o  ~
	----------------------------------------------------------------------------------------------

Next Geometry in Ang 
	Fragment 1 (Ang)

	    S  -0.0000000000   0.9579385268   0.0000000000
	    S   0.0000000000  -0.9579385268   0.0000000000


    Structure for next step:
    Molecular point group: d2h
    Full point group: D_inf_h

    Geometry (in Angstrom), charge = 0, multiplicity = 1:

    S           -0.000000000000     0.957938526758     0.000000000000
    S            0.000000000000    -0.957938526758     0.000000000000


Scratch directory: /tmp/
gradient() will perform analytic gradient computation.
   => Libint2 <=

    Primary   basis highest AM E, G, H:  6, 6, 3
    Auxiliary basis highest AM E, G, H:  7, 7, 4
    Onebody   basis highest AM E, G, H:  -, -, -
    Solid Harmonics ordering:            Gaussian

*** tstart() called on cics-quant-001
*** at Tue Dec 23 11:34:06 2025

   => Loading Basis Set <=

    Name: CC-PVDZ
    Role: ORBITAL
    Keyword: BASIS
    atoms 1-2 entry S          line   598 file /home/jrodriguesro/psi4conda/share/psi4/basis/cc-pvdz.gbs 


         ---------------------------------------------------------
                                   SCF
               by Justin Turney, Rob Parrish, Andy Simmonett
                          and Daniel G. A. Smith
                              UKS Reference
                        5 Threads,   7629 MiB Core
         ---------------------------------------------------------

  ==> Geometry <==

    Molecular point group: d2h
    Full point group: D_inf_h

    Geometry (in Angstrom), charge = 0, multiplicity = 1:

       Center              X                  Y                   Z               Mass       
    ------------   -----------------  -----------------  -----------------  -----------------
         S           -0.000000000000     0.957938526758     0.000000000000    31.972071174400
         S            0.000000000000    -0.957938526758     0.000000000000    31.972071174400

  Running in d2h symmetry.

  Rotational constants: A = ************  B =      0.28729  C =      0.28729 [cm^-1]
  Rotational constants: A = ************  B =   8612.73633  C =   8612.73633 [MHz]
  Nuclear repulsion =   70.708799232655196

  Charge       = 0
  Multiplicity = 1
  Electrons    = 32
  Nalpha       = 16
  Nbeta        = 16

  ==> Algorithm <==

  SCF Algorithm Type is DF.
  DIIS enabled.
  MOM disabled.
  Fractional occupation disabled.
  Guess Type is READ.
  Energy threshold   = 1.00e-08
  Density threshold  = 1.00e-08
  Integral threshold = 1.00e-12

  ==> Primary Basis <==

  Basis Set: CC-PVDZ
    Blend: CC-PVDZ
    Number of shells: 16
    Number of basis functions: 36
    Number of Cartesian functions: 38
    Spherical Harmonics?: true
    Max angular momentum: 2

  ==> DFT Potential <==

   => LibXC <=

    Version 7.0.0
    S. Lehtola, C. Steigemann, M. J.T. Oliveira, and M. A.L. Marques.,  SoftwareX 7, 1–5 (2018) (10.1016/j.softx.2017.11.002)

   => Composite Functional: B3LYP <= 

    B3LYP Hyb-GGA Exchange-Correlation Functional

    P. J. Stephens, F. J. Devlin, C. F. Chabalowski, and M. J. Frisch.,  J. Phys. Chem. 98, 11623 (1994) (10.1021/j100096a001)

    Deriv               =              1
    GGA                 =           TRUE
    Meta                =          FALSE

    Exchange Hybrid     =           TRUE
    MP2 Hybrid          =          FALSE

   => Exchange Functionals <=

    0.0800   Slater exchange
    0.7200         Becke 88

   => Exact (HF) Exchange <=

    0.2000               HF 

   => Correlation Functionals <=

    0.1900   Vosko, Wilk & Nusair (VWN5_RPA)
    0.8100   Lee, Yang & Parr

   => LibXC Density Thresholds  <==

    XC_HYB_GGA_XC_B3LYP:  1.00E-15 

   => Molecular Quadrature <=

    Radial Scheme          =       TREUTLER
    Pruning Scheme         =           NONE
    Nuclear Scheme         =       TREUTLER

    Blocking Scheme        =         OCTREE
    BS radius alpha        =              1
    Pruning alpha          =              1
    Radial Points          =             75
    Spherical Points       =            302
    Total Points           =          40206
    Total Blocks           =            372
    Max Points             =            256
    Max Functions          =             36
    Weights Tolerance      =       1.00E-15

   => Loading Basis Set <=

    Name: (CC-PVDZ AUX)
    Role: JKFIT
    Keyword: DF_BASIS_SCF
    atoms 1-2 entry S          line   593 file /home/jrodriguesro/psi4conda/share/psi4/basis/cc-pvdz-jkfit.gbs 

   => Loading Basis Set <=

    Name: CC-PVDZ
    Role: ORBITAL
    Keyword: BASIS
    atoms 1-2 entry S          line   598 file /home/jrodriguesro/psi4conda/share/psi4/basis/cc-pvdz.gbs 

  Reading orbitals from file /tmp/singlet_SS.default.409969.180.npy, no projection.

  ==> Integral Setup <==

  DFHelper Memory: AOs need 0.003 GiB; user supplied 5.546 GiB. 
  SCF_SUBTYPE=INCORE selected. In-core MEM_DF algorithm will be used.
  Using in-core AOs.

  ==> MemDFJK: Density-Fitted J/K Matrices <==

    J tasked:                   Yes
    K tasked:                   Yes
    wK tasked:                   No
    OpenMP threads:               5
    Memory [MiB]:              5679
    Algorithm:                 Core
    Schwarz Cutoff:           1E-12
    Mask sparsity (%):       0.0000
    Fitting Condition:        1E-10

   => Auxiliary Basis Set <=

  Basis Set: (CC-PVDZ AUX)
    Blend: CC-PVDZ-JKFIT
    Number of shells: 72
    Number of basis functions: 224
    Number of Cartesian functions: 260
    Spherical Harmonics?: true
    Max angular momentum: 3

  Cached 100.0% of DFT collocation blocks in 0.042 [GiB].

  Minimum eigenvalue in the overlap matrix is 2.8037874088E-02.
  Reciprocal condition number of the overlap matrix is 1.1259537249E-02.
    Using symmetric orthogonalization.

  ==> Pre-Iterations <==

  SCF Guess: Orbitals guess was supplied from a previous computation.

   -------------------------------------------------------
    Irrep   Nso     Nmo     Nalpha   Nbeta   Ndocc  Nsocc
   -------------------------------------------------------
     Ag         9       9       5       5       5       0
     B1g        4       4       2       2       2       0
     B2g        1       1       0       0       0       0
     B3g        4       4       1       1       1       0
     Au         1       1       0       0       0       0
     B1u        4       4       2       2       2       0
     B2u        9       9       4       4       4       0
     B3u        4       4       2       2       2       0
   -------------------------------------------------------
    Total      36      36      16      16      16       0
   -------------------------------------------------------

  ==> Iterations <==

                           Total Energy        Delta E     RMS |[F,P]|

   @DF-UKS iter   0:  -796.35590325501255   -7.96356e+02   3.58822e-03 
   @DF-UKS iter   1:  -796.36803620339413   -1.21329e-02   6.23034e-04 ADIIS/DIIS
   @DF-UKS iter   2:  -796.36805097127638   -1.47679e-05   5.46011e-04 ADIIS/DIIS/DAMP=1%
   @DF-UKS iter   3:  -796.36770520229175    3.45769e-04   1.30765e-05 DIIS/DAMP=1%
   @DF-UKS iter   4:  -796.36810815719593   -4.02955e-04   3.94495e-06 DIIS/DAMP=1%
   @DF-UKS iter   5:  -796.36809058591086    1.75713e-05   3.88726e-07 DIIS/DAMP=1%
   @DF-UKS iter   6:  -796.36809492978159   -4.34387e-06   2.16726e-08 DIIS/DAMP=1%
   @DF-UKS iter   7:  -796.36809503353618   -1.03755e-07   1.56067e-09 DIIS/DAMP=1%
   @DF-UKS iter   8:  -796.36809502972767    3.80851e-09   2.90341e-11 DIIS/DAMP=1%
  Energy and wave function converged.


  ==> Post-Iterations <==

   Electrons on quadrature grid:
      Nalpha   =   15.9999989586 ; deviation = -1.041e-06
      Nbeta    =   15.9999989586 ; deviation = -1.041e-06
      Ntotal   =   31.9999979171 ; deviation = -2.083e-06 

   @Spin Contamination Metric:  -3.552713679E-15
   @S^2 Expected:                0.000000000E+00
   @S^2 Observed:               -3.552713679E-15
   @S   Expected:                0.000000000E+00
   @S   Observed:                0.000000000E+00

    Orbital Energies [Eh]
    ---------------------

    Alpha Occupied:                                                       

       1Ag   -88.930412     1B2u  -88.930412     2Ag    -7.991193  
       2B2u   -7.991164     1B1u   -5.956517     1B3g   -5.956462  
       3Ag    -5.954173     3B2u   -5.953482     1B3u   -5.942282  
       1B1g   -5.942231     4Ag    -0.828506     4B2u   -0.609586  
       5Ag    -0.390001     2B1u   -0.359882     2B3u   -0.346001  
       2B1g   -0.211467  

    Alpha Virtual:                                                        

       2B3g   -0.177097     5B2u    0.003300     6Ag     0.302400  
       3B1u    0.398906     3B3u    0.419946     6B2u    0.440315  
       7Ag     0.448860     4B1u    0.465017     4B3u    0.484826  
       3B3g    0.501084     3B1g    0.517276     1B2g    0.523651  
       8Ag     0.525420     1Au     0.627161     7B2u    0.628265  
       8B2u    0.681107     9Ag     0.815829     4B3g    0.845060  
       4B1g    0.867770     9B2u    1.232564  

    Beta Occupied:                                                        

       1Ag   -88.930412     1B2u  -88.930412     2Ag    -7.991193  
       2B2u   -7.991164     1B1u   -5.956517     1B3g   -5.956462  
       3Ag    -5.954173     3B2u   -5.953482     1B3u   -5.942282  
       1B1g   -5.942231     4Ag    -0.828506     4B2u   -0.609586  
       5Ag    -0.390001     2B1u   -0.359882     2B3u   -0.346001  
       2B1g   -0.211467  

    Beta Virtual:                                                         

       2B3g   -0.177097     5B2u    0.003300     6Ag     0.302400  
       3B1u    0.398906     3B3u    0.419946     6B2u    0.440315  
       7Ag     0.448860     4B1u    0.465017     4B3u    0.484826  
       3B3g    0.501084     3B1g    0.517276     1B2g    0.523651  
       8Ag     0.525420     1Au     0.627161     7B2u    0.628265  
       8B2u    0.681107     9Ag     0.815829     4B3g    0.845060  
       4B1g    0.867770     9B2u    1.232564  

    Final Occupation by Irrep:
             Ag   B1g   B2g   B3g    Au   B1u   B2u   B3u 
    DOCC [     5,    2,    0,    1,    0,    2,    4,    2 ]
    SOCC [     0,    0,    0,    0,    0,    0,    0,    0 ]
    NA   [     5,    2,    0,    1,    0,    2,    4,    2 ]
    NB   [     5,    2,    0,    1,    0,    2,    4,    2 ]

  @DF-UKS Final Energy:  -796.36809502972767

   => Energetics <=

    Nuclear Repulsion Energy =             70.7087992326551955
    One-Electron Energy =               -1240.1483995122539454
    Two-Electron Energy =                 414.4374096190618957
    DFT Exchange-Correlation Energy =     -41.3659043691906589
    Empirical Dispersion Energy =           0.0000000000000000
    VV10 Nonlocal Energy =                  0.0000000000000000
    Total Energy =                       -796.3680950297275558

  UHF NO Occupations:
  HONO-2 :    4B2u 2.0000000
  HONO-1 :    5 Ag 2.0000000
  HONO-0 :    4 Ag 2.0000000
  LUNO+0 :    6 Ag 0.0000000
  LUNO+1 :    3B1g 0.0000000
  LUNO+2 :    3B1u 0.0000000
  LUNO+3 :    5B2u 0.0000000


Computation Completed


Properties will be evaluated at   0.000000,   0.000000,   0.000000 [a0]

Properties computed using the SCF density matrix


 Multipole Moments:

 ------------------------------------------------------------------------------------
     Multipole            Electronic (a.u.)      Nuclear  (a.u.)        Total (a.u.)
 ------------------------------------------------------------------------------------

 L = 1.  Multiply by 2.5417464519 to convert [e a0] to [Debye]
 Dipole X            :          0.0000000            0.0000000            0.0000000
 Dipole Y            :          0.0000000            0.0000000            0.0000000
 Dipole Z            :          0.0000000            0.0000000            0.0000000
 Magnitude           :                                                    0.0000000

 ------------------------------------------------------------------------------------

*** tstop() called on cics-quant-001 at Tue Dec 23 11:34:07 2025
Module time:
	user time   =       0.73 seconds =       0.01 minutes
	system time =       0.11 seconds =       0.00 minutes
	total time  =          1 seconds =       0.02 minutes
Total time:
	user time   =      11.78 seconds =       0.20 minutes
	system time =       2.22 seconds =       0.04 minutes
	total time  =          7 seconds =       0.12 minutes

*** tstart() called on cics-quant-001
*** at Tue Dec 23 11:34:07 2025


         ------------------------------------------------------------
                                   SCF GRAD                          
                          Rob Parrish, Justin Turney,                
                       Andy Simmonett, and Alex Sokolov              
         ------------------------------------------------------------

  ==> Geometry <==

    Molecular point group: d2h
    Full point group: D_inf_h

    Geometry (in Angstrom), charge = 0, multiplicity = 1:

       Center              X                  Y                   Z               Mass       
    ------------   -----------------  -----------------  -----------------  -----------------
         S           -0.000000000000     0.957938526758     0.000000000000    31.972071174400
         S            0.000000000000    -0.957938526758     0.000000000000    31.972071174400

  Nuclear repulsion =   70.708799232655196

  ==> Basis Set <==

  Basis Set: CC-PVDZ
    Blend: CC-PVDZ
    Number of shells: 16
    Number of basis functions: 36
    Number of Cartesian functions: 38
    Spherical Harmonics?: true
    Max angular momentum: 2

  ==> DFJKGrad: Density-Fitted SCF Gradients <==

    Gradient:                    1
    J tasked:                  Yes
    K tasked:                  Yes
    wK tasked:                  No
    OpenMP threads:              5
    Integrals threads:           5
    Memory [MiB]:             5722
    Schwarz Cutoff:          1E-12
    Fitting Condition:       1E-10

   => Auxiliary Basis Set <=

  Basis Set: (CC-PVDZ AUX)
    Blend: CC-PVDZ-JKFIT
    Number of shells: 72
    Number of basis functions: 224
    Number of Cartesian functions: 260
    Spherical Harmonics?: true
    Max angular momentum: 3

  ==> DFT Potential <==

   => LibXC <=

    Version 7.0.0
    S. Lehtola, C. Steigemann, M. J.T. Oliveira, and M. A.L. Marques.,  SoftwareX 7, 1–5 (2018) (10.1016/j.softx.2017.11.002)

   => Composite Functional: B3LYP <= 

    B3LYP Hyb-GGA Exchange-Correlation Functional

    P. J. Stephens, F. J. Devlin, C. F. Chabalowski, and M. J. Frisch.,  J. Phys. Chem. 98, 11623 (1994) (10.1021/j100096a001)

    Deriv               =              1
    GGA                 =           TRUE
    Meta                =          FALSE

    Exchange Hybrid     =           TRUE
    MP2 Hybrid          =          FALSE

   => Exchange Functionals <=

    0.0800   Slater exchange
    0.7200         Becke 88

   => Exact (HF) Exchange <=

    0.2000               HF 

   => Correlation Functionals <=

    0.1900   Vosko, Wilk & Nusair (VWN5_RPA)
    0.8100   Lee, Yang & Parr

   => LibXC Density Thresholds  <==

    XC_HYB_GGA_XC_B3LYP:  1.00E-15 

   => Molecular Quadrature <=

    Radial Scheme          =       TREUTLER
    Pruning Scheme         =           NONE
    Nuclear Scheme         =       TREUTLER

    Blocking Scheme        =         OCTREE
    BS radius alpha        =              1
    Pruning alpha          =              1
    Radial Points          =             75
    Spherical Points       =            302
    Total Points           =          40206
    Total Blocks           =            372
    Max Points             =            256
    Max Functions          =             36
    Weights Tolerance      =       1.00E-15


  -Total Gradient:
     Atom            X                  Y                   Z
    ------   -----------------  -----------------  -----------------
       1        0.000000000000    -0.012024463198     0.000000000000
       2       -0.000000000000     0.012024463198     0.000000000000


*** tstop() called on cics-quant-001 at Tue Dec 23 11:34:07 2025
Module time:
	user time   =       0.31 seconds =       0.01 minutes
	system time =       0.12 seconds =       0.00 minutes
	total time  =          0 seconds =       0.00 minutes
Total time:
	user time   =      12.09 seconds =       0.20 minutes
	system time =       2.34 seconds =       0.04 minutes
	total time  =          7 seconds =       0.12 minutes

    			-----------------------------------------

    			 OPTKING 3.0: for geometry optimizations 

    			     By R.A. King, Bethel University     

    			        with contributions from          

    			    A.V. Copan, J. Cayton, A. Heide      

    			-----------------------------------------

    
	                            ===> Fragment 1 <== 

	 Z (Atomic Numbers)          Masses                          Geom                  
	      16.000000            31.972071         -0.00000000  1.81024146  0.00000000   
	      16.000000            31.972071          0.00000000 -1.81024146  0.00000000   

	 - Coordinate -           - BOHR/RAD -       - ANG/DEG -
	 R(1,2)           =         3.620483           1.915877


	        --- Internal Coordinate Step in ANG or DEG, aJ/ANG or AJ/DEG ---
	-------------------------------------------------------------------------------
	           Coordinate      Previous         Force          Change          New 
	           ----------      --------        ------          ------        ------
	               R(1,2)       1.91588        0.09907        0.01091       1.92679
	-------------------------------------------------------------------------------

	                                 ==> Convergence Check <==                                  
    
	Measures of convergence in internal coordinates in au.
    
	Criteria marked as inactive (o), active & met (*), and active & unmet ( ).

	----------------------------------------------------------------------------------------------
	   Step    Total Energy     Delta E     Max Force     RMS Force      Max Disp      RMS Disp   
	----------------------------------------------------------------------------------------------
	  Convergence Criteria     1.00e-06 *    3.00e-04 *             o    1.20e-03 *             o
	----------------------------------------------------------------------------------------------
	    11    -796.36809503   -8.81e-04      1.20e-02      1.20e-02 o    2.06e-02      2.06e-02 o  ~
	----------------------------------------------------------------------------------------------

Next Geometry in Ang 
	Fragment 1 (Ang)

	    S  -0.0000000000   0.9633930435   0.0000000000
	    S   0.0000000000  -0.9633930435   0.0000000000


    Structure for next step:
    Molecular point group: d2h
    Full point group: D_inf_h

    Geometry (in Angstrom), charge = 0, multiplicity = 1:

    S           -0.000000000000     0.963393043473     0.000000000000
    S            0.000000000000    -0.963393043473     0.000000000000


Scratch directory: /tmp/
gradient() will perform analytic gradient computation.
   => Libint2 <=

    Primary   basis highest AM E, G, H:  6, 6, 3
    Auxiliary basis highest AM E, G, H:  7, 7, 4
    Onebody   basis highest AM E, G, H:  -, -, -
    Solid Harmonics ordering:            Gaussian

*** tstart() called on cics-quant-001
*** at Tue Dec 23 11:34:07 2025

   => Loading Basis Set <=

    Name: CC-PVDZ
    Role: ORBITAL
    Keyword: BASIS
    atoms 1-2 entry S          line   598 file /home/jrodriguesro/psi4conda/share/psi4/basis/cc-pvdz.gbs 


         ---------------------------------------------------------
                                   SCF
               by Justin Turney, Rob Parrish, Andy Simmonett
                          and Daniel G. A. Smith
                              UKS Reference
                        5 Threads,   7629 MiB Core
         ---------------------------------------------------------

  ==> Geometry <==

    Molecular point group: d2h
    Full point group: D_inf_h

    Geometry (in Angstrom), charge = 0, multiplicity = 1:

       Center              X                  Y                   Z               Mass       
    ------------   -----------------  -----------------  -----------------  -----------------
         S           -0.000000000000     0.963393043473     0.000000000000    31.972071174400
         S            0.000000000000    -0.963393043473     0.000000000000    31.972071174400

  Running in d2h symmetry.

  Rotational constants: A = ************  B =      0.28405  C =      0.28405 [cm^-1]
  Rotational constants: A = ************  B =   8515.48563  C =   8515.48563 [MHz]
  Nuclear repulsion =   70.308461769262138

  Charge       = 0
  Multiplicity = 1
  Electrons    = 32
  Nalpha       = 16
  Nbeta        = 16

  ==> Algorithm <==

  SCF Algorithm Type is DF.
  DIIS enabled.
  MOM disabled.
  Fractional occupation disabled.
  Guess Type is READ.
  Energy threshold   = 1.00e-08
  Density threshold  = 1.00e-08
  Integral threshold = 1.00e-12

  ==> Primary Basis <==

  Basis Set: CC-PVDZ
    Blend: CC-PVDZ
    Number of shells: 16
    Number of basis functions: 36
    Number of Cartesian functions: 38
    Spherical Harmonics?: true
    Max angular momentum: 2

  ==> DFT Potential <==

   => LibXC <=

    Version 7.0.0
    S. Lehtola, C. Steigemann, M. J.T. Oliveira, and M. A.L. Marques.,  SoftwareX 7, 1–5 (2018) (10.1016/j.softx.2017.11.002)

   => Composite Functional: B3LYP <= 

    B3LYP Hyb-GGA Exchange-Correlation Functional

    P. J. Stephens, F. J. Devlin, C. F. Chabalowski, and M. J. Frisch.,  J. Phys. Chem. 98, 11623 (1994) (10.1021/j100096a001)

    Deriv               =              1
    GGA                 =           TRUE
    Meta                =          FALSE

    Exchange Hybrid     =           TRUE
    MP2 Hybrid          =          FALSE

   => Exchange Functionals <=

    0.0800   Slater exchange
    0.7200         Becke 88

   => Exact (HF) Exchange <=

    0.2000               HF 

   => Correlation Functionals <=

    0.1900   Vosko, Wilk & Nusair (VWN5_RPA)
    0.8100   Lee, Yang & Parr

   => LibXC Density Thresholds  <==

    XC_HYB_GGA_XC_B3LYP:  1.00E-15 

   => Molecular Quadrature <=

    Radial Scheme          =       TREUTLER
    Pruning Scheme         =           NONE
    Nuclear Scheme         =       TREUTLER

    Blocking Scheme        =         OCTREE
    BS radius alpha        =              1
    Pruning alpha          =              1
    Radial Points          =             75
    Spherical Points       =            302
    Total Points           =          40206
    Total Blocks           =            372
    Max Points             =            256
    Max Functions          =             36
    Weights Tolerance      =       1.00E-15

   => Loading Basis Set <=

    Name: (CC-PVDZ AUX)
    Role: JKFIT
    Keyword: DF_BASIS_SCF
    atoms 1-2 entry S          line   593 file /home/jrodriguesro/psi4conda/share/psi4/basis/cc-pvdz-jkfit.gbs 

   => Loading Basis Set <=

    Name: CC-PVDZ
    Role: ORBITAL
    Keyword: BASIS
    atoms 1-2 entry S          line   598 file /home/jrodriguesro/psi4conda/share/psi4/basis/cc-pvdz.gbs 

  Reading orbitals from file /tmp/singlet_SS.default.409969.180.npy, no projection.

  ==> Integral Setup <==

  DFHelper Memory: AOs need 0.003 GiB; user supplied 5.546 GiB. 
  SCF_SUBTYPE=INCORE selected. In-core MEM_DF algorithm will be used.
  Using in-core AOs.

  ==> MemDFJK: Density-Fitted J/K Matrices <==

    J tasked:                   Yes
    K tasked:                   Yes
    wK tasked:                   No
    OpenMP threads:               5
    Memory [MiB]:              5679
    Algorithm:                 Core
    Schwarz Cutoff:           1E-12
    Mask sparsity (%):       0.0000
    Fitting Condition:        1E-10

   => Auxiliary Basis Set <=

  Basis Set: (CC-PVDZ AUX)
    Blend: CC-PVDZ-JKFIT
    Number of shells: 72
    Number of basis functions: 224
    Number of Cartesian functions: 260
    Spherical Harmonics?: true
    Max angular momentum: 3

  Cached 100.0% of DFT collocation blocks in 0.042 [GiB].

  Minimum eigenvalue in the overlap matrix is 2.8512575987E-02.
  Reciprocal condition number of the overlap matrix is 1.1484965097E-02.
    Using symmetric orthogonalization.

  ==> Pre-Iterations <==

  SCF Guess: Orbitals guess was supplied from a previous computation.

   -------------------------------------------------------
    Irrep   Nso     Nmo     Nalpha   Nbeta   Ndocc  Nsocc
   -------------------------------------------------------
     Ag         9       9       5       5       5       0
     B1g        4       4       2       2       2       0
     B2g        1       1       0       0       0       0
     B3g        4       4       1       1       1       0
     Au         1       1       0       0       0       0
     B1u        4       4       2       2       2       0
     B2u        9       9       4       4       4       0
     B3u        4       4       2       2       2       0
   -------------------------------------------------------
    Total      36      36      16      16      16       0
   -------------------------------------------------------

  ==> Iterations <==

                           Total Energy        Delta E     RMS |[F,P]|

   @DF-UKS iter   0:  -796.36271822857054   -7.96363e+02   1.59760e-03 
   @DF-UKS iter   1:  -796.36826284675385   -5.54462e-03   2.83969e-04 ADIIS/DIIS
   @DF-UKS iter   2:  -796.36826589264138   -3.04589e-06   2.49195e-04 ADIIS/DIIS/DAMP=1%
   @DF-UKS iter   3:  -796.36809799470734    1.67898e-04   5.68124e-06 DIIS/DAMP=1%
   @DF-UKS iter   4:  -796.36828073269635   -1.82738e-04   1.78651e-06 DIIS/DAMP=1%
   @DF-UKS iter   5:  -796.36827307211206    7.66058e-06   1.83691e-07 DIIS/DAMP=1%
   @DF-UKS iter   6:  -796.36827502845040   -1.95634e-06   1.02046e-08 DIIS/DAMP=1%
   @DF-UKS iter   7:  -796.36827508184365   -5.33933e-08   7.29877e-10 DIIS/DAMP=1%
   @DF-UKS iter   8:  -796.36827507992132    1.92233e-09   9.15278e-12 DIIS/DAMP=1%
  Energy and wave function converged.


  ==> Post-Iterations <==

   Electrons on quadrature grid:
      Nalpha   =   15.9999990177 ; deviation = -9.823e-07
      Nbeta    =   15.9999990177 ; deviation = -9.823e-07
      Ntotal   =   31.9999980355 ; deviation = -1.965e-06 

   @Spin Contamination Metric:   8.881784197E-15
   @S^2 Expected:                0.000000000E+00
   @S^2 Observed:                8.881784197E-15
   @S   Expected:                0.000000000E+00
   @S   Observed:                0.000000000E+00

    Orbital Energies [Eh]
    ---------------------

    Alpha Occupied:                                                       

       1Ag   -88.931225     1B2u  -88.931224     2Ag    -7.991689  
       2B2u   -7.991669     1B1u   -5.957034     1B3g   -5.956984  
       3Ag    -5.954688     3B2u   -5.954046     1B3u   -5.942796  
       1B1g   -5.942748     4Ag    -0.825654     4B2u   -0.610866  
       5Ag    -0.389610     2B1u   -0.358439     2B3u   -0.344727  
       2B1g   -0.212630  

    Alpha Virtual:                                                        

       2B3g   -0.178300     5B2u   -0.000259     6Ag     0.304744  
       3B1u    0.401038     3B3u    0.422044     6B2u    0.439705  
       7Ag     0.448598     4B1u    0.464041     4B3u    0.483810  
       3B3g    0.500440     3B1g    0.516639     1B2g    0.525014  
       8Ag     0.526782     1Au     0.625877     7B2u    0.626938  
       8B2u    0.677282     9Ag     0.811422     4B3g    0.840913  
       4B1g    0.863561     9B2u    1.227415  

    Beta Occupied:                                                        

       1Ag   -88.931225     1B2u  -88.931224     2Ag    -7.991689  
       2B2u   -7.991669     1B1u   -5.957034     1B3g   -5.956984  
       3Ag    -5.954688     3B2u   -5.954046     1B3u   -5.942796  
       1B1g   -5.942748     4Ag    -0.825654     4B2u   -0.610866  
       5Ag    -0.389610     2B1u   -0.358439     2B3u   -0.344727  
       2B1g   -0.212630  

    Beta Virtual:                                                         

       2B3g   -0.178300     5B2u   -0.000259     6Ag     0.304744  
       3B1u    0.401038     3B3u    0.422044     6B2u    0.439705  
       7Ag     0.448598     4B1u    0.464041     4B3u    0.483810  
       3B3g    0.500440     3B1g    0.516639     1B2g    0.525014  
       8Ag     0.526782     1Au     0.625877     7B2u    0.626938  
       8B2u    0.677282     9Ag     0.811422     4B3g    0.840913  
       4B1g    0.863561     9B2u    1.227415  

    Final Occupation by Irrep:
             Ag   B1g   B2g   B3g    Au   B1u   B2u   B3u 
    DOCC [     5,    2,    0,    1,    0,    2,    4,    2 ]
    SOCC [     0,    0,    0,    0,    0,    0,    0,    0 ]
    NA   [     5,    2,    0,    1,    0,    2,    4,    2 ]
    NB   [     5,    2,    0,    1,    0,    2,    4,    2 ]

  @DF-UKS Final Energy:  -796.36827507992132

   => Energetics <=

    Nuclear Repulsion Energy =             70.3084617692621379
    One-Electron Energy =               -1239.3463158649117304
    Two-Electron Energy =                 414.0313681010056825
    DFT Exchange-Correlation Energy =     -41.3617890852773158
    Empirical Dispersion Energy =           0.0000000000000000
    VV10 Nonlocal Energy =                  0.0000000000000000
    Total Energy =                       -796.3682750799213181

  UHF NO Occupations:
  HONO-2 :    5 Ag 2.0000000
  HONO-1 :    1B1g 2.0000000
  HONO-0 :    2B1g 2.0000000
  LUNO+0 :    2B3g 0.0000000
  LUNO+1 :    3B3u 0.0000000
  LUNO+2 :    3B1g 0.0000000
  LUNO+3 :    5B2u 0.0000000


Computation Completed


Properties will be evaluated at   0.000000,   0.000000,   0.000000 [a0]

Properties computed using the SCF density matrix


 Multipole Moments:

 ------------------------------------------------------------------------------------
     Multipole            Electronic (a.u.)      Nuclear  (a.u.)        Total (a.u.)
 ------------------------------------------------------------------------------------

 L = 1.  Multiply by 2.5417464519 to convert [e a0] to [Debye]
 Dipole X            :          0.0000000            0.0000000            0.0000000
 Dipole Y            :          0.0000000            0.0000000            0.0000000
 Dipole Z            :          0.0000000            0.0000000            0.0000000
 Magnitude           :                                                    0.0000000

 ------------------------------------------------------------------------------------

*** tstop() called on cics-quant-001 at Tue Dec 23 11:34:08 2025
Module time:
	user time   =       0.84 seconds =       0.01 minutes
	system time =       0.09 seconds =       0.00 minutes
	total time  =          1 seconds =       0.02 minutes
Total time:
	user time   =      12.95 seconds =       0.22 minutes
	system time =       2.43 seconds =       0.04 minutes
	total time  =          8 seconds =       0.13 minutes

*** tstart() called on cics-quant-001
*** at Tue Dec 23 11:34:08 2025


         ------------------------------------------------------------
                                   SCF GRAD                          
                          Rob Parrish, Justin Turney,                
                       Andy Simmonett, and Alex Sokolov              
         ------------------------------------------------------------

  ==> Geometry <==

    Molecular point group: d2h
    Full point group: D_inf_h

    Geometry (in Angstrom), charge = 0, multiplicity = 1:

       Center              X                  Y                   Z               Mass       
    ------------   -----------------  -----------------  -----------------  -----------------
         S           -0.000000000000     0.963393043473     0.000000000000    31.972071174400
         S            0.000000000000    -0.963393043473     0.000000000000    31.972071174400

  Nuclear repulsion =   70.308461769262138

  ==> Basis Set <==

  Basis Set: CC-PVDZ
    Blend: CC-PVDZ
    Number of shells: 16
    Number of basis functions: 36
    Number of Cartesian functions: 38
    Spherical Harmonics?: true
    Max angular momentum: 2

  ==> DFJKGrad: Density-Fitted SCF Gradients <==

    Gradient:                    1
    J tasked:                  Yes
    K tasked:                  Yes
    wK tasked:                  No
    OpenMP threads:              5
    Integrals threads:           5
    Memory [MiB]:             5722
    Schwarz Cutoff:          1E-12
    Fitting Condition:       1E-10

   => Auxiliary Basis Set <=

  Basis Set: (CC-PVDZ AUX)
    Blend: CC-PVDZ-JKFIT
    Number of shells: 72
    Number of basis functions: 224
    Number of Cartesian functions: 260
    Spherical Harmonics?: true
    Max angular momentum: 3

  ==> DFT Potential <==

   => LibXC <=

    Version 7.0.0
    S. Lehtola, C. Steigemann, M. J.T. Oliveira, and M. A.L. Marques.,  SoftwareX 7, 1–5 (2018) (10.1016/j.softx.2017.11.002)

   => Composite Functional: B3LYP <= 

    B3LYP Hyb-GGA Exchange-Correlation Functional

    P. J. Stephens, F. J. Devlin, C. F. Chabalowski, and M. J. Frisch.,  J. Phys. Chem. 98, 11623 (1994) (10.1021/j100096a001)

    Deriv               =              1
    GGA                 =           TRUE
    Meta                =          FALSE

    Exchange Hybrid     =           TRUE
    MP2 Hybrid          =          FALSE

   => Exchange Functionals <=

    0.0800   Slater exchange
    0.7200         Becke 88

   => Exact (HF) Exchange <=

    0.2000               HF 

   => Correlation Functionals <=

    0.1900   Vosko, Wilk & Nusair (VWN5_RPA)
    0.8100   Lee, Yang & Parr

   => LibXC Density Thresholds  <==

    XC_HYB_GGA_XC_B3LYP:  1.00E-15 

   => Molecular Quadrature <=

    Radial Scheme          =       TREUTLER
    Pruning Scheme         =           NONE
    Nuclear Scheme         =       TREUTLER

    Blocking Scheme        =         OCTREE
    BS radius alpha        =              1
    Pruning alpha          =              1
    Radial Points          =             75
    Spherical Points       =            302
    Total Points           =          40206
    Total Blocks           =            372
    Max Points             =            256
    Max Functions          =             36
    Weights Tolerance      =       1.00E-15


  -Total Gradient:
     Atom            X                  Y                   Z
    ------   -----------------  -----------------  -----------------
       1        0.000000000000    -0.005500069325     0.000000000000
       2       -0.000000000000     0.005500069325     0.000000000000


*** tstop() called on cics-quant-001 at Tue Dec 23 11:34:08 2025
Module time:
	user time   =       0.27 seconds =       0.00 minutes
	system time =       0.13 seconds =       0.00 minutes
	total time  =          0 seconds =       0.00 minutes
Total time:
	user time   =      13.22 seconds =       0.22 minutes
	system time =       2.56 seconds =       0.04 minutes
	total time  =          8 seconds =       0.13 minutes

    			-----------------------------------------

    			 OPTKING 3.0: for geometry optimizations 

    			     By R.A. King, Bethel University     

    			        with contributions from          

    			    A.V. Copan, J. Cayton, A. Heide      

    			-----------------------------------------

    
	                            ===> Fragment 1 <== 

	 Z (Atomic Numbers)          Masses                          Geom                  
	      16.000000            31.972071         -0.00000000  1.82054900  0.00000000   
	      16.000000            31.972071          0.00000000 -1.82054900  0.00000000   

	 - Coordinate -           - BOHR/RAD -       - ANG/DEG -
	 R(1,2)           =         3.641098           1.926786


	        --- Internal Coordinate Step in ANG or DEG, aJ/ANG or AJ/DEG ---
	-------------------------------------------------------------------------------
	           Coordinate      Previous         Force          Change          New 
	           ----------      --------        ------          ------        ------
	               R(1,2)       1.92679        0.04531        0.00635       1.93314
	-------------------------------------------------------------------------------

	                                 ==> Convergence Check <==                                  
    
	Measures of convergence in internal coordinates in au.
    
	Criteria marked as inactive (o), active & met (*), and active & unmet ( ).

	----------------------------------------------------------------------------------------------
	   Step    Total Energy     Delta E     Max Force     RMS Force      Max Disp      RMS Disp   
	----------------------------------------------------------------------------------------------
	  Convergence Criteria     1.00e-06 *    3.00e-04 *             o    1.20e-03 *             o
	----------------------------------------------------------------------------------------------
	    12    -796.36827508   -1.80e-04      5.50e-03      5.50e-03 o    1.20e-02      1.20e-02 o  ~
	----------------------------------------------------------------------------------------------

Next Geometry in Ang 
	Fragment 1 (Ang)

	    S  -0.0000000000   0.9665694512   0.0000000000
	    S   0.0000000000  -0.9665694512   0.0000000000


    Structure for next step:
    Molecular point group: d2h
    Full point group: D_inf_h

    Geometry (in Angstrom), charge = 0, multiplicity = 1:

    S           -0.000000000000     0.966569451229     0.000000000000
    S            0.000000000000    -0.966569451229     0.000000000000


Scratch directory: /tmp/
gradient() will perform analytic gradient computation.
   => Libint2 <=

    Primary   basis highest AM E, G, H:  6, 6, 3
    Auxiliary basis highest AM E, G, H:  7, 7, 4
    Onebody   basis highest AM E, G, H:  -, -, -
    Solid Harmonics ordering:            Gaussian

*** tstart() called on cics-quant-001
*** at Tue Dec 23 11:34:08 2025

   => Loading Basis Set <=

    Name: CC-PVDZ
    Role: ORBITAL
    Keyword: BASIS
    atoms 1-2 entry S          line   598 file /home/jrodriguesro/psi4conda/share/psi4/basis/cc-pvdz.gbs 


         ---------------------------------------------------------
                                   SCF
               by Justin Turney, Rob Parrish, Andy Simmonett
                          and Daniel G. A. Smith
                              UKS Reference
                        5 Threads,   7629 MiB Core
         ---------------------------------------------------------

  ==> Geometry <==

    Molecular point group: d2h
    Full point group: D_inf_h

    Geometry (in Angstrom), charge = 0, multiplicity = 1:

       Center              X                  Y                   Z               Mass       
    ------------   -----------------  -----------------  -----------------  -----------------
         S           -0.000000000000     0.966569451229     0.000000000000    31.972071174400
         S            0.000000000000    -0.966569451229     0.000000000000    31.972071174400

  Running in d2h symmetry.

  Rotational constants: A = ************  B =      0.28218  C =      0.28218 [cm^-1]
  Rotational constants: A = ************  B =   8459.60923  C =   8459.60923 [MHz]
  Nuclear repulsion =   70.077409212197395

  Charge       = 0
  Multiplicity = 1
  Electrons    = 32
  Nalpha       = 16
  Nbeta        = 16

  ==> Algorithm <==

  SCF Algorithm Type is DF.
  DIIS enabled.
  MOM disabled.
  Fractional occupation disabled.
  Guess Type is READ.
  Energy threshold   = 1.00e-08
  Density threshold  = 1.00e-08
  Integral threshold = 1.00e-12

  ==> Primary Basis <==

  Basis Set: CC-PVDZ
    Blend: CC-PVDZ
    Number of shells: 16
    Number of basis functions: 36
    Number of Cartesian functions: 38
    Spherical Harmonics?: true
    Max angular momentum: 2

  ==> DFT Potential <==

   => LibXC <=

    Version 7.0.0
    S. Lehtola, C. Steigemann, M. J.T. Oliveira, and M. A.L. Marques.,  SoftwareX 7, 1–5 (2018) (10.1016/j.softx.2017.11.002)

   => Composite Functional: B3LYP <= 

    B3LYP Hyb-GGA Exchange-Correlation Functional

    P. J. Stephens, F. J. Devlin, C. F. Chabalowski, and M. J. Frisch.,  J. Phys. Chem. 98, 11623 (1994) (10.1021/j100096a001)

    Deriv               =              1
    GGA                 =           TRUE
    Meta                =          FALSE

    Exchange Hybrid     =           TRUE
    MP2 Hybrid          =          FALSE

   => Exchange Functionals <=

    0.0800   Slater exchange
    0.7200         Becke 88

   => Exact (HF) Exchange <=

    0.2000               HF 

   => Correlation Functionals <=

    0.1900   Vosko, Wilk & Nusair (VWN5_RPA)
    0.8100   Lee, Yang & Parr

   => LibXC Density Thresholds  <==

    XC_HYB_GGA_XC_B3LYP:  1.00E-15 

   => Molecular Quadrature <=

    Radial Scheme          =       TREUTLER
    Pruning Scheme         =           NONE
    Nuclear Scheme         =       TREUTLER

    Blocking Scheme        =         OCTREE
    BS radius alpha        =              1
    Pruning alpha          =              1
    Radial Points          =             75
    Spherical Points       =            302
    Total Points           =          40222
    Total Blocks           =            372
    Max Points             =            255
    Max Functions          =             36
    Weights Tolerance      =       1.00E-15

   => Loading Basis Set <=

    Name: (CC-PVDZ AUX)
    Role: JKFIT
    Keyword: DF_BASIS_SCF
    atoms 1-2 entry S          line   593 file /home/jrodriguesro/psi4conda/share/psi4/basis/cc-pvdz-jkfit.gbs 

   => Loading Basis Set <=

    Name: CC-PVDZ
    Role: ORBITAL
    Keyword: BASIS
    atoms 1-2 entry S          line   598 file /home/jrodriguesro/psi4conda/share/psi4/basis/cc-pvdz.gbs 

  Reading orbitals from file /tmp/singlet_SS.default.409969.180.npy, no projection.

  ==> Integral Setup <==

  DFHelper Memory: AOs need 0.003 GiB; user supplied 5.546 GiB. 
  SCF_SUBTYPE=INCORE selected. In-core MEM_DF algorithm will be used.
  Using in-core AOs.

  ==> MemDFJK: Density-Fitted J/K Matrices <==

    J tasked:                   Yes
    K tasked:                   Yes
    wK tasked:                   No
    OpenMP threads:               5
    Memory [MiB]:              5679
    Algorithm:                 Core
    Schwarz Cutoff:           1E-12
    Mask sparsity (%):       0.0000
    Fitting Condition:        1E-10

   => Auxiliary Basis Set <=

  Basis Set: (CC-PVDZ AUX)
    Blend: CC-PVDZ-JKFIT
    Number of shells: 72
    Number of basis functions: 224
    Number of Cartesian functions: 260
    Spherical Harmonics?: true
    Max angular momentum: 3

  Cached 100.0% of DFT collocation blocks in 0.041 [GiB].

  Minimum eigenvalue in the overlap matrix is 2.8791048524E-02.
  Reciprocal condition number of the overlap matrix is 1.1617620838E-02.
    Using symmetric orthogonalization.

  ==> Pre-Iterations <==

  SCF Guess: Orbitals guess was supplied from a previous computation.

   -------------------------------------------------------
    Irrep   Nso     Nmo     Nalpha   Nbeta   Ndocc  Nsocc
   -------------------------------------------------------
     Ag         9       9       5       5       5       0
     B1g        4       4       2       2       2       0
     B2g        1       1       0       0       0       0
     B3g        4       4       1       1       1       0
     Au         1       1       0       0       0       0
     B1u        4       4       2       2       2       0
     B2u        9       9       4       4       4       0
     B3u        4       4       2       2       2       0
   -------------------------------------------------------
    Total      36      36      16      16      16       0
   -------------------------------------------------------

  ==> Iterations <==

                           Total Energy        Delta E     RMS |[F,P]|

   @DF-UKS iter   0:  -796.36509985613304   -7.96365e+02   9.16492e-04 
   @DF-UKS iter   1:  -796.36831500404435   -3.21515e-03   1.64834e-04 ADIIS/DIIS
   @DF-UKS iter   2:  -796.36831602702694   -1.02298e-06   1.44732e-04 ADIIS/DIIS/DAMP=1%
   @DF-UKS iter   3:  -796.36821658835936    9.94387e-05   3.21745e-06 DIIS/DAMP=1%
   @DF-UKS iter   4:  -796.36832231317214   -1.05725e-04   1.03322e-06 DIIS/DAMP=1%
   @DF-UKS iter   5:  -796.36831796853619    4.34464e-06   1.08700e-07 DIIS/DAMP=1%
   @DF-UKS iter   6:  -796.36831909657656   -1.12804e-06   6.03250e-09 DIIS/DAMP=1%
   @DF-UKS iter   7:  -796.36831912929460   -3.27180e-08   4.28764e-10 DIIS/DAMP=1%
   @DF-UKS iter   8:  -796.36831912811772    1.17689e-09   4.52538e-12 DIIS/DAMP=1%
  Energy and wave function converged.


  ==> Post-Iterations <==

   Electrons on quadrature grid:
      Nalpha   =   15.9999990593 ; deviation = -9.407e-07
      Nbeta    =   15.9999990593 ; deviation = -9.407e-07
      Ntotal   =   31.9999981187 ; deviation = -1.881e-06 

   @Spin Contamination Metric:  -7.105427358E-15
   @S^2 Expected:                0.000000000E+00
   @S^2 Observed:               -7.105427358E-15
   @S   Expected:                0.000000000E+00
   @S   Observed:                0.000000000E+00

    Orbital Energies [Eh]
    ---------------------

    Alpha Occupied:                                                       

       1Ag   -88.931691     1B2u  -88.931691     2Ag    -7.991976  
       2B2u   -7.991961     1B1u   -5.957333     1B3g   -5.957285  
       3Ag    -5.954988     3B2u   -5.954371     1B3u   -5.943093  
       1B1g   -5.943047     4Ag    -0.824015     4B2u   -0.611606  
       5Ag    -0.389375     2B1u   -0.357611     2B3u   -0.343997  
       2B1g   -0.213299  

    Alpha Virtual:                                                        

       2B3g   -0.178992     5B2u   -0.002321     6Ag     0.306117  
       3B1u    0.402265     3B3u    0.423251     6B2u    0.439359  
       7Ag     0.448445     4B1u    0.463498     4B3u    0.483242  
       3B3g    0.500070     3B1g    0.516274     1B2g    0.525795  
       8Ag     0.527562     1Au     0.625139     7B2u    0.626174  
       8B2u    0.675078     9Ag     0.808846     4B3g    0.838518  
       4B1g    0.861129     9B2u    1.224499  

    Beta Occupied:                                                        

       1Ag   -88.931691     1B2u  -88.931691     2Ag    -7.991976  
       2B2u   -7.991961     1B1u   -5.957333     1B3g   -5.957285  
       3Ag    -5.954988     3B2u   -5.954371     1B3u   -5.943093  
       1B1g   -5.943047     4Ag    -0.824015     4B2u   -0.611606  
       5Ag    -0.389375     2B1u   -0.357611     2B3u   -0.343997  
       2B1g   -0.213299  

    Beta Virtual:                                                         

       2B3g   -0.178992     5B2u   -0.002321     6Ag     0.306117  
       3B1u    0.402265     3B3u    0.423251     6B2u    0.439359  
       7Ag     0.448445     4B1u    0.463498     4B3u    0.483242  
       3B3g    0.500070     3B1g    0.516274     1B2g    0.525795  
       8Ag     0.527562     1Au     0.625139     7B2u    0.626174  
       8B2u    0.675078     9Ag     0.808846     4B3g    0.838518  
       4B1g    0.861129     9B2u    1.224499  

    Final Occupation by Irrep:
             Ag   B1g   B2g   B3g    Au   B1u   B2u   B3u 
    DOCC [     5,    2,    0,    1,    0,    2,    4,    2 ]
    SOCC [     0,    0,    0,    0,    0,    0,    0,    0 ]
    NA   [     5,    2,    0,    1,    0,    2,    4,    2 ]
    NB   [     5,    2,    0,    1,    0,    2,    4,    2 ]

  @DF-UKS Final Energy:  -796.36831912811772

   => Energetics <=

    Nuclear Repulsion Energy =             70.0774092121973950
    One-Electron Energy =               -1238.8832518714273192
    Two-Electron Energy =                 413.7969542916526393
    DFT Exchange-Correlation Energy =     -41.3594307605404765
    Empirical Dispersion Energy =           0.0000000000000000
    VV10 Nonlocal Energy =                  0.0000000000000000
    Total Energy =                       -796.3683191281178324

  UHF NO Occupations:
  HONO-2 :    4B2u 2.0000000
  HONO-1 :    2B1u 2.0000000
  HONO-0 :    5 Ag 2.0000000
  LUNO+0 :    5B2u 0.0000000
  LUNO+1 :    6 Ag 0.0000000
  LUNO+2 :    6B2u 0.0000000
  LUNO+3 :    2B3g 0.0000000


Computation Completed


Properties will be evaluated at   0.000000,   0.000000,   0.000000 [a0]

Properties computed using the SCF density matrix


 Multipole Moments:

 ------------------------------------------------------------------------------------
     Multipole            Electronic (a.u.)      Nuclear  (a.u.)        Total (a.u.)
 ------------------------------------------------------------------------------------

 L = 1.  Multiply by 2.5417464519 to convert [e a0] to [Debye]
 Dipole X            :          0.0000000            0.0000000            0.0000000
 Dipole Y            :          0.0000000            0.0000000            0.0000000
 Dipole Z            :          0.0000000            0.0000000            0.0000000
 Magnitude           :                                                    0.0000000

 ------------------------------------------------------------------------------------

*** tstop() called on cics-quant-001 at Tue Dec 23 11:34:08 2025
Module time:
	user time   =       0.83 seconds =       0.01 minutes
	system time =       0.10 seconds =       0.00 minutes
	total time  =          0 seconds =       0.00 minutes
Total time:
	user time   =      14.07 seconds =       0.23 minutes
	system time =       2.66 seconds =       0.04 minutes
	total time  =          8 seconds =       0.13 minutes

*** tstart() called on cics-quant-001
*** at Tue Dec 23 11:34:08 2025


         ------------------------------------------------------------
                                   SCF GRAD                          
                          Rob Parrish, Justin Turney,                
                       Andy Simmonett, and Alex Sokolov              
         ------------------------------------------------------------

  ==> Geometry <==

    Molecular point group: d2h
    Full point group: D_inf_h

    Geometry (in Angstrom), charge = 0, multiplicity = 1:

       Center              X                  Y                   Z               Mass       
    ------------   -----------------  -----------------  -----------------  -----------------
         S           -0.000000000000     0.966569451229     0.000000000000    31.972071174400
         S            0.000000000000    -0.966569451229     0.000000000000    31.972071174400

  Nuclear repulsion =   70.077409212197395

  ==> Basis Set <==

  Basis Set: CC-PVDZ
    Blend: CC-PVDZ
    Number of shells: 16
    Number of basis functions: 36
    Number of Cartesian functions: 38
    Spherical Harmonics?: true
    Max angular momentum: 2

  ==> DFJKGrad: Density-Fitted SCF Gradients <==

    Gradient:                    1
    J tasked:                  Yes
    K tasked:                  Yes
    wK tasked:                  No
    OpenMP threads:              5
    Integrals threads:           5
    Memory [MiB]:             5722
    Schwarz Cutoff:          1E-12
    Fitting Condition:       1E-10

   => Auxiliary Basis Set <=

  Basis Set: (CC-PVDZ AUX)
    Blend: CC-PVDZ-JKFIT
    Number of shells: 72
    Number of basis functions: 224
    Number of Cartesian functions: 260
    Spherical Harmonics?: true
    Max angular momentum: 3

  ==> DFT Potential <==

   => LibXC <=

    Version 7.0.0
    S. Lehtola, C. Steigemann, M. J.T. Oliveira, and M. A.L. Marques.,  SoftwareX 7, 1–5 (2018) (10.1016/j.softx.2017.11.002)

   => Composite Functional: B3LYP <= 

    B3LYP Hyb-GGA Exchange-Correlation Functional

    P. J. Stephens, F. J. Devlin, C. F. Chabalowski, and M. J. Frisch.,  J. Phys. Chem. 98, 11623 (1994) (10.1021/j100096a001)

    Deriv               =              1
    GGA                 =           TRUE
    Meta                =          FALSE

    Exchange Hybrid     =           TRUE
    MP2 Hybrid          =          FALSE

   => Exchange Functionals <=

    0.0800   Slater exchange
    0.7200         Becke 88

   => Exact (HF) Exchange <=

    0.2000               HF 

   => Correlation Functionals <=

    0.1900   Vosko, Wilk & Nusair (VWN5_RPA)
    0.8100   Lee, Yang & Parr

   => LibXC Density Thresholds  <==

    XC_HYB_GGA_XC_B3LYP:  1.00E-15 

   => Molecular Quadrature <=

    Radial Scheme          =       TREUTLER
    Pruning Scheme         =           NONE
    Nuclear Scheme         =       TREUTLER

    Blocking Scheme        =         OCTREE
    BS radius alpha        =              1
    Pruning alpha          =              1
    Radial Points          =             75
    Spherical Points       =            302
    Total Points           =          40222
    Total Blocks           =            372
    Max Points             =            255
    Max Functions          =             36
    Weights Tolerance      =       1.00E-15


  -Total Gradient:
     Atom            X                  Y                   Z
    ------   -----------------  -----------------  -----------------
       1        0.000000000000    -0.001857011644     0.000000000000
       2       -0.000000000000     0.001857011644     0.000000000000


*** tstop() called on cics-quant-001 at Tue Dec 23 11:34:08 2025
Module time:
	user time   =       0.29 seconds =       0.00 minutes
	system time =       0.13 seconds =       0.00 minutes
	total time  =          0 seconds =       0.00 minutes
Total time:
	user time   =      14.36 seconds =       0.24 minutes
	system time =       2.79 seconds =       0.05 minutes
	total time  =          8 seconds =       0.13 minutes

    			-----------------------------------------

    			 OPTKING 3.0: for geometry optimizations 

    			     By R.A. King, Bethel University     

    			        with contributions from          

    			    A.V. Copan, J. Cayton, A. Heide      

    			-----------------------------------------

    
	                            ===> Fragment 1 <== 

	 Z (Atomic Numbers)          Masses                          Geom                  
	      16.000000            31.972071         -0.00000000  1.82655154  0.00000000   
	      16.000000            31.972071          0.00000000 -1.82655154  0.00000000   

	 - Coordinate -           - BOHR/RAD -       - ANG/DEG -
	 R(1,2)           =         3.653103           1.933139


	        --- Internal Coordinate Step in ANG or DEG, aJ/ANG or AJ/DEG ---
	-------------------------------------------------------------------------------
	           Coordinate      Previous         Force          Change          New 
	           ----------      --------        ------          ------        ------
	               R(1,2)       1.93314        0.01530        0.00260       1.93574
	-------------------------------------------------------------------------------

	                                 ==> Convergence Check <==                                  
    
	Measures of convergence in internal coordinates in au.
    
	Criteria marked as inactive (o), active & met (*), and active & unmet ( ).

	----------------------------------------------------------------------------------------------
	   Step    Total Energy     Delta E     Max Force     RMS Force      Max Disp      RMS Disp   
	----------------------------------------------------------------------------------------------
	  Convergence Criteria     1.00e-06 *    3.00e-04 *             o    1.20e-03 *             o
	----------------------------------------------------------------------------------------------
	    13    -796.36831913   -4.40e-05      1.86e-03      1.86e-03 o    4.91e-03      4.91e-03 o  ~
	----------------------------------------------------------------------------------------------

Next Geometry in Ang 
	Fragment 1 (Ang)

	    S  -0.0000000000   0.9678691866   0.0000000000
	    S   0.0000000000  -0.9678691866   0.0000000000


    Structure for next step:
    Molecular point group: d2h
    Full point group: D_inf_h

    Geometry (in Angstrom), charge = 0, multiplicity = 1:

    S           -0.000000000000     0.967869186561     0.000000000000
    S            0.000000000000    -0.967869186561     0.000000000000


Scratch directory: /tmp/
gradient() will perform analytic gradient computation.
   => Libint2 <=

    Primary   basis highest AM E, G, H:  6, 6, 3
    Auxiliary basis highest AM E, G, H:  7, 7, 4
    Onebody   basis highest AM E, G, H:  -, -, -
    Solid Harmonics ordering:            Gaussian

*** tstart() called on cics-quant-001
*** at Tue Dec 23 11:34:08 2025

   => Loading Basis Set <=

    Name: CC-PVDZ
    Role: ORBITAL
    Keyword: BASIS
    atoms 1-2 entry S          line   598 file /home/jrodriguesro/psi4conda/share/psi4/basis/cc-pvdz.gbs 


         ---------------------------------------------------------
                                   SCF
               by Justin Turney, Rob Parrish, Andy Simmonett
                          and Daniel G. A. Smith
                              UKS Reference
                        5 Threads,   7629 MiB Core
         ---------------------------------------------------------

  ==> Geometry <==

    Molecular point group: d2h
    Full point group: D_inf_h

    Geometry (in Angstrom), charge = 0, multiplicity = 1:

       Center              X                  Y                   Z               Mass       
    ------------   -----------------  -----------------  -----------------  -----------------
         S           -0.000000000000     0.967869186561     0.000000000000    31.972071174400
         S            0.000000000000    -0.967869186561     0.000000000000    31.972071174400

  Running in d2h symmetry.

  Rotational constants: A = ************  B =      0.28142  C =      0.28142 [cm^-1]
  Rotational constants: A = ************  B =   8436.90395  C =   8436.90395 [MHz]
  Nuclear repulsion =   69.983303432196990

  Charge       = 0
  Multiplicity = 1
  Electrons    = 32
  Nalpha       = 16
  Nbeta        = 16

  ==> Algorithm <==

  SCF Algorithm Type is DF.
  DIIS enabled.
  MOM disabled.
  Fractional occupation disabled.
  Guess Type is READ.
  Energy threshold   = 1.00e-08
  Density threshold  = 1.00e-08
  Integral threshold = 1.00e-12

  ==> Primary Basis <==

  Basis Set: CC-PVDZ
    Blend: CC-PVDZ
    Number of shells: 16
    Number of basis functions: 36
    Number of Cartesian functions: 38
    Spherical Harmonics?: true
    Max angular momentum: 2

  ==> DFT Potential <==

   => LibXC <=

    Version 7.0.0
    S. Lehtola, C. Steigemann, M. J.T. Oliveira, and M. A.L. Marques.,  SoftwareX 7, 1–5 (2018) (10.1016/j.softx.2017.11.002)

   => Composite Functional: B3LYP <= 

    B3LYP Hyb-GGA Exchange-Correlation Functional

    P. J. Stephens, F. J. Devlin, C. F. Chabalowski, and M. J. Frisch.,  J. Phys. Chem. 98, 11623 (1994) (10.1021/j100096a001)

    Deriv               =              1
    GGA                 =           TRUE
    Meta                =          FALSE

    Exchange Hybrid     =           TRUE
    MP2 Hybrid          =          FALSE

   => Exchange Functionals <=

    0.0800   Slater exchange
    0.7200         Becke 88

   => Exact (HF) Exchange <=

    0.2000               HF 

   => Correlation Functionals <=

    0.1900   Vosko, Wilk & Nusair (VWN5_RPA)
    0.8100   Lee, Yang & Parr

   => LibXC Density Thresholds  <==

    XC_HYB_GGA_XC_B3LYP:  1.00E-15 

   => Molecular Quadrature <=

    Radial Scheme          =       TREUTLER
    Pruning Scheme         =           NONE
    Nuclear Scheme         =       TREUTLER

    Blocking Scheme        =         OCTREE
    BS radius alpha        =              1
    Pruning alpha          =              1
    Radial Points          =             75
    Spherical Points       =            302
    Total Points           =          40222
    Total Blocks           =            372
    Max Points             =            255
    Max Functions          =             36
    Weights Tolerance      =       1.00E-15

   => Loading Basis Set <=

    Name: (CC-PVDZ AUX)
    Role: JKFIT
    Keyword: DF_BASIS_SCF
    atoms 1-2 entry S          line   593 file /home/jrodriguesro/psi4conda/share/psi4/basis/cc-pvdz-jkfit.gbs 

   => Loading Basis Set <=

    Name: CC-PVDZ
    Role: ORBITAL
    Keyword: BASIS
    atoms 1-2 entry S          line   598 file /home/jrodriguesro/psi4conda/share/psi4/basis/cc-pvdz.gbs 

  Reading orbitals from file /tmp/singlet_SS.default.409969.180.npy, no projection.

  ==> Integral Setup <==

  DFHelper Memory: AOs need 0.003 GiB; user supplied 5.546 GiB. 
  SCF_SUBTYPE=INCORE selected. In-core MEM_DF algorithm will be used.
  Using in-core AOs.

  ==> MemDFJK: Density-Fitted J/K Matrices <==

    J tasked:                   Yes
    K tasked:                   Yes
    wK tasked:                   No
    OpenMP threads:               5
    Memory [MiB]:              5679
    Algorithm:                 Core
    Schwarz Cutoff:           1E-12
    Mask sparsity (%):       0.0000
    Fitting Condition:        1E-10

   => Auxiliary Basis Set <=

  Basis Set: (CC-PVDZ AUX)
    Blend: CC-PVDZ-JKFIT
    Number of shells: 72
    Number of basis functions: 224
    Number of Cartesian functions: 260
    Spherical Harmonics?: true
    Max angular momentum: 3

  Cached 100.0% of DFT collocation blocks in 0.041 [GiB].

  Minimum eigenvalue in the overlap matrix is 2.8905423176E-02.
  Reciprocal condition number of the overlap matrix is 1.1672194338E-02.
    Using symmetric orthogonalization.

  ==> Pre-Iterations <==

  SCF Guess: Orbitals guess was supplied from a previous computation.

   -------------------------------------------------------
    Irrep   Nso     Nmo     Nalpha   Nbeta   Ndocc  Nsocc
   -------------------------------------------------------
     Ag         9       9       5       5       5       0
     B1g        4       4       2       2       2       0
     B2g        1       1       0       0       0       0
     B3g        4       4       1       1       1       0
     Au         1       1       0       0       0       0
     B1u        4       4       2       2       2       0
     B2u        9       9       4       4       4       0
     B3u        4       4       2       2       2       0
   -------------------------------------------------------
    Total      36      36      16      16      16       0
   -------------------------------------------------------

  ==> Iterations <==

                           Total Energy        Delta E     RMS |[F,P]|

   @DF-UKS iter   0:  -796.36700986751441   -7.96367e+02   3.72277e-04 
   @DF-UKS iter   1:  -796.36832397082117   -1.31410e-03   6.73094e-05 DIIS
   @DF-UKS iter   2:  -796.36832414112337   -1.70302e-07   5.91192e-05 DIIS/DAMP=1%
   @DF-UKS iter   3:  -796.36828282109002    4.13200e-05   1.29810e-06 DIIS/DAMP=1%
   @DF-UKS iter   4:  -796.36832593991164   -4.31188e-05   4.21338e-07 DIIS/DAMP=1%
   @DF-UKS iter   5:  -796.36832418604490    1.75387e-06   4.48243e-08 DIIS/DAMP=1%
   @DF-UKS iter   6:  -796.36832464536428   -4.59319e-07   2.48296e-09 DIIS/DAMP=1%
   @DF-UKS iter   7:  -796.36832465910902   -1.37447e-08   1.76113e-10 DIIS/DAMP=1%
   @DF-UKS iter   8:  -796.36832465861789    4.91127e-10   1.59248e-12 DIIS/DAMP=1%
  Energy and wave function converged.


  ==> Post-Iterations <==

   Electrons on quadrature grid:
      Nalpha   =   15.9999990776 ; deviation = -9.224e-07
      Nbeta    =   15.9999990776 ; deviation = -9.224e-07
      Ntotal   =   31.9999981552 ; deviation = -1.845e-06 

   @Spin Contamination Metric:  -2.131628207E-14
   @S^2 Expected:                0.000000000E+00
   @S^2 Observed:               -2.131628207E-14
   @S   Expected:                0.000000000E+00
   @S   Observed:                0.000000000E+00

    Orbital Energies [Eh]
    ---------------------

    Alpha Occupied:                                                       

       1Ag   -88.931881     1B2u  -88.931880     2Ag    -7.992093  
       2B2u   -7.992080     1B1u   -5.957455     1B3g   -5.957407  
       3Ag    -5.955110     3B2u   -5.954504     1B3u   -5.943214  
       1B1g   -5.943169     4Ag    -0.823349     4B2u   -0.611908  
       5Ag    -0.389278     2B1u   -0.357274     2B3u   -0.343700  
       2B1g   -0.213571  

    Alpha Virtual:                                                        

       2B3g   -0.179274     5B2u   -0.003162     6Ag     0.306680  
       3B1u    0.402764     3B3u    0.423741     6B2u    0.439219  
       7Ag     0.448383     4B1u    0.463281     4B3u    0.483016  
       3B3g    0.499920     3B1g    0.516125     1B2g    0.526113  
       8Ag     0.527879     1Au     0.624840     7B2u    0.625864  
       8B2u    0.674182     9Ag     0.807791     4B3g    0.837543  
       4B1g    0.860139     9B2u    1.223322  

    Beta Occupied:                                                        

       1Ag   -88.931881     1B2u  -88.931880     2Ag    -7.992093  
       2B2u   -7.992080     1B1u   -5.957455     1B3g   -5.957407  
       3Ag    -5.955110     3B2u   -5.954504     1B3u   -5.943214  
       1B1g   -5.943169     4Ag    -0.823349     4B2u   -0.611908  
       5Ag    -0.389278     2B1u   -0.357274     2B3u   -0.343700  
       2B1g   -0.213571  

    Beta Virtual:                                                         

       2B3g   -0.179274     5B2u   -0.003162     6Ag     0.306680  
       3B1u    0.402764     3B3u    0.423741     6B2u    0.439219  
       7Ag     0.448383     4B1u    0.463281     4B3u    0.483016  
       3B3g    0.499920     3B1g    0.516125     1B2g    0.526113  
       8Ag     0.527879     1Au     0.624840     7B2u    0.625864  
       8B2u    0.674182     9Ag     0.807791     4B3g    0.837543  
       4B1g    0.860139     9B2u    1.223322  

    Final Occupation by Irrep:
             Ag   B1g   B2g   B3g    Au   B1u   B2u   B3u 
    DOCC [     5,    2,    0,    1,    0,    2,    4,    2 ]
    SOCC [     0,    0,    0,    0,    0,    0,    0,    0 ]
    NA   [     5,    2,    0,    1,    0,    2,    4,    2 ]
    NB   [     5,    2,    0,    1,    0,    2,    4,    2 ]

  @DF-UKS Final Energy:  -796.36832465861789

   => Energetics <=

    Nuclear Repulsion Energy =             69.9833034321969905
    One-Electron Energy =               -1238.6946196813928509
    Two-Electron Energy =                 413.7014653670241273
    DFT Exchange-Correlation Energy =     -41.3584737764463739
    Empirical Dispersion Energy =           0.0000000000000000
    VV10 Nonlocal Energy =                  0.0000000000000000
    Total Energy =                       -796.3683246586178939

  UHF NO Occupations:
  HONO-2 :    2B1u 2.0000000
  HONO-1 :    4B2u 2.0000000
  HONO-0 :    5 Ag 2.0000000
  LUNO+0 :    6 Ag 0.0000000
  LUNO+1 :    3B1g 0.0000000
  LUNO+2 :    5B2u 0.0000000
  LUNO+3 :    2B3g 0.0000000


Computation Completed


Properties will be evaluated at   0.000000,   0.000000,   0.000000 [a0]

Properties computed using the SCF density matrix


 Multipole Moments:

 ------------------------------------------------------------------------------------
     Multipole            Electronic (a.u.)      Nuclear  (a.u.)        Total (a.u.)
 ------------------------------------------------------------------------------------

 L = 1.  Multiply by 2.5417464519 to convert [e a0] to [Debye]
 Dipole X            :          0.0000000            0.0000000            0.0000000
 Dipole Y            :          0.0000000            0.0000000            0.0000000
 Dipole Z            :          0.0000000            0.0000000            0.0000000
 Magnitude           :                                                    0.0000000

 ------------------------------------------------------------------------------------

*** tstop() called on cics-quant-001 at Tue Dec 23 11:34:09 2025
Module time:
	user time   =       0.71 seconds =       0.01 minutes
	system time =       0.10 seconds =       0.00 minutes
	total time  =          1 seconds =       0.02 minutes
Total time:
	user time   =      15.09 seconds =       0.25 minutes
	system time =       2.89 seconds =       0.05 minutes
	total time  =          9 seconds =       0.15 minutes

*** tstart() called on cics-quant-001
*** at Tue Dec 23 11:34:09 2025


         ------------------------------------------------------------
                                   SCF GRAD                          
                          Rob Parrish, Justin Turney,                
                       Andy Simmonett, and Alex Sokolov              
         ------------------------------------------------------------

  ==> Geometry <==

    Molecular point group: d2h
    Full point group: D_inf_h

    Geometry (in Angstrom), charge = 0, multiplicity = 1:

       Center              X                  Y                   Z               Mass       
    ------------   -----------------  -----------------  -----------------  -----------------
         S           -0.000000000000     0.967869186561     0.000000000000    31.972071174400
         S            0.000000000000    -0.967869186561     0.000000000000    31.972071174400

  Nuclear repulsion =   69.983303432196990

  ==> Basis Set <==

  Basis Set: CC-PVDZ
    Blend: CC-PVDZ
    Number of shells: 16
    Number of basis functions: 36
    Number of Cartesian functions: 38
    Spherical Harmonics?: true
    Max angular momentum: 2

  ==> DFJKGrad: Density-Fitted SCF Gradients <==

    Gradient:                    1
    J tasked:                  Yes
    K tasked:                  Yes
    wK tasked:                  No
    OpenMP threads:              5
    Integrals threads:           5
    Memory [MiB]:             5722
    Schwarz Cutoff:          1E-12
    Fitting Condition:       1E-10

   => Auxiliary Basis Set <=

  Basis Set: (CC-PVDZ AUX)
    Blend: CC-PVDZ-JKFIT
    Number of shells: 72
    Number of basis functions: 224
    Number of Cartesian functions: 260
    Spherical Harmonics?: true
    Max angular momentum: 3

  ==> DFT Potential <==

   => LibXC <=

    Version 7.0.0
    S. Lehtola, C. Steigemann, M. J.T. Oliveira, and M. A.L. Marques.,  SoftwareX 7, 1–5 (2018) (10.1016/j.softx.2017.11.002)

   => Composite Functional: B3LYP <= 

    B3LYP Hyb-GGA Exchange-Correlation Functional

    P. J. Stephens, F. J. Devlin, C. F. Chabalowski, and M. J. Frisch.,  J. Phys. Chem. 98, 11623 (1994) (10.1021/j100096a001)

    Deriv               =              1
    GGA                 =           TRUE
    Meta                =          FALSE

    Exchange Hybrid     =           TRUE
    MP2 Hybrid          =          FALSE

   => Exchange Functionals <=

    0.0800   Slater exchange
    0.7200         Becke 88

   => Exact (HF) Exchange <=

    0.2000               HF 

   => Correlation Functionals <=

    0.1900   Vosko, Wilk & Nusair (VWN5_RPA)
    0.8100   Lee, Yang & Parr

   => LibXC Density Thresholds  <==

    XC_HYB_GGA_XC_B3LYP:  1.00E-15 

   => Molecular Quadrature <=

    Radial Scheme          =       TREUTLER
    Pruning Scheme         =           NONE
    Nuclear Scheme         =       TREUTLER

    Blocking Scheme        =         OCTREE
    BS radius alpha        =              1
    Pruning alpha          =              1
    Radial Points          =             75
    Spherical Points       =            302
    Total Points           =          40222
    Total Blocks           =            372
    Max Points             =            255
    Max Functions          =             36
    Weights Tolerance      =       1.00E-15


  -Total Gradient:
     Atom            X                  Y                   Z
    ------   -----------------  -----------------  -----------------
       1        0.000000000000    -0.000398609775     0.000000000000
       2       -0.000000000000     0.000398609775    -0.000000000000


*** tstop() called on cics-quant-001 at Tue Dec 23 11:34:09 2025
Module time:
	user time   =       0.26 seconds =       0.00 minutes
	system time =       0.12 seconds =       0.00 minutes
	total time  =          0 seconds =       0.00 minutes
Total time:
	user time   =      15.35 seconds =       0.26 minutes
	system time =       3.01 seconds =       0.05 minutes
	total time  =          9 seconds =       0.15 minutes

    			-----------------------------------------

    			 OPTKING 3.0: for geometry optimizations 

    			     By R.A. King, Bethel University     

    			        with contributions from          

    			    A.V. Copan, J. Cayton, A. Heide      

    			-----------------------------------------

    
	                            ===> Fragment 1 <== 

	 Z (Atomic Numbers)          Masses                          Geom                  
	      16.000000            31.972071         -0.00000000  1.82900769  0.00000000   
	      16.000000            31.972071          0.00000000 -1.82900769  0.00000000   

	 - Coordinate -           - BOHR/RAD -       - ANG/DEG -
	 R(1,2)           =         3.658015           1.935738


	        --- Internal Coordinate Step in ANG or DEG, aJ/ANG or AJ/DEG ---
	-------------------------------------------------------------------------------
	           Coordinate      Previous         Force          Change          New 
	           ----------      --------        ------          ------        ------
	               R(1,2)       1.93574        0.00328        0.00064       1.93638
	-------------------------------------------------------------------------------

	                                 ==> Convergence Check <==                                  
    
	Measures of convergence in internal coordinates in au.
    
	Criteria marked as inactive (o), active & met (*), and active & unmet ( ).

	----------------------------------------------------------------------------------------------
	   Step    Total Energy     Delta E     Max Force     RMS Force      Max Disp      RMS Disp   
	----------------------------------------------------------------------------------------------
	  Convergence Criteria     1.00e-06 *    3.00e-04 *             o    1.20e-03 *             o
	----------------------------------------------------------------------------------------------
	    14    -796.36832466   -5.53e-06      3.99e-04      3.99e-04 o    1.21e-03      1.21e-03 o  ~
	----------------------------------------------------------------------------------------------

Next Geometry in Ang 
	Fragment 1 (Ang)

	    S  -0.0000000000   0.9681902106   0.0000000000
	    S   0.0000000000  -0.9681902106   0.0000000000


    Structure for next step:
    Molecular point group: d2h
    Full point group: D_inf_h

    Geometry (in Angstrom), charge = 0, multiplicity = 1:

    S           -0.000000000000     0.968190210627     0.000000000000
    S            0.000000000000    -0.968190210627     0.000000000000


Scratch directory: /tmp/
gradient() will perform analytic gradient computation.
   => Libint2 <=

    Primary   basis highest AM E, G, H:  6, 6, 3
    Auxiliary basis highest AM E, G, H:  7, 7, 4
    Onebody   basis highest AM E, G, H:  -, -, -
    Solid Harmonics ordering:            Gaussian

*** tstart() called on cics-quant-001
*** at Tue Dec 23 11:34:09 2025

   => Loading Basis Set <=

    Name: CC-PVDZ
    Role: ORBITAL
    Keyword: BASIS
    atoms 1-2 entry S          line   598 file /home/jrodriguesro/psi4conda/share/psi4/basis/cc-pvdz.gbs 


         ---------------------------------------------------------
                                   SCF
               by Justin Turney, Rob Parrish, Andy Simmonett
                          and Daniel G. A. Smith
                              UKS Reference
                        5 Threads,   7629 MiB Core
         ---------------------------------------------------------

  ==> Geometry <==

    Molecular point group: d2h
    Full point group: D_inf_h

    Geometry (in Angstrom), charge = 0, multiplicity = 1:

       Center              X                  Y                   Z               Mass       
    ------------   -----------------  -----------------  -----------------  -----------------
         S           -0.000000000000     0.968190210627     0.000000000000    31.972071174400
         S            0.000000000000    -0.968190210627     0.000000000000    31.972071174400

  Running in d2h symmetry.

  Rotational constants: A = ************  B =      0.28124  C =      0.28124 [cm^-1]
  Rotational constants: A = ************  B =   8431.31001  C =   8431.31001 [MHz]
  Nuclear repulsion =   69.960098978797959

  Charge       = 0
  Multiplicity = 1
  Electrons    = 32
  Nalpha       = 16
  Nbeta        = 16

  ==> Algorithm <==

  SCF Algorithm Type is DF.
  DIIS enabled.
  MOM disabled.
  Fractional occupation disabled.
  Guess Type is READ.
  Energy threshold   = 1.00e-08
  Density threshold  = 1.00e-08
  Integral threshold = 1.00e-12

  ==> Primary Basis <==

  Basis Set: CC-PVDZ
    Blend: CC-PVDZ
    Number of shells: 16
    Number of basis functions: 36
    Number of Cartesian functions: 38
    Spherical Harmonics?: true
    Max angular momentum: 2

  ==> DFT Potential <==

   => LibXC <=

    Version 7.0.0
    S. Lehtola, C. Steigemann, M. J.T. Oliveira, and M. A.L. Marques.,  SoftwareX 7, 1–5 (2018) (10.1016/j.softx.2017.11.002)

   => Composite Functional: B3LYP <= 

    B3LYP Hyb-GGA Exchange-Correlation Functional

    P. J. Stephens, F. J. Devlin, C. F. Chabalowski, and M. J. Frisch.,  J. Phys. Chem. 98, 11623 (1994) (10.1021/j100096a001)

    Deriv               =              1
    GGA                 =           TRUE
    Meta                =          FALSE

    Exchange Hybrid     =           TRUE
    MP2 Hybrid          =          FALSE

   => Exchange Functionals <=

    0.0800   Slater exchange
    0.7200         Becke 88

   => Exact (HF) Exchange <=

    0.2000               HF 

   => Correlation Functionals <=

    0.1900   Vosko, Wilk & Nusair (VWN5_RPA)
    0.8100   Lee, Yang & Parr

   => LibXC Density Thresholds  <==

    XC_HYB_GGA_XC_B3LYP:  1.00E-15 

   => Molecular Quadrature <=

    Radial Scheme          =       TREUTLER
    Pruning Scheme         =           NONE
    Nuclear Scheme         =       TREUTLER

    Blocking Scheme        =         OCTREE
    BS radius alpha        =              1
    Pruning alpha          =              1
    Radial Points          =             75
    Spherical Points       =            302
    Total Points           =          40222
    Total Blocks           =            372
    Max Points             =            255
    Max Functions          =             36
    Weights Tolerance      =       1.00E-15

   => Loading Basis Set <=

    Name: (CC-PVDZ AUX)
    Role: JKFIT
    Keyword: DF_BASIS_SCF
    atoms 1-2 entry S          line   593 file /home/jrodriguesro/psi4conda/share/psi4/basis/cc-pvdz-jkfit.gbs 

   => Loading Basis Set <=

    Name: CC-PVDZ
    Role: ORBITAL
    Keyword: BASIS
    atoms 1-2 entry S          line   598 file /home/jrodriguesro/psi4conda/share/psi4/basis/cc-pvdz.gbs 

  Reading orbitals from file /tmp/singlet_SS.default.409969.180.npy, no projection.

  ==> Integral Setup <==

  DFHelper Memory: AOs need 0.003 GiB; user supplied 5.546 GiB. 
  SCF_SUBTYPE=INCORE selected. In-core MEM_DF algorithm will be used.
  Using in-core AOs.

  ==> MemDFJK: Density-Fitted J/K Matrices <==

    J tasked:                   Yes
    K tasked:                   Yes
    wK tasked:                   No
    OpenMP threads:               5
    Memory [MiB]:              5679
    Algorithm:                 Core
    Schwarz Cutoff:           1E-12
    Mask sparsity (%):       0.0000
    Fitting Condition:        1E-10

   => Auxiliary Basis Set <=

  Basis Set: (CC-PVDZ AUX)
    Blend: CC-PVDZ-JKFIT
    Number of shells: 72
    Number of basis functions: 224
    Number of Cartesian functions: 260
    Spherical Harmonics?: true
    Max angular momentum: 3

  Cached 100.0% of DFT collocation blocks in 0.041 [GiB].

  Minimum eigenvalue in the overlap matrix is 2.8933710935E-02.
  Reciprocal condition number of the overlap matrix is 1.1685699752E-02.
    Using symmetric orthogonalization.

  ==> Pre-Iterations <==

  SCF Guess: Orbitals guess was supplied from a previous computation.

   -------------------------------------------------------
    Irrep   Nso     Nmo     Nalpha   Nbeta   Ndocc  Nsocc
   -------------------------------------------------------
     Ag         9       9       5       5       5       0
     B1g        4       4       2       2       2       0
     B2g        1       1       0       0       0       0
     B3g        4       4       1       1       1       0
     Au         1       1       0       0       0       0
     B1u        4       4       2       2       2       0
     B2u        9       9       4       4       4       0
     B3u        4       4       2       2       2       0
   -------------------------------------------------------
    Total      36      36      16      16      16       0
   -------------------------------------------------------

  ==> Iterations <==

                           Total Energy        Delta E     RMS |[F,P]|

   @DF-UKS iter   0:  -796.36800028163236   -7.96368e+02   9.17225e-05 
   @DF-UKS iter   1:  -796.36832488277128   -3.24601e-04   1.66104e-05 DIIS
   @DF-UKS iter   2:  -796.36832489313610   -1.03648e-08   1.45911e-05 DIIS/DAMP=1%
   @DF-UKS iter   3:  -796.36831460115195    1.02920e-05   3.19073e-07 DIIS/DAMP=1%
   @DF-UKS iter   4:  -796.36832523911448   -1.06380e-05   1.03949e-07 DIIS/DAMP=1%
   @DF-UKS iter   5:  -796.36832480807186    4.31043e-07   1.11002e-08 DIIS/DAMP=1%
   @DF-UKS iter   6:  -796.36832492133385   -1.13262e-07   6.14068e-10 DIIS/DAMP=1%
   @DF-UKS iter   7:  -796.36832492476265   -3.42880e-09   4.35519e-11 DIIS/DAMP=1%
  Energy and wave function converged.


  ==> Post-Iterations <==

   Electrons on quadrature grid:
      Nalpha   =   15.9999990822 ; deviation = -9.178e-07
      Nbeta    =   15.9999990822 ; deviation = -9.178e-07
      Ntotal   =   31.9999981644 ; deviation = -1.836e-06 

   @Spin Contamination Metric:  -1.776356839E-14
   @S^2 Expected:                0.000000000E+00
   @S^2 Observed:               -1.776356839E-14
   @S   Expected:                0.000000000E+00
   @S   Observed:                0.000000000E+00

    Orbital Energies [Eh]
    ---------------------

    Alpha Occupied:                                                       

       1Ag   -88.931928     1B2u  -88.931927     2Ag    -7.992122  
       2B2u   -7.992109     1B1u   -5.957485     1B3g   -5.957438  
       3Ag    -5.955140     3B2u   -5.954537     1B3u   -5.943243  
       1B1g   -5.943199     4Ag    -0.823184     4B2u   -0.611982  
       5Ag    -0.389254     2B1u   -0.357192     2B3u   -0.343627  
       2B1g   -0.213639  

    Alpha Virtual:                                                        

       2B3g   -0.179344     5B2u   -0.003370     6Ag     0.306819  
       3B1u    0.402887     3B3u    0.423862     6B2u    0.439185  
       7Ag     0.448367     4B1u    0.463227     4B3u    0.482960  
       3B3g    0.499883     3B1g    0.516089     1B2g    0.526191  
       8Ag     0.527957     1Au     0.624766     7B2u    0.625787  
       8B2u    0.673961     9Ag     0.807530     4B3g    0.837302  
       4B1g    0.859894     9B2u    1.223033  

    Beta Occupied:                                                        

       1Ag   -88.931928     1B2u  -88.931927     2Ag    -7.992122  
       2B2u   -7.992109     1B1u   -5.957485     1B3g   -5.957438  
       3Ag    -5.955140     3B2u   -5.954537     1B3u   -5.943243  
       1B1g   -5.943199     4Ag    -0.823184     4B2u   -0.611982  
       5Ag    -0.389254     2B1u   -0.357192     2B3u   -0.343627  
       2B1g   -0.213639  

    Beta Virtual:                                                         

       2B3g   -0.179344     5B2u   -0.003370     6Ag     0.306819  
       3B1u    0.402887     3B3u    0.423862     6B2u    0.439185  
       7Ag     0.448367     4B1u    0.463227     4B3u    0.482960  
       3B3g    0.499883     3B1g    0.516089     1B2g    0.526191  
       8Ag     0.527957     1Au     0.624766     7B2u    0.625787  
       8B2u    0.673961     9Ag     0.807530     4B3g    0.837302  
       4B1g    0.859894     9B2u    1.223033  

    Final Occupation by Irrep:
             Ag   B1g   B2g   B3g    Au   B1u   B2u   B3u 
    DOCC [     5,    2,    0,    1,    0,    2,    4,    2 ]
    SOCC [     0,    0,    0,    0,    0,    0,    0,    0 ]
    NA   [     5,    2,    0,    1,    0,    2,    4,    2 ]
    NB   [     5,    2,    0,    1,    0,    2,    4,    2 ]

  @DF-UKS Final Energy:  -796.36832492476265

   => Energetics <=

    Nuclear Repulsion Energy =             69.9600989787979586
    One-Electron Energy =               -1238.6481043961248361
    Two-Electron Energy =                 413.6779186131788038
    DFT Exchange-Correlation Energy =     -41.3582381206146010
    Empirical Dispersion Energy =           0.0000000000000000
    VV10 Nonlocal Energy =                  0.0000000000000000
    Total Energy =                       -796.3683249247626463

  UHF NO Occupations:
  HONO-2 :    3B2u 2.0000000
  HONO-1 :    5 Ag 2.0000000
  HONO-0 :    4B2u 2.0000000
  LUNO+0 :    5B2u 0.0000000
  LUNO+1 :    6B2u 0.0000000
  LUNO+2 :    7B2u 0.0000000
  LUNO+3 :    3B3u 0.0000000


Computation Completed


Properties will be evaluated at   0.000000,   0.000000,   0.000000 [a0]

Properties computed using the SCF density matrix


 Multipole Moments:

 ------------------------------------------------------------------------------------
     Multipole            Electronic (a.u.)      Nuclear  (a.u.)        Total (a.u.)
 ------------------------------------------------------------------------------------

 L = 1.  Multiply by 2.5417464519 to convert [e a0] to [Debye]
 Dipole X            :          0.0000000            0.0000000            0.0000000
 Dipole Y            :          0.0000000            0.0000000            0.0000000
 Dipole Z            :          0.0000000            0.0000000            0.0000000
 Magnitude           :                                                    0.0000000

 ------------------------------------------------------------------------------------

*** tstop() called on cics-quant-001 at Tue Dec 23 11:34:09 2025
Module time:
	user time   =       0.66 seconds =       0.01 minutes
	system time =       0.09 seconds =       0.00 minutes
	total time  =          0 seconds =       0.00 minutes
Total time:
	user time   =      16.03 seconds =       0.27 minutes
	system time =       3.10 seconds =       0.05 minutes
	total time  =          9 seconds =       0.15 minutes

*** tstart() called on cics-quant-001
*** at Tue Dec 23 11:34:09 2025


         ------------------------------------------------------------
                                   SCF GRAD                          
                          Rob Parrish, Justin Turney,                
                       Andy Simmonett, and Alex Sokolov              
         ------------------------------------------------------------

  ==> Geometry <==

    Molecular point group: d2h
    Full point group: D_inf_h

    Geometry (in Angstrom), charge = 0, multiplicity = 1:

       Center              X                  Y                   Z               Mass       
    ------------   -----------------  -----------------  -----------------  -----------------
         S           -0.000000000000     0.968190210627     0.000000000000    31.972071174400
         S            0.000000000000    -0.968190210627     0.000000000000    31.972071174400

  Nuclear repulsion =   69.960098978797959

  ==> Basis Set <==

  Basis Set: CC-PVDZ
    Blend: CC-PVDZ
    Number of shells: 16
    Number of basis functions: 36
    Number of Cartesian functions: 38
    Spherical Harmonics?: true
    Max angular momentum: 2

  ==> DFJKGrad: Density-Fitted SCF Gradients <==

    Gradient:                    1
    J tasked:                  Yes
    K tasked:                  Yes
    wK tasked:                  No
    OpenMP threads:              5
    Integrals threads:           5
    Memory [MiB]:             5722
    Schwarz Cutoff:          1E-12
    Fitting Condition:       1E-10

   => Auxiliary Basis Set <=

  Basis Set: (CC-PVDZ AUX)
    Blend: CC-PVDZ-JKFIT
    Number of shells: 72
    Number of basis functions: 224
    Number of Cartesian functions: 260
    Spherical Harmonics?: true
    Max angular momentum: 3

  ==> DFT Potential <==

   => LibXC <=

    Version 7.0.0
    S. Lehtola, C. Steigemann, M. J.T. Oliveira, and M. A.L. Marques.,  SoftwareX 7, 1–5 (2018) (10.1016/j.softx.2017.11.002)

   => Composite Functional: B3LYP <= 

    B3LYP Hyb-GGA Exchange-Correlation Functional

    P. J. Stephens, F. J. Devlin, C. F. Chabalowski, and M. J. Frisch.,  J. Phys. Chem. 98, 11623 (1994) (10.1021/j100096a001)

    Deriv               =              1
    GGA                 =           TRUE
    Meta                =          FALSE

    Exchange Hybrid     =           TRUE
    MP2 Hybrid          =          FALSE

   => Exchange Functionals <=

    0.0800   Slater exchange
    0.7200         Becke 88

   => Exact (HF) Exchange <=

    0.2000               HF 

   => Correlation Functionals <=

    0.1900   Vosko, Wilk & Nusair (VWN5_RPA)
    0.8100   Lee, Yang & Parr

   => LibXC Density Thresholds  <==

    XC_HYB_GGA_XC_B3LYP:  1.00E-15 

   => Molecular Quadrature <=

    Radial Scheme          =       TREUTLER
    Pruning Scheme         =           NONE
    Nuclear Scheme         =       TREUTLER

    Blocking Scheme        =         OCTREE
    BS radius alpha        =              1
    Pruning alpha          =              1
    Radial Points          =             75
    Spherical Points       =            302
    Total Points           =          40222
    Total Blocks           =            372
    Max Points             =            255
    Max Functions          =             36
    Weights Tolerance      =       1.00E-15


  -Total Gradient:
     Atom            X                  Y                   Z
    ------   -----------------  -----------------  -----------------
       1        0.000000000000    -0.000041244653     0.000000000000
       2       -0.000000000000     0.000041244653     0.000000000000


*** tstop() called on cics-quant-001 at Tue Dec 23 11:34:10 2025
Module time:
	user time   =       0.31 seconds =       0.01 minutes
	system time =       0.13 seconds =       0.00 minutes
	total time  =          1 seconds =       0.02 minutes
Total time:
	user time   =      16.34 seconds =       0.27 minutes
	system time =       3.23 seconds =       0.05 minutes
	total time  =         10 seconds =       0.17 minutes

    			-----------------------------------------

    			 OPTKING 3.0: for geometry optimizations 

    			     By R.A. King, Bethel University     

    			        with contributions from          

    			    A.V. Copan, J. Cayton, A. Heide      

    			-----------------------------------------

    
	                            ===> Fragment 1 <== 

	 Z (Atomic Numbers)          Masses                          Geom                  
	      16.000000            31.972071         -0.00000000  1.82961434  0.00000000   
	      16.000000            31.972071          0.00000000 -1.82961434  0.00000000   

	 - Coordinate -           - BOHR/RAD -       - ANG/DEG -
	 R(1,2)           =         3.659229           1.936380


	        --- Internal Coordinate Step in ANG or DEG, aJ/ANG or AJ/DEG ---
	-------------------------------------------------------------------------------
	           Coordinate      Previous         Force          Change          New 
	           ----------      --------        ------          ------        ------
	               R(1,2)       1.93638        0.00034        0.00007       1.93645
	-------------------------------------------------------------------------------

	                                 ==> Convergence Check <==                                  
    
	Measures of convergence in internal coordinates in au.
    
	Criteria marked as inactive (o), active & met (*), and active & unmet ( ).

	----------------------------------------------------------------------------------------------
	   Step    Total Energy     Delta E     Max Force     RMS Force      Max Disp      RMS Disp   
	----------------------------------------------------------------------------------------------
	  Convergence Criteria     1.00e-06 *    3.00e-04 *             o    1.20e-03 *             o
	----------------------------------------------------------------------------------------------
	    15    -796.36832492   -2.66e-07 *    4.12e-05 *    4.12e-05 o    1.33e-04 *    1.33e-04 o  ~
	----------------------------------------------------------------------------------------------

Next Geometry in Ang 
	Fragment 1 (Ang)

	    S  -0.0000000000   0.9682254956   0.0000000000
	    S   0.0000000000  -0.9682254956   0.0000000000


    Final optimized geometry and variables:
    Molecular point group: d2h
    Full point group: D_inf_h

    Geometry (in Angstrom), charge = 0, multiplicity = 1:

    S           -0.000000000000     0.968190210627     0.000000000000
    S            0.000000000000    -0.968190210627     0.000000000000


    Psi4 stopped on: Tuesday, 23 December 2025 11:34AM
    Psi4 wall time for execution: 0:00:09.84

*** Psi4 exiting successfully. Buy a developer a beer!
