
    -----------------------------------------------------------------------
          Psi4: An Open-Source Ab Initio Electronic Structure Package
                               Psi4 1.10 release

                         Git: Rev {} zzzzzzz 


    D. G. A. Smith, L. A. Burns, A. C. Simmonett, R. M. Parrish,
    M. C. Schieber, R. Galvelis, P. Kraus, H. Kruse, R. Di Remigio,
    A. Alenaizan, A. M. James, S. Lehtola, J. P. Misiewicz, M. Scheurer,
    R. A. Shaw, J. B. Schriber, Y. Xie, Z. L. Glick, D. A. Sirianni,
    J. S. O'Brien, J. M. Waldrop, A. Kumar, E. G. Hohenstein,
    B. P. Pritchard, B. R. Brooks, H. F. Schaefer III, A. Yu. Sokolov,
    K. Patkowski, A. E. DePrince III, U. Bozkaya, R. A. King,
    F. A. Evangelista, J. M. Turney, T. D. Crawford, C. D. Sherrill,
    J. Chem. Phys. 152(18) 184108 (2020). https://doi.org/10.1063/5.0006002

                            Additional Code Authors
    E. T. Seidl, C. L. Janssen, E. F. Valeev, M. L. Leininger,
    J. F. Gonthier, R. M. Richard, H. R. McAlexander, M. Saitow, X. Wang,
    P. Verma, M. H. Lechner, A. Jiang, S. Behnle, A. G. Heide,
    M. F. Herbst, D. L. Poole, T. Győri, E. C. Mitchell, J. P. Pederson,
    and A. M. Wallace

             Previous Authors, Complete List of Code Contributors,
                       and Citations for Specific Modules
    https://github.com/psi4/psi4/blob/master/codemeta.json
    https://github.com/psi4/psi4/graphs/contributors
    https://psicode.org/psi4manual/master/introduction.html#citing-psifour

    -----------------------------------------------------------------------


    Psi4 started on: Tuesday, 23 December 2025 10:59AM

    Process ID: 371576
    Host:       cics-quant-001
    PSIDATADIR: /home/jrodriguesro/psi4conda/share/psi4
    Memory:     500.0 MiB
    Threads:    5
    Addons:     adcc, a̶m̶b̶i̶t̶, b̶s̶e̶, c̶c̶t̶3̶, c̶f̶o̶u̶r̶, c̶h̶e̶m̶p̶s̶2̶, c̶p̶p̶e̶, ddx, dftd3, dftd4,
                dkh, ecpint, einsums, f̶o̶r̶t̶e̶, g̶a̶u̶x̶c̶, gcp, g̶d̶m̶a̶, geometric,
                g̶p̶u̶_̶d̶f̶c̶c̶, i̶n̶t̶e̶g̶r̶a̶t̶o̶r̶x̶x̶, i̶p̶i̶, libefp, m̶d̶i̶, m̶p̶2̶d̶,
                m̶r̶c̶c̶, ooo, o̶p̶e̶n̶f̶e̶r̶m̶i̶o̶n̶p̶s̶i̶4̶, pcmsolver, p̶s̶i̶4̶f̶o̶c̶k̶c̶i̶,
                p̶s̶i̶x̶a̶s̶, r̶e̶s̶p̶, s̶i̶m̶i̶n̶t̶, s̶n̶s̶m̶p̶2̶, v̶2̶r̶d̶m̶_̶c̶a̶s̶s̶c̶f̶

  ==> Input File <==

--------------------------------------------------------------------------
memory 8 Gb

molecule { 
0 3
N   0.00000        0.60000        0.00000
Al   0.00000       -0.60000        0.00000
}

set { 
basis              cc-pvdz
reference          uks
maxiter            500
geom_maxiter       500
DAMPING_PERCENTAGE 1
guess              SAP
}

optimize('b3lyp')
--------------------------------------------------------------------------

  Memory set to   7.451 GiB by Python driver.

Scratch directory: /tmp/
gradient() will perform analytic gradient computation.
   => Libint2 <=

    Primary   basis highest AM E, G, H:  6, 6, 3
    Auxiliary basis highest AM E, G, H:  7, 7, 4
    Onebody   basis highest AM E, G, H:  -, -, -
    Solid Harmonics ordering:            Gaussian

*** tstart() called on cics-quant-001
*** at Tue Dec 23 10:59:05 2025

   => Loading Basis Set <=

    Name: CC-PVDZ
    Role: ORBITAL
    Keyword: BASIS
    atoms 1 entry N          line   168 file /home/jrodriguesro/psi4conda/share/psi4/basis/cc-pvdz.gbs 
    atoms 2 entry AL         line   418 file /home/jrodriguesro/psi4conda/share/psi4/basis/cc-pvdz.gbs 


         ---------------------------------------------------------
                                   SCF
               by Justin Turney, Rob Parrish, Andy Simmonett
                          and Daniel G. A. Smith
                              UKS Reference
                        5 Threads,   7629 MiB Core
         ---------------------------------------------------------

  ==> Geometry <==

    Molecular point group: c2v
    Full point group: C_inf_v

    Geometry (in Angstrom), charge = 0, multiplicity = 3:

       Center              X                  Y                   Z               Mass       
    ------------   -----------------  -----------------  -----------------  -----------------
         N            0.000000000000     0.000000000000     0.790000056943    14.003074004430
         AL           0.000000000000     0.000000000000    -0.409999943057    26.981538530000

  Running in c2v symmetry.

  Rotational constants: A = ************  B =      1.26989  C =      1.26989 [cm^-1]
  Rotational constants: A = ************  B =  38070.22527  C =  38070.22527 [MHz]
  Nuclear repulsion =   40.129271809141670

  Charge       = 0
  Multiplicity = 3
  Electrons    = 20
  Nalpha       = 11
  Nbeta        = 9

  ==> Algorithm <==

  SCF Algorithm Type is DF.
  DIIS enabled.
  MOM disabled.
  Fractional occupation disabled.
  Guess Type is SAP.
  Energy threshold   = 1.00e-08
  Density threshold  = 1.00e-08
  Integral threshold = 1.00e-12

  ==> Primary Basis <==

  Basis Set: CC-PVDZ
    Blend: CC-PVDZ
    Number of shells: 14
    Number of basis functions: 32
    Number of Cartesian functions: 34
    Spherical Harmonics?: true
    Max angular momentum: 2

  ==> DFT Potential <==

   => LibXC <=

    Version 7.0.0
    S. Lehtola, C. Steigemann, M. J.T. Oliveira, and M. A.L. Marques.,  SoftwareX 7, 1–5 (2018) (10.1016/j.softx.2017.11.002)

   => Composite Functional: B3LYP <= 

    B3LYP Hyb-GGA Exchange-Correlation Functional

    P. J. Stephens, F. J. Devlin, C. F. Chabalowski, and M. J. Frisch.,  J. Phys. Chem. 98, 11623 (1994) (10.1021/j100096a001)

    Deriv               =              1
    GGA                 =           TRUE
    Meta                =          FALSE

    Exchange Hybrid     =           TRUE
    MP2 Hybrid          =          FALSE

   => Exchange Functionals <=

    0.0800   Slater exchange
    0.7200         Becke 88

   => Exact (HF) Exchange <=

    0.2000               HF 

   => Correlation Functionals <=

    0.1900   Vosko, Wilk & Nusair (VWN5_RPA)
    0.8100   Lee, Yang & Parr

   => LibXC Density Thresholds  <==

    XC_HYB_GGA_XC_B3LYP:  1.00E-15 

   => Molecular Quadrature <=

    Radial Scheme          =       TREUTLER
    Pruning Scheme         =           NONE
    Nuclear Scheme         =       TREUTLER

    Blocking Scheme        =         OCTREE
    BS radius alpha        =              1
    Pruning alpha          =              1
    Radial Points          =             75
    Spherical Points       =            302
    Total Points           =          43347
    Total Blocks           =            404
    Max Points             =            256
    Max Functions          =             32
    Weights Tolerance      =       1.00E-15

   => Loading Basis Set <=

    Name: (CC-PVDZ AUX)
    Role: JKFIT
    Keyword: DF_BASIS_SCF
    atoms 1 entry N          line   171 file /home/jrodriguesro/psi4conda/share/psi4/basis/cc-pvdz-jkfit.gbs 
    atoms 2 entry AL         line   371 file /home/jrodriguesro/psi4conda/share/psi4/basis/cc-pvdz-jkfit.gbs 

  ==> Integral Setup <==

  DFHelper Memory: AOs need 0.002 GiB; user supplied 5.549 GiB. 
  SCF_SUBTYPE=INCORE selected. In-core MEM_DF algorithm will be used.
  Using in-core AOs.

  ==> MemDFJK: Density-Fitted J/K Matrices <==

    J tasked:                   Yes
    K tasked:                   Yes
    wK tasked:                   No
    OpenMP threads:               5
    Memory [MiB]:              5681
    Algorithm:                 Core
    Schwarz Cutoff:           1E-12
    Mask sparsity (%):       0.0000
    Fitting Condition:        1E-10

   => Auxiliary Basis Set <=

  Basis Set: (CC-PVDZ AUX)
    Blend: CC-PVDZ-JKFIT
    Number of shells: 60
    Number of basis functions: 182
    Number of Cartesian functions: 211
    Spherical Harmonics?: true
    Max angular momentum: 3

  Cached 100.0% of DFT collocation blocks in 0.039 [GiB].

  Minimum eigenvalue in the overlap matrix is 2.5958438058E-03.
  Reciprocal condition number of the overlap matrix is 8.4388481356E-04.
    Using symmetric orthogonalization.

  ==> Pre-Iterations <==

  SCF Guess: Superposition of Atomic Potentials (doi:10.1021/acs.jctc.8b01089).

  ==> SAP guess <==

   => Molecular Quadrature <=

    Radial Scheme          =       TREUTLER
    Pruning Scheme         =           NONE
    Nuclear Scheme         =       TREUTLER

    Blocking Scheme        =         OCTREE
    BS radius alpha        =              1
    Pruning alpha          =              1
    Radial Points          =             75
    Spherical Points       =            302
    Total Points           =          43347
    Total Blocks           =            404
    Max Points             =            256
    Max Functions          =             32
    Weights Tolerance      =       1.00E-15

   -------------------------------------------------------
    Irrep   Nso     Nmo     Nalpha   Nbeta   Ndocc  Nsocc
   -------------------------------------------------------
     A1        16      16       7       5       5       2
     A2         2       2       0       0       0       0
     B1         7       7       2       2       2       0
     B2         7       7       2       2       2       0
   -------------------------------------------------------
    Total      32      32      11       9       9       2
   -------------------------------------------------------

  ==> Iterations <==

                           Total Energy        Delta E     RMS |[F,P]|

    Occupation by irrep:
             A1    A2    B1    B2 
    DOCC [     6,    0,    2,    1 ]
    SOCC [     1,    0,    0,    1 ]
    NA   [     7,    0,    2,    2 ]
    NB   [     6,    0,    2,    1 ]

   @DF-UKS iter   1:  -296.07062966446233   -2.96071e+02   5.47604e-02 DIIS/ADIIS
    Occupation by irrep:
             A1    A2    B1    B2 
    DOCC [     5,    0,    2,    2 ]
    SOCC [     2,    0,    0,    0 ]
    NA   [     7,    0,    2,    2 ]
    NB   [     5,    0,    2,    2 ]

   @DF-UKS iter   2:  -292.96077543984075    3.10985e+00   1.00463e-01 ADIIS/DAMP=1%
   @DF-UKS iter   3:  -296.42083803463032   -3.46006e+00   3.00688e-02 DIIS/ADIIS/DAMP=1%
   @DF-UKS iter   4:  -296.64388665007340   -2.23049e-01   1.19189e-03 DIIS/ADIIS/DAMP=1%
   @DF-UKS iter   5:  -296.66491063574318   -2.10240e-02   8.56689e-04 DIIS/ADIIS/DAMP=1%
   @DF-UKS iter   6:  -296.66437097967537    5.39656e-04   1.69094e-04 DIIS/ADIIS/DAMP=1%
   @DF-UKS iter   7:  -296.66463823948914   -2.67260e-04   5.11197e-05 DIIS/DAMP=1%
   @DF-UKS iter   8:  -296.66471289099678   -7.46515e-05   2.16579e-05 DIIS/DAMP=1%
   @DF-UKS iter   9:  -296.66467048726236    4.24037e-05   5.22791e-06 DIIS/DAMP=1%
   @DF-UKS iter  10:  -296.66467580260104   -5.31534e-06   1.96209e-07 DIIS/DAMP=1%
   @DF-UKS iter  11:  -296.66467853608634   -2.73349e-06   3.79375e-08 DIIS/DAMP=1%
   @DF-UKS iter  12:  -296.66467852030797    1.57784e-08   1.40713e-08 DIIS/DAMP=1%
   @DF-UKS iter  13:  -296.66467852360711   -3.29914e-09   1.57180e-09 DIIS/DAMP=1%
  Energy and wave function converged.


  ==> Post-Iterations <==

   Electrons on quadrature grid:
      Nalpha   =   11.0000001693 ; deviation = 1.693e-07
      Nbeta    =    9.0000001238 ; deviation = 1.238e-07
      Ntotal   =   20.0000002932 ; deviation = 2.932e-07 

   @Spin Contamination Metric:   3.581790324E-03
   @S^2 Expected:                2.000000000E+00
   @S^2 Observed:                2.003581790E+00
   @S   Expected:                1.000000000E+00
   @S   Observed:                1.000000000E+00

    Orbital Energies [Eh]
    ---------------------

    Alpha Occupied:                                                       

       1A1   -56.004038     2A1   -14.265610     3A1    -4.152681  
       4A1    -2.729321     1B1    -2.690669     1B2    -2.690669  
       5A1    -0.748644     6A1    -0.339352     2B2    -0.298248  
       2B1    -0.298248     7A1    -0.242083  

    Alpha Virtual:                                                        

       3B1    -0.016161     3B2    -0.016161     8A1     0.060199  
       9A1     0.156451     4B1     0.215577     4B2     0.215577  
       1A2     0.263775    10A1     0.263775    11A1     0.269430  
       5B1     0.443572     5B2     0.443572     6B2     0.834898  
       6B1     0.834898    12A1     0.838926    13A1     0.996007  
      14A1     1.640205    15A1     1.821300     2A2     1.821301  
       7B2     1.914307     7B1     1.914307    16A1     2.512891  

    Beta Occupied:                                                        

       1A1   -55.996950     2A1   -14.241251     3A1    -4.142213  
       4A1    -2.710611     1B2    -2.684563     1B1    -2.684563  
       5A1    -0.684265     2B1    -0.275140     2B2    -0.275140  

    Beta Virtual:                                                         

       6A1    -0.175728     7A1    -0.058110     3B2     0.015310  
       3B1     0.015310     8A1     0.083278     9A1     0.194291  
       4B2     0.243021     4B1     0.243021    10A1     0.281553  
       1A2     0.281553    11A1     0.326260     5B2     0.480182  
       5B1     0.480182     6B1     0.854628     6B2     0.854628  
      12A1     0.913763    13A1     1.036666    14A1     1.712287  
      15A1     1.838351     2A2     1.838352     7B1     1.985157  
       7B2     1.985157    16A1     2.557984  

    Final Occupation by Irrep:
             A1    A2    B1    B2 
    DOCC [     5,    0,    2,    2 ]
    SOCC [     2,    0,    0,    0 ]
    NA   [     7,    0,    2,    2 ]
    NB   [     5,    0,    2,    2 ]

  @DF-UKS Final Energy:  -296.66467852360711

   => Energetics <=

    Nuclear Repulsion Energy =             40.1292718091416702
    One-Electron Energy =                -490.5409838611957412
    Two-Electron Energy =                 174.5853022321932144
    DFT Exchange-Correlation Energy =     -20.8382687037462162
    Empirical Dispersion Energy =           0.0000000000000000
    VV10 Nonlocal Energy =                  0.0000000000000000
    Total Energy =                       -296.6646785236071082

  UHF NO Occupations:
  HONO-2 :    5 A1 1.9991882
  HONO-1 :    6 A1 1.0000000
  HONO-0 :    7 A1 1.0000000
  LUNO+0 :    8 A1 0.0008118
  LUNO+1 :    3 B2 0.0004881
  LUNO+2 :    3 B1 0.0004881
  LUNO+3 :    9 A1 0.0000021


Computation Completed


Properties will be evaluated at   0.000000,   0.000000,   0.000000 [a0]

Properties computed using the SCF density matrix


 Multipole Moments:

 ------------------------------------------------------------------------------------
     Multipole            Electronic (a.u.)      Nuclear  (a.u.)        Total (a.u.)
 ------------------------------------------------------------------------------------

 L = 1.  Multiply by 2.5417464519 to convert [e a0] to [Debye]
 Dipole X            :          0.0000000            0.0000000            0.0000000
 Dipole Y            :          0.0000000            0.0000000            0.0000000
 Dipole Z            :         -1.4843258            0.3779474           -1.1063784
 Magnitude           :                                                    1.1063784

 ------------------------------------------------------------------------------------

*** tstop() called on cics-quant-001 at Tue Dec 23 10:59:06 2025
Module time:
	user time   =       0.84 seconds =       0.01 minutes
	system time =       0.10 seconds =       0.00 minutes
	total time  =          1 seconds =       0.02 minutes
Total time:
	user time   =       0.84 seconds =       0.01 minutes
	system time =       0.10 seconds =       0.00 minutes
	total time  =          1 seconds =       0.02 minutes

*** tstart() called on cics-quant-001
*** at Tue Dec 23 10:59:06 2025


         ------------------------------------------------------------
                                   SCF GRAD                          
                          Rob Parrish, Justin Turney,                
                       Andy Simmonett, and Alex Sokolov              
         ------------------------------------------------------------

  ==> Geometry <==

    Molecular point group: c2v
    Full point group: C_inf_v

    Geometry (in Angstrom), charge = 0, multiplicity = 3:

       Center              X                  Y                   Z               Mass       
    ------------   -----------------  -----------------  -----------------  -----------------
         N            0.000000000000     0.000000000000     0.790000056943    14.003074004430
         AL           0.000000000000     0.000000000000    -0.409999943057    26.981538530000

  Nuclear repulsion =   40.129271809141670

  ==> Basis Set <==

  Basis Set: CC-PVDZ
    Blend: CC-PVDZ
    Number of shells: 14
    Number of basis functions: 32
    Number of Cartesian functions: 34
    Spherical Harmonics?: true
    Max angular momentum: 2

  ==> DFJKGrad: Density-Fitted SCF Gradients <==

    Gradient:                    1
    J tasked:                  Yes
    K tasked:                  Yes
    wK tasked:                  No
    OpenMP threads:              5
    Integrals threads:           5
    Memory [MiB]:             5722
    Schwarz Cutoff:          1E-12
    Fitting Condition:       1E-10

   => Auxiliary Basis Set <=

  Basis Set: (CC-PVDZ AUX)
    Blend: CC-PVDZ-JKFIT
    Number of shells: 60
    Number of basis functions: 182
    Number of Cartesian functions: 211
    Spherical Harmonics?: true
    Max angular momentum: 3

  ==> DFT Potential <==

   => LibXC <=

    Version 7.0.0
    S. Lehtola, C. Steigemann, M. J.T. Oliveira, and M. A.L. Marques.,  SoftwareX 7, 1–5 (2018) (10.1016/j.softx.2017.11.002)

   => Composite Functional: B3LYP <= 

    B3LYP Hyb-GGA Exchange-Correlation Functional

    P. J. Stephens, F. J. Devlin, C. F. Chabalowski, and M. J. Frisch.,  J. Phys. Chem. 98, 11623 (1994) (10.1021/j100096a001)

    Deriv               =              1
    GGA                 =           TRUE
    Meta                =          FALSE

    Exchange Hybrid     =           TRUE
    MP2 Hybrid          =          FALSE

   => Exchange Functionals <=

    0.0800   Slater exchange
    0.7200         Becke 88

   => Exact (HF) Exchange <=

    0.2000               HF 

   => Correlation Functionals <=

    0.1900   Vosko, Wilk & Nusair (VWN5_RPA)
    0.8100   Lee, Yang & Parr

   => LibXC Density Thresholds  <==

    XC_HYB_GGA_XC_B3LYP:  1.00E-15 

   => Molecular Quadrature <=

    Radial Scheme          =       TREUTLER
    Pruning Scheme         =           NONE
    Nuclear Scheme         =       TREUTLER

    Blocking Scheme        =         OCTREE
    BS radius alpha        =              1
    Pruning alpha          =              1
    Radial Points          =             75
    Spherical Points       =            302
    Total Points           =          43347
    Total Blocks           =            404
    Max Points             =            256
    Max Functions          =             32
    Weights Tolerance      =       1.00E-15


  -Total Gradient:
     Atom            X                  Y                   Z
    ------   -----------------  -----------------  -----------------
       1        0.000000000000     0.000000000000    -1.083480276229
       2       -0.000000000000     0.000000000000     1.083476020283


*** tstop() called on cics-quant-001 at Tue Dec 23 10:59:06 2025
Module time:
	user time   =       0.21 seconds =       0.00 minutes
	system time =       0.12 seconds =       0.00 minutes
	total time  =          0 seconds =       0.00 minutes
Total time:
	user time   =       1.05 seconds =       0.02 minutes
	system time =       0.22 seconds =       0.00 minutes
	total time  =          1 seconds =       0.02 minutes

    			-----------------------------------------

    			 OPTKING 3.0: for geometry optimizations 

    			     By R.A. King, Bethel University     

    			        with contributions from          

    			    A.V. Copan, J. Cayton, A. Heide      

    			-----------------------------------------

    
	                            ===> Fragment 1 <== 

	 Z (Atomic Numbers)          Masses                          Geom                  
	       7.000000            14.003074          0.00000000  0.00000000  1.49288375   
	      13.000000            26.981539          0.00000000  0.00000000 -0.77478760   

	 - Coordinate -           - BOHR/RAD -       - ANG/DEG -
	 R(1,2)           =         2.267671           1.200000


	        --- Internal Coordinate Step in ANG or DEG, aJ/ANG or AJ/DEG ---
	-------------------------------------------------------------------------------
	           Coordinate      Previous         Force          Change          New 
	           ----------      --------        ------          ------        ------
	               R(1,2)       1.20000        8.92648        0.12895       1.32895
	-------------------------------------------------------------------------------

	                                 ==> Convergence Check <==                                  
    
	Measures of convergence in internal coordinates in au.
    
	Criteria marked as inactive (o), active & met (*), and active & unmet ( ).

	----------------------------------------------------------------------------------------------~
	   Step    Total Energy     Delta E     Max Force     RMS Force      Max Disp      RMS Disp   ~
	----------------------------------------------------------------------------------------------~
	  Convergence Criteria     1.00e-06 *    3.00e-04 *             o    1.20e-03 *             o~
	----------------------------------------------------------------------------------------------~
	     1    -296.66467852   -2.97e+02      1.08e+00      1.08e+00 o    2.44e-01      2.44e-01 o  ~
	----------------------------------------------------------------------------------------------

Next Geometry in Ang 
	Fragment 1 (Ang)

	    N   0.0000000000   0.0000000000   0.8544760345
	   Al   0.0000000000   0.0000000000  -0.4744759206


    Structure for next step:
    Molecular point group: c2v
    Full point group: C_inf_v

    Geometry (in Angstrom), charge = 0, multiplicity = 3:

    N            0.000000000000     0.000000000000     0.874893433521
    AL           0.000000000000     0.000000000000    -0.454058521606


Scratch directory: /tmp/
gradient() will perform analytic gradient computation.
   => Libint2 <=

    Primary   basis highest AM E, G, H:  6, 6, 3
    Auxiliary basis highest AM E, G, H:  7, 7, 4
    Onebody   basis highest AM E, G, H:  -, -, -
    Solid Harmonics ordering:            Gaussian

*** tstart() called on cics-quant-001
*** at Tue Dec 23 10:59:06 2025

   => Loading Basis Set <=

    Name: CC-PVDZ
    Role: ORBITAL
    Keyword: BASIS
    atoms 1 entry N          line   168 file /home/jrodriguesro/psi4conda/share/psi4/basis/cc-pvdz.gbs 
    atoms 2 entry AL         line   418 file /home/jrodriguesro/psi4conda/share/psi4/basis/cc-pvdz.gbs 


         ---------------------------------------------------------
                                   SCF
               by Justin Turney, Rob Parrish, Andy Simmonett
                          and Daniel G. A. Smith
                              UKS Reference
                        5 Threads,   7629 MiB Core
         ---------------------------------------------------------

  ==> Geometry <==

    Molecular point group: c2v
    Full point group: C_inf_v

    Geometry (in Angstrom), charge = 0, multiplicity = 3:

       Center              X                  Y                   Z               Mass       
    ------------   -----------------  -----------------  -----------------  -----------------
         N            0.000000000000     0.000000000000     0.874893433521    14.003074004430
         AL           0.000000000000     0.000000000000    -0.454058521606    26.981538530000

  Running in c2v symmetry.

  Rotational constants: A = ************  B =      1.03540  C =      1.03540 [cm^-1]
  Rotational constants: A = ************  B =  31040.54787  C =  31040.54787 [MHz]
  Nuclear repulsion =   36.235415422790666

  Charge       = 0
  Multiplicity = 3
  Electrons    = 20
  Nalpha       = 11
  Nbeta        = 9

  ==> Algorithm <==

  SCF Algorithm Type is DF.
  DIIS enabled.
  MOM disabled.
  Fractional occupation disabled.
  Guess Type is READ.
  Energy threshold   = 1.00e-08
  Density threshold  = 1.00e-08
  Integral threshold = 1.00e-12

  ==> Primary Basis <==

  Basis Set: CC-PVDZ
    Blend: CC-PVDZ
    Number of shells: 14
    Number of basis functions: 32
    Number of Cartesian functions: 34
    Spherical Harmonics?: true
    Max angular momentum: 2

  ==> DFT Potential <==

   => LibXC <=

    Version 7.0.0
    S. Lehtola, C. Steigemann, M. J.T. Oliveira, and M. A.L. Marques.,  SoftwareX 7, 1–5 (2018) (10.1016/j.softx.2017.11.002)

   => Composite Functional: B3LYP <= 

    B3LYP Hyb-GGA Exchange-Correlation Functional

    P. J. Stephens, F. J. Devlin, C. F. Chabalowski, and M. J. Frisch.,  J. Phys. Chem. 98, 11623 (1994) (10.1021/j100096a001)

    Deriv               =              1
    GGA                 =           TRUE
    Meta                =          FALSE

    Exchange Hybrid     =           TRUE
    MP2 Hybrid          =          FALSE

   => Exchange Functionals <=

    0.0800   Slater exchange
    0.7200         Becke 88

   => Exact (HF) Exchange <=

    0.2000               HF 

   => Correlation Functionals <=

    0.1900   Vosko, Wilk & Nusair (VWN5_RPA)
    0.8100   Lee, Yang & Parr

   => LibXC Density Thresholds  <==

    XC_HYB_GGA_XC_B3LYP:  1.00E-15 

   => Molecular Quadrature <=

    Radial Scheme          =       TREUTLER
    Pruning Scheme         =           NONE
    Nuclear Scheme         =       TREUTLER

    Blocking Scheme        =         OCTREE
    BS radius alpha        =              1
    Pruning alpha          =              1
    Radial Points          =             75
    Spherical Points       =            302
    Total Points           =          43378
    Total Blocks           =            403
    Max Points             =            255
    Max Functions          =             32
    Weights Tolerance      =       1.00E-15

   => Loading Basis Set <=

    Name: (CC-PVDZ AUX)
    Role: JKFIT
    Keyword: DF_BASIS_SCF
    atoms 1 entry N          line   171 file /home/jrodriguesro/psi4conda/share/psi4/basis/cc-pvdz-jkfit.gbs 
    atoms 2 entry AL         line   371 file /home/jrodriguesro/psi4conda/share/psi4/basis/cc-pvdz-jkfit.gbs 

   => Loading Basis Set <=

    Name: CC-PVDZ
    Role: ORBITAL
    Keyword: BASIS
    atoms 1 entry N          line   168 file /home/jrodriguesro/psi4conda/share/psi4/basis/cc-pvdz.gbs 
    atoms 2 entry AL         line   418 file /home/jrodriguesro/psi4conda/share/psi4/basis/cc-pvdz.gbs 

  Reading orbitals from file /tmp/triplet_NAl.default.371576.180.npy, no projection.

  ==> Integral Setup <==

  DFHelper Memory: AOs need 0.002 GiB; user supplied 5.549 GiB. 
  SCF_SUBTYPE=INCORE selected. In-core MEM_DF algorithm will be used.
  Using in-core AOs.

  ==> MemDFJK: Density-Fitted J/K Matrices <==

    J tasked:                   Yes
    K tasked:                   Yes
    wK tasked:                   No
    OpenMP threads:               5
    Memory [MiB]:              5681
    Algorithm:                 Core
    Schwarz Cutoff:           1E-12
    Mask sparsity (%):       0.0000
    Fitting Condition:        1E-10

   => Auxiliary Basis Set <=

  Basis Set: (CC-PVDZ AUX)
    Blend: CC-PVDZ-JKFIT
    Number of shells: 60
    Number of basis functions: 182
    Number of Cartesian functions: 211
    Spherical Harmonics?: true
    Max angular momentum: 3

  Cached 100.0% of DFT collocation blocks in 0.039 [GiB].

  Minimum eigenvalue in the overlap matrix is 4.5535181758E-03.
  Reciprocal condition number of the overlap matrix is 1.4900506776E-03.
    Using symmetric orthogonalization.

  ==> Pre-Iterations <==

  SCF Guess: Orbitals guess was supplied from a previous computation.

   -------------------------------------------------------
    Irrep   Nso     Nmo     Nalpha   Nbeta   Ndocc  Nsocc
   -------------------------------------------------------
     A1        16      16       7       5       5       2
     A2         2       2       0       0       0       0
     B1         7       7       2       2       2       0
     B2         7       7       2       2       2       0
   -------------------------------------------------------
    Total      32      32      11       9       9       2
   -------------------------------------------------------

  ==> Iterations <==

                           Total Energy        Delta E     RMS |[F,P]|

   @DF-UKS iter   0:  -296.80998617019361   -2.96810e+02   3.72214e-02 
   @DF-UKS iter   1:  -296.84106326397870   -3.10771e-02   8.90638e-03 DIIS/ADIIS
   @DF-UKS iter   2:  -296.80473225705708    3.63310e-02   1.64333e-02 DIIS/ADIIS/DAMP=1%
   @DF-UKS iter   3:  -296.86293246151570   -5.82002e-02   8.13775e-04 DIIS/ADIIS/DAMP=1%
   @DF-UKS iter   4:  -296.85627623203152    6.65623e-03   1.52424e-04 DIIS/ADIIS/DAMP=1%
   @DF-UKS iter   5:  -296.85575314858994    5.23083e-04   2.83404e-05 DIIS/DAMP=1%
   @DF-UKS iter   6:  -296.85570068684922    5.24617e-05   4.13949e-06 DIIS/DAMP=1%
   @DF-UKS iter   7:  -296.85570498098292   -4.29413e-06   6.68262e-07 DIIS/DAMP=1%
   @DF-UKS iter   8:  -296.85570353740957    1.44357e-06   6.35244e-08 DIIS/DAMP=1%
   @DF-UKS iter   9:  -296.85570376603732   -2.28628e-07   2.57065e-08 DIIS/DAMP=1%
   @DF-UKS iter  10:  -296.85570375913852    6.89880e-09   3.62726e-09 DIIS/DAMP=1%
  Energy and wave function converged.


  ==> Post-Iterations <==

   Electrons on quadrature grid:
      Nalpha   =   11.0000002324 ; deviation = 2.324e-07
      Nbeta    =    9.0000000765 ; deviation = 7.646e-08
      Ntotal   =   20.0000003088 ; deviation = 3.088e-07 

   @Spin Contamination Metric:   3.766318159E-03
   @S^2 Expected:                2.000000000E+00
   @S^2 Observed:                2.003766318E+00
   @S   Expected:                1.000000000E+00
   @S   Observed:                1.000000000E+00

    Orbital Energies [Eh]
    ---------------------

    Alpha Occupied:                                                       

       1A1   -56.034959     2A1   -14.281771     3A1    -4.156295  
       4A1    -2.720179     1B2    -2.701615     1B1    -2.701615  
       5A1    -0.755138     6A1    -0.359030     2B1    -0.280428  
       2B2    -0.280428     7A1    -0.258355  

    Alpha Virtual:                                                        

       3B1    -0.024845     3B2    -0.024845     8A1     0.053676  
       9A1     0.152072     4B2     0.211091     4B1     0.211091  
       1A2     0.260281    10A1     0.260281    11A1     0.264739  
       5B1     0.408669     5B2     0.408669    12A1     0.751288  
       6B1     0.842518     6B2     0.842518    13A1     0.964666  
      14A1     1.401273     2A2     1.824031    15A1     1.824031  
       7B2     1.918922     7B1     1.918922    16A1     2.253779  

    Beta Occupied:                                                        

       1A1   -56.029075     2A1   -14.258564     3A1    -4.147403  
       4A1    -2.705803     1B1    -2.696335     1B2    -2.696335  
       5A1    -0.692079     2B2    -0.257015     2B1    -0.257015  

    Beta Virtual:                                                         

       6A1    -0.189985     7A1    -0.081421     3B1     0.007923  
       3B2     0.007923     8A1     0.076240     9A1     0.187631  
       4B2     0.236146     4B1     0.236146     1A2     0.279078  
      10A1     0.279078    11A1     0.322006     5B1     0.445822  
       5B2     0.445822    12A1     0.804426     6B2     0.861569  
       6B1     0.861569    13A1     1.019403    14A1     1.466450  
       2A2     1.841808    15A1     1.841808     7B2     1.990177  
       7B1     1.990177    16A1     2.315094  

    Final Occupation by Irrep:
             A1    A2    B1    B2 
    DOCC [     5,    0,    2,    2 ]
    SOCC [     2,    0,    0,    0 ]
    NA   [     7,    0,    2,    2 ]
    NB   [     5,    0,    2,    2 ]

  @DF-UKS Final Energy:  -296.85570375913852

   => Energetics <=

    Nuclear Repulsion Energy =             36.2354154227906662
    One-Electron Energy =                -483.0929741875710306
    Two-Electron Energy =                 170.7338659432796817
    DFT Exchange-Correlation Energy =     -20.7320109376378205
    Empirical Dispersion Energy =           0.0000000000000000
    VV10 Nonlocal Energy =                  0.0000000000000000
    Total Energy =                       -296.8557037591385210

  UHF NO Occupations:
  HONO-2 :    5 A1 1.9992985
  HONO-1 :    6 A1 1.0000000
  HONO-0 :    7 A1 1.0000000
  LUNO+0 :    8 A1 0.0007015
  LUNO+1 :    3 B1 0.0005899
  LUNO+2 :    3 B2 0.0005899
  LUNO+3 :    9 A1 0.0000010


Computation Completed


Properties will be evaluated at   0.000000,   0.000000,   0.000000 [a0]

Properties computed using the SCF density matrix


 Multipole Moments:

 ------------------------------------------------------------------------------------
     Multipole            Electronic (a.u.)      Nuclear  (a.u.)        Total (a.u.)
 ------------------------------------------------------------------------------------

 L = 1.  Multiply by 2.5417464519 to convert [e a0] to [Debye]
 Dipole X            :          0.0000000            0.0000000            0.0000000
 Dipole Y            :          0.0000000            0.0000000            0.0000000
 Dipole Z            :         -1.6222850            0.4185616           -1.2037234
 Magnitude           :                                                    1.2037234

 ------------------------------------------------------------------------------------

*** tstop() called on cics-quant-001 at Tue Dec 23 10:59:06 2025
Module time:
	user time   =       0.89 seconds =       0.01 minutes
	system time =       0.04 seconds =       0.00 minutes
	total time  =          0 seconds =       0.00 minutes
Total time:
	user time   =       1.96 seconds =       0.03 minutes
	system time =       0.26 seconds =       0.00 minutes
	total time  =          1 seconds =       0.02 minutes

*** tstart() called on cics-quant-001
*** at Tue Dec 23 10:59:06 2025


         ------------------------------------------------------------
                                   SCF GRAD                          
                          Rob Parrish, Justin Turney,                
                       Andy Simmonett, and Alex Sokolov              
         ------------------------------------------------------------

  ==> Geometry <==

    Molecular point group: c2v
    Full point group: C_inf_v

    Geometry (in Angstrom), charge = 0, multiplicity = 3:

       Center              X                  Y                   Z               Mass       
    ------------   -----------------  -----------------  -----------------  -----------------
         N            0.000000000000     0.000000000000     0.874893433521    14.003074004430
         AL           0.000000000000     0.000000000000    -0.454058521606    26.981538530000

  Nuclear repulsion =   36.235415422790666

  ==> Basis Set <==

  Basis Set: CC-PVDZ
    Blend: CC-PVDZ
    Number of shells: 14
    Number of basis functions: 32
    Number of Cartesian functions: 34
    Spherical Harmonics?: true
    Max angular momentum: 2

  ==> DFJKGrad: Density-Fitted SCF Gradients <==

    Gradient:                    1
    J tasked:                  Yes
    K tasked:                  Yes
    wK tasked:                  No
    OpenMP threads:              5
    Integrals threads:           5
    Memory [MiB]:             5722
    Schwarz Cutoff:          1E-12
    Fitting Condition:       1E-10

   => Auxiliary Basis Set <=

  Basis Set: (CC-PVDZ AUX)
    Blend: CC-PVDZ-JKFIT
    Number of shells: 60
    Number of basis functions: 182
    Number of Cartesian functions: 211
    Spherical Harmonics?: true
    Max angular momentum: 3

  ==> DFT Potential <==

   => LibXC <=

    Version 7.0.0
    S. Lehtola, C. Steigemann, M. J.T. Oliveira, and M. A.L. Marques.,  SoftwareX 7, 1–5 (2018) (10.1016/j.softx.2017.11.002)

   => Composite Functional: B3LYP <= 

    B3LYP Hyb-GGA Exchange-Correlation Functional

    P. J. Stephens, F. J. Devlin, C. F. Chabalowski, and M. J. Frisch.,  J. Phys. Chem. 98, 11623 (1994) (10.1021/j100096a001)

    Deriv               =              1
    GGA                 =           TRUE
    Meta                =          FALSE

    Exchange Hybrid     =           TRUE
    MP2 Hybrid          =          FALSE

   => Exchange Functionals <=

    0.0800   Slater exchange
    0.7200         Becke 88

   => Exact (HF) Exchange <=

    0.2000               HF 

   => Correlation Functionals <=

    0.1900   Vosko, Wilk & Nusair (VWN5_RPA)
    0.8100   Lee, Yang & Parr

   => LibXC Density Thresholds  <==

    XC_HYB_GGA_XC_B3LYP:  1.00E-15 

   => Molecular Quadrature <=

    Radial Scheme          =       TREUTLER
    Pruning Scheme         =           NONE
    Nuclear Scheme         =       TREUTLER

    Blocking Scheme        =         OCTREE
    BS radius alpha        =              1
    Pruning alpha          =              1
    Radial Points          =             75
    Spherical Points       =            302
    Total Points           =          43378
    Total Blocks           =            403
    Max Points             =            255
    Max Functions          =             32
    Weights Tolerance      =       1.00E-15


  -Total Gradient:
     Atom            X                  Y                   Z
    ------   -----------------  -----------------  -----------------
       1        0.000000000000    -0.000000000000    -0.534439243068
       2       -0.000000000000    -0.000000000000     0.534381966574


*** tstop() called on cics-quant-001 at Tue Dec 23 10:59:06 2025
Module time:
	user time   =       0.21 seconds =       0.00 minutes
	system time =       0.12 seconds =       0.00 minutes
	total time  =          0 seconds =       0.00 minutes
Total time:
	user time   =       2.17 seconds =       0.04 minutes
	system time =       0.38 seconds =       0.01 minutes
	total time  =          1 seconds =       0.02 minutes

    			-----------------------------------------

    			 OPTKING 3.0: for geometry optimizations 

    			     By R.A. King, Bethel University     

    			        with contributions from          

    			    A.V. Copan, J. Cayton, A. Heide      

    			-----------------------------------------

    
	                            ===> Fragment 1 <== 

	 Z (Atomic Numbers)          Masses                          Geom                  
	       7.000000            14.003074          0.00000000  0.00000000  1.65330898   
	      13.000000            26.981539          0.00000000  0.00000000 -0.85804625   

	 - Coordinate -           - BOHR/RAD -       - ANG/DEG -
	 R(1,2)           =         2.511355           1.328952


	        --- Internal Coordinate Step in ANG or DEG, aJ/ANG or AJ/DEG ---
	-------------------------------------------------------------------------------
	           Coordinate      Previous         Force          Change          New 
	           ----------      --------        ------          ------        ------
	               R(1,2)       1.32895        4.40286        0.11915       1.44810
	-------------------------------------------------------------------------------

	                                 ==> Convergence Check <==                                  
    
	Measures of convergence in internal coordinates in au.
    
	Criteria marked as inactive (o), active & met (*), and active & unmet ( ).

	----------------------------------------------------------------------------------------------
	   Step    Total Energy     Delta E     Max Force     RMS Force      Max Disp      RMS Disp   
	----------------------------------------------------------------------------------------------
	  Convergence Criteria     1.00e-06 *    3.00e-04 *             o    1.20e-03 *             o
	----------------------------------------------------------------------------------------------
	     2    -296.85570376   -1.91e-01      5.34e-01      5.34e-01 o    2.25e-01      2.25e-01 o  ~
	----------------------------------------------------------------------------------------------

Next Geometry in Ang 
	Fragment 1 (Ang)

	    N   0.0000000000   0.0000000000   0.9344669268
	   Al   0.0000000000   0.0000000000  -0.5136320148


    Structure for next step:
    Molecular point group: c2v
    Full point group: C_inf_v

    Geometry (in Angstrom), charge = 0, multiplicity = 3:

    N            0.000000000000     0.000000000000     0.953331871945
    AL           0.000000000000     0.000000000000    -0.494767069668


Scratch directory: /tmp/
gradient() will perform analytic gradient computation.
   => Libint2 <=

    Primary   basis highest AM E, G, H:  6, 6, 3
    Auxiliary basis highest AM E, G, H:  7, 7, 4
    Onebody   basis highest AM E, G, H:  -, -, -
    Solid Harmonics ordering:            Gaussian

*** tstart() called on cics-quant-001
*** at Tue Dec 23 10:59:06 2025

   => Loading Basis Set <=

    Name: CC-PVDZ
    Role: ORBITAL
    Keyword: BASIS
    atoms 1 entry N          line   168 file /home/jrodriguesro/psi4conda/share/psi4/basis/cc-pvdz.gbs 
    atoms 2 entry AL         line   418 file /home/jrodriguesro/psi4conda/share/psi4/basis/cc-pvdz.gbs 


         ---------------------------------------------------------
                                   SCF
               by Justin Turney, Rob Parrish, Andy Simmonett
                          and Daniel G. A. Smith
                              UKS Reference
                        5 Threads,   7629 MiB Core
         ---------------------------------------------------------

  ==> Geometry <==

    Molecular point group: c2v
    Full point group: C_inf_v

    Geometry (in Angstrom), charge = 0, multiplicity = 3:

       Center              X                  Y                   Z               Mass       
    ------------   -----------------  -----------------  -----------------  -----------------
         N            0.000000000000     0.000000000000     0.953331871945    14.003074004430
         AL           0.000000000000     0.000000000000    -0.494767069668    26.981538530000

  Running in c2v symmetry.

  Rotational constants: A = ************  B =      0.87203  C =      0.87203 [cm^-1]
  Rotational constants: A = ************  B =  26142.76184  C =  26142.76184 [MHz]
  Nuclear repulsion =   33.254030361564887

  Charge       = 0
  Multiplicity = 3
  Electrons    = 20
  Nalpha       = 11
  Nbeta        = 9

  ==> Algorithm <==

  SCF Algorithm Type is DF.
  DIIS enabled.
  MOM disabled.
  Fractional occupation disabled.
  Guess Type is READ.
  Energy threshold   = 1.00e-08
  Density threshold  = 1.00e-08
  Integral threshold = 1.00e-12

  ==> Primary Basis <==

  Basis Set: CC-PVDZ
    Blend: CC-PVDZ
    Number of shells: 14
    Number of basis functions: 32
    Number of Cartesian functions: 34
    Spherical Harmonics?: true
    Max angular momentum: 2

  ==> DFT Potential <==

   => LibXC <=

    Version 7.0.0
    S. Lehtola, C. Steigemann, M. J.T. Oliveira, and M. A.L. Marques.,  SoftwareX 7, 1–5 (2018) (10.1016/j.softx.2017.11.002)

   => Composite Functional: B3LYP <= 

    B3LYP Hyb-GGA Exchange-Correlation Functional

    P. J. Stephens, F. J. Devlin, C. F. Chabalowski, and M. J. Frisch.,  J. Phys. Chem. 98, 11623 (1994) (10.1021/j100096a001)

    Deriv               =              1
    GGA                 =           TRUE
    Meta                =          FALSE

    Exchange Hybrid     =           TRUE
    MP2 Hybrid          =          FALSE

   => Exchange Functionals <=

    0.0800   Slater exchange
    0.7200         Becke 88

   => Exact (HF) Exchange <=

    0.2000               HF 

   => Correlation Functionals <=

    0.1900   Vosko, Wilk & Nusair (VWN5_RPA)
    0.8100   Lee, Yang & Parr

   => LibXC Density Thresholds  <==

    XC_HYB_GGA_XC_B3LYP:  1.00E-15 

   => Molecular Quadrature <=

    Radial Scheme          =       TREUTLER
    Pruning Scheme         =           NONE
    Nuclear Scheme         =       TREUTLER

    Blocking Scheme        =         OCTREE
    BS radius alpha        =              1
    Pruning alpha          =              1
    Radial Points          =             75
    Spherical Points       =            302
    Total Points           =          43396
    Total Blocks           =            404
    Max Points             =            256
    Max Functions          =             32
    Weights Tolerance      =       1.00E-15

   => Loading Basis Set <=

    Name: (CC-PVDZ AUX)
    Role: JKFIT
    Keyword: DF_BASIS_SCF
    atoms 1 entry N          line   171 file /home/jrodriguesro/psi4conda/share/psi4/basis/cc-pvdz-jkfit.gbs 
    atoms 2 entry AL         line   371 file /home/jrodriguesro/psi4conda/share/psi4/basis/cc-pvdz-jkfit.gbs 

   => Loading Basis Set <=

    Name: CC-PVDZ
    Role: ORBITAL
    Keyword: BASIS
    atoms 1 entry N          line   168 file /home/jrodriguesro/psi4conda/share/psi4/basis/cc-pvdz.gbs 
    atoms 2 entry AL         line   418 file /home/jrodriguesro/psi4conda/share/psi4/basis/cc-pvdz.gbs 

  Reading orbitals from file /tmp/triplet_NAl.default.371576.180.npy, no projection.

  ==> Integral Setup <==

  DFHelper Memory: AOs need 0.002 GiB; user supplied 5.549 GiB. 
  SCF_SUBTYPE=INCORE selected. In-core MEM_DF algorithm will be used.
  Using in-core AOs.

  ==> MemDFJK: Density-Fitted J/K Matrices <==

    J tasked:                   Yes
    K tasked:                   Yes
    wK tasked:                   No
    OpenMP threads:               5
    Memory [MiB]:              5682
    Algorithm:                 Core
    Schwarz Cutoff:           1E-12
    Mask sparsity (%):       0.0000
    Fitting Condition:        1E-10

   => Auxiliary Basis Set <=

  Basis Set: (CC-PVDZ AUX)
    Blend: CC-PVDZ-JKFIT
    Number of shells: 60
    Number of basis functions: 182
    Number of Cartesian functions: 211
    Spherical Harmonics?: true
    Max angular momentum: 3

  Cached 100.0% of DFT collocation blocks in 0.039 [GiB].

  Minimum eigenvalue in the overlap matrix is 7.7027173446E-03.
  Reciprocal condition number of the overlap matrix is 2.5431029063E-03.
    Using symmetric orthogonalization.

  ==> Pre-Iterations <==

  SCF Guess: Orbitals guess was supplied from a previous computation.

   -------------------------------------------------------
    Irrep   Nso     Nmo     Nalpha   Nbeta   Ndocc  Nsocc
   -------------------------------------------------------
     A1        16      16       7       5       5       2
     A2         2       2       0       0       0       0
     B1         7       7       2       2       2       0
     B2         7       7       2       2       2       0
   -------------------------------------------------------
    Total      32      32      11       9       9       2
   -------------------------------------------------------

  ==> Iterations <==

                           Total Energy        Delta E     RMS |[F,P]|

   @DF-UKS iter   0:  -296.91337898849969   -2.96913e+02   2.41931e-02 
   @DF-UKS iter   1:  -296.93728335960867   -2.39044e-02   4.04455e-03 DIIS/ADIIS
   @DF-UKS iter   2:  -296.92804464442736    9.23872e-03   7.87353e-03 DIIS/ADIIS/DAMP=1%
   @DF-UKS iter   3:  -296.94368479818610   -1.56402e-02   7.83173e-04 DIIS/ADIIS/DAMP=1%
   @DF-UKS iter   4:  -296.94008049002628    3.60431e-03   4.64597e-05 DIIS/DAMP=1%
   @DF-UKS iter   5:  -296.94008455071759   -4.06069e-06   1.25278e-05 DIIS/DAMP=1%
   @DF-UKS iter   6:  -296.94008420287264    3.47845e-07   2.52252e-06 DIIS/DAMP=1%
   @DF-UKS iter   7:  -296.94008385294524    3.49927e-07   1.13925e-06 DIIS/DAMP=1%
   @DF-UKS iter   8:  -296.94008390367287   -5.07276e-08   3.58936e-07 DIIS/DAMP=1%
   @DF-UKS iter   9:  -296.94008371219593    1.91477e-07   6.08424e-08 DIIS/DAMP=1%
   @DF-UKS iter  10:  -296.94008383504888   -1.22853e-07   6.08392e-09 DIIS/DAMP=1%
   @DF-UKS iter  11:  -296.94008381487481    2.01741e-08   1.27616e-09 DIIS/DAMP=1%
   @DF-UKS iter  12:  -296.94008381931963   -4.44481e-09   1.29077e-10 DIIS/DAMP=1%
  Energy and wave function converged.


  ==> Post-Iterations <==

   Electrons on quadrature grid:
      Nalpha   =   10.9999994970 ; deviation = -5.030e-07
      Nbeta    =    8.9999994093 ; deviation = -5.907e-07
      Ntotal   =   19.9999989063 ; deviation = -1.094e-06 

   @Spin Contamination Metric:   3.876324241E-03
   @S^2 Expected:                2.000000000E+00
   @S^2 Observed:                2.003876324E+00
   @S   Expected:                1.000000000E+00
   @S   Observed:                1.000000000E+00

    Orbital Energies [Eh]
    ---------------------

    Alpha Occupied:                                                       

       1A1   -56.066704     2A1   -14.298837     3A1    -4.169937  
       4A1    -2.727671     1B2    -2.718813     1B1    -2.718813  
       5A1    -0.749274     6A1    -0.369048     7A1    -0.267614  
       2B1    -0.266503     2B2    -0.266503  

    Alpha Virtual:                                                        

       3B2    -0.034631     3B1    -0.034631     8A1     0.047650  
       9A1     0.148340     4B1     0.206450     4B2     0.206450  
      10A1     0.255926     1A2     0.255926    11A1     0.259760  
       5B2     0.378576     5B1     0.378576    12A1     0.674285  
       6B2     0.845633     6B1     0.845633    13A1     0.916908  
      14A1     1.320064     2A2     1.825375    15A1     1.825380  
       7B2     1.915993     7B1     1.915993    16A1     2.200245  

    Beta Occupied:                                                        

       1A1   -56.061270     2A1   -14.276576     3A1    -4.161616  
       4A1    -2.715486     1B2    -2.713776     1B1    -2.713776  
       5A1    -0.686809     2B1    -0.242829     2B2    -0.242829  

    Beta Virtual:                                                         

       6A1    -0.203040     7A1    -0.092150     3B2    -0.000876  
       3B1    -0.000876     8A1     0.070327     9A1     0.181899  
       4B1     0.229374     4B2     0.229374     1A2     0.275694  
      10A1     0.275694    11A1     0.317090     5B2     0.416153  
       5B1     0.416153    12A1     0.715214     6B2     0.863964  
       6B1     0.863964    13A1     0.983997    14A1     1.377099  
       2A2     1.843194    15A1     1.843198     7B2     1.986509  
       7B1     1.986509    16A1     2.269041  

    Final Occupation by Irrep:
             A1    A2    B1    B2 
    DOCC [     5,    0,    2,    2 ]
    SOCC [     2,    0,    0,    0 ]
    NA   [     7,    0,    2,    2 ]
    NB   [     5,    0,    2,    2 ]

  @DF-UKS Final Energy:  -296.94008381931963

   => Energetics <=

    Nuclear Repulsion Energy =             33.2540303615648867
    One-Electron Energy =                -477.1890806355949053
    Two-Electron Energy =                 167.6464175527291331
    DFT Exchange-Correlation Energy =     -20.6514510980187680
    Empirical Dispersion Energy =           0.0000000000000000
    VV10 Nonlocal Energy =                  0.0000000000000000
    Total Energy =                       -296.9400838193196250

  UHF NO Occupations:
  HONO-2 :    2 B2 1.9993479
  HONO-1 :    6 A1 1.0000000
  HONO-0 :    7 A1 1.0000000
  LUNO+0 :    3 B2 0.0006521
  LUNO+1 :    3 B1 0.0006521
  LUNO+2 :    8 A1 0.0006325
  LUNO+3 :    4 B1 0.0000007


Computation Completed


Properties will be evaluated at   0.000000,   0.000000,   0.000000 [a0]

Properties computed using the SCF density matrix


 Multipole Moments:

 ------------------------------------------------------------------------------------
     Multipole            Electronic (a.u.)      Nuclear  (a.u.)        Total (a.u.)
 ------------------------------------------------------------------------------------

 L = 1.  Multiply by 2.5417464519 to convert [e a0] to [Debye]
 Dipole X            :          0.0000000            0.0000000            0.0000000
 Dipole Y            :          0.0000000            0.0000000            0.0000000
 Dipole Z            :         -1.7639403            0.4560877           -1.3078526
 Magnitude           :                                                    1.3078526

 ------------------------------------------------------------------------------------

*** tstop() called on cics-quant-001 at Tue Dec 23 10:59:07 2025
Module time:
	user time   =       0.83 seconds =       0.01 minutes
	system time =       0.08 seconds =       0.00 minutes
	total time  =          1 seconds =       0.02 minutes
Total time:
	user time   =       3.02 seconds =       0.05 minutes
	system time =       0.46 seconds =       0.01 minutes
	total time  =          2 seconds =       0.03 minutes

*** tstart() called on cics-quant-001
*** at Tue Dec 23 10:59:07 2025


         ------------------------------------------------------------
                                   SCF GRAD                          
                          Rob Parrish, Justin Turney,                
                       Andy Simmonett, and Alex Sokolov              
         ------------------------------------------------------------

  ==> Geometry <==

    Molecular point group: c2v
    Full point group: C_inf_v

    Geometry (in Angstrom), charge = 0, multiplicity = 3:

       Center              X                  Y                   Z               Mass       
    ------------   -----------------  -----------------  -----------------  -----------------
         N            0.000000000000     0.000000000000     0.953331871945    14.003074004430
         AL           0.000000000000     0.000000000000    -0.494767069668    26.981538530000

  Nuclear repulsion =   33.254030361564887

  ==> Basis Set <==

  Basis Set: CC-PVDZ
    Blend: CC-PVDZ
    Number of shells: 14
    Number of basis functions: 32
    Number of Cartesian functions: 34
    Spherical Harmonics?: true
    Max angular momentum: 2

  ==> DFJKGrad: Density-Fitted SCF Gradients <==

    Gradient:                    1
    J tasked:                  Yes
    K tasked:                  Yes
    wK tasked:                  No
    OpenMP threads:              5
    Integrals threads:           5
    Memory [MiB]:             5722
    Schwarz Cutoff:          1E-12
    Fitting Condition:       1E-10

   => Auxiliary Basis Set <=

  Basis Set: (CC-PVDZ AUX)
    Blend: CC-PVDZ-JKFIT
    Number of shells: 60
    Number of basis functions: 182
    Number of Cartesian functions: 211
    Spherical Harmonics?: true
    Max angular momentum: 3

  ==> DFT Potential <==

   => LibXC <=

    Version 7.0.0
    S. Lehtola, C. Steigemann, M. J.T. Oliveira, and M. A.L. Marques.,  SoftwareX 7, 1–5 (2018) (10.1016/j.softx.2017.11.002)

   => Composite Functional: B3LYP <= 

    B3LYP Hyb-GGA Exchange-Correlation Functional

    P. J. Stephens, F. J. Devlin, C. F. Chabalowski, and M. J. Frisch.,  J. Phys. Chem. 98, 11623 (1994) (10.1021/j100096a001)

    Deriv               =              1
    GGA                 =           TRUE
    Meta                =          FALSE

    Exchange Hybrid     =           TRUE
    MP2 Hybrid          =          FALSE

   => Exchange Functionals <=

    0.0800   Slater exchange
    0.7200         Becke 88

   => Exact (HF) Exchange <=

    0.2000               HF 

   => Correlation Functionals <=

    0.1900   Vosko, Wilk & Nusair (VWN5_RPA)
    0.8100   Lee, Yang & Parr

   => LibXC Density Thresholds  <==

    XC_HYB_GGA_XC_B3LYP:  1.00E-15 

   => Molecular Quadrature <=

    Radial Scheme          =       TREUTLER
    Pruning Scheme         =           NONE
    Nuclear Scheme         =       TREUTLER

    Blocking Scheme        =         OCTREE
    BS radius alpha        =              1
    Pruning alpha          =              1
    Radial Points          =             75
    Spherical Points       =            302
    Total Points           =          43396
    Total Blocks           =            404
    Max Points             =            256
    Max Functions          =             32
    Weights Tolerance      =       1.00E-15


  -Total Gradient:
     Atom            X                  Y                   Z
    ------   -----------------  -----------------  -----------------
       1        0.000000000000     0.000000000000    -0.241391462203
       2       -0.000000000000     0.000000000000     0.241394287326


*** tstop() called on cics-quant-001 at Tue Dec 23 10:59:07 2025
Module time:
	user time   =       0.18 seconds =       0.00 minutes
	system time =       0.12 seconds =       0.00 minutes
	total time  =          0 seconds =       0.00 minutes
Total time:
	user time   =       3.20 seconds =       0.05 minutes
	system time =       0.58 seconds =       0.01 minutes
	total time  =          2 seconds =       0.03 minutes

    			-----------------------------------------

    			 OPTKING 3.0: for geometry optimizations 

    			     By R.A. King, Bethel University     

    			        with contributions from          

    			    A.V. Copan, J. Cayton, A. Heide      

    			-----------------------------------------

    
	                            ===> Fragment 1 <== 

	 Z (Atomic Numbers)          Masses                          Geom                  
	       7.000000            14.003074          0.00000000  0.00000000  1.80153614   
	      13.000000            26.981539          0.00000000  0.00000000 -0.93497426   

	 - Coordinate -           - BOHR/RAD -       - ANG/DEG -
	 R(1,2)           =         2.736510           1.448099


	        --- Internal Coordinate Step in ANG or DEG, aJ/ANG or AJ/DEG ---
	-------------------------------------------------------------------------------
	           Coordinate      Previous         Force          Change          New 
	           ----------      --------        ------          ------        ------
	               R(1,2)       1.44810        1.98877        0.06988       1.51798
	-------------------------------------------------------------------------------

	                                 ==> Convergence Check <==                                  
    
	Measures of convergence in internal coordinates in au.
    
	Criteria marked as inactive (o), active & met (*), and active & unmet ( ).

	----------------------------------------------------------------------------------------------
	   Step    Total Energy     Delta E     Max Force     RMS Force      Max Disp      RMS Disp   
	----------------------------------------------------------------------------------------------
	  Convergence Criteria     1.00e-06 *    3.00e-04 *             o    1.20e-03 *             o
	----------------------------------------------------------------------------------------------
	     3    -296.94008382   -8.44e-02      2.41e-01      2.41e-01 o    1.32e-01      1.32e-01 o  ~
	----------------------------------------------------------------------------------------------

Next Geometry in Ang 
	Fragment 1 (Ang)

	    N   0.0000000000   0.0000000000   0.9882718900
	   Al   0.0000000000   0.0000000000  -0.5297070877


    Structure for next step:
    Molecular point group: c2v
    Full point group: C_inf_v

    Geometry (in Angstrom), charge = 0, multiplicity = 3:

    N            0.000000000000     0.000000000000     0.999336232334
    AL           0.000000000000     0.000000000000    -0.518642745340


Scratch directory: /tmp/
gradient() will perform analytic gradient computation.
   => Libint2 <=

    Primary   basis highest AM E, G, H:  6, 6, 3
    Auxiliary basis highest AM E, G, H:  7, 7, 4
    Onebody   basis highest AM E, G, H:  -, -, -
    Solid Harmonics ordering:            Gaussian

*** tstart() called on cics-quant-001
*** at Tue Dec 23 10:59:07 2025

   => Loading Basis Set <=

    Name: CC-PVDZ
    Role: ORBITAL
    Keyword: BASIS
    atoms 1 entry N          line   168 file /home/jrodriguesro/psi4conda/share/psi4/basis/cc-pvdz.gbs 
    atoms 2 entry AL         line   418 file /home/jrodriguesro/psi4conda/share/psi4/basis/cc-pvdz.gbs 


         ---------------------------------------------------------
                                   SCF
               by Justin Turney, Rob Parrish, Andy Simmonett
                          and Daniel G. A. Smith
                              UKS Reference
                        5 Threads,   7629 MiB Core
         ---------------------------------------------------------

  ==> Geometry <==

    Molecular point group: c2v
    Full point group: C_inf_v

    Geometry (in Angstrom), charge = 0, multiplicity = 3:

       Center              X                  Y                   Z               Mass       
    ------------   -----------------  -----------------  -----------------  -----------------
         N            0.000000000000     0.000000000000     0.999336232334    14.003074004430
         AL           0.000000000000     0.000000000000    -0.518642745340    26.981538530000

  Running in c2v symmetry.

  Rotational constants: A = ************  B =      0.79359  C =      0.79359 [cm^-1]
  Rotational constants: A = ************  B =  23791.20420  C =  23791.20420 [MHz]
  Nuclear repulsion =   31.723183837995954

  Charge       = 0
  Multiplicity = 3
  Electrons    = 20
  Nalpha       = 11
  Nbeta        = 9

  ==> Algorithm <==

  SCF Algorithm Type is DF.
  DIIS enabled.
  MOM disabled.
  Fractional occupation disabled.
  Guess Type is READ.
  Energy threshold   = 1.00e-08
  Density threshold  = 1.00e-08
  Integral threshold = 1.00e-12

  ==> Primary Basis <==

  Basis Set: CC-PVDZ
    Blend: CC-PVDZ
    Number of shells: 14
    Number of basis functions: 32
    Number of Cartesian functions: 34
    Spherical Harmonics?: true
    Max angular momentum: 2

  ==> DFT Potential <==

   => LibXC <=

    Version 7.0.0
    S. Lehtola, C. Steigemann, M. J.T. Oliveira, and M. A.L. Marques.,  SoftwareX 7, 1–5 (2018) (10.1016/j.softx.2017.11.002)

   => Composite Functional: B3LYP <= 

    B3LYP Hyb-GGA Exchange-Correlation Functional

    P. J. Stephens, F. J. Devlin, C. F. Chabalowski, and M. J. Frisch.,  J. Phys. Chem. 98, 11623 (1994) (10.1021/j100096a001)

    Deriv               =              1
    GGA                 =           TRUE
    Meta                =          FALSE

    Exchange Hybrid     =           TRUE
    MP2 Hybrid          =          FALSE

   => Exchange Functionals <=

    0.0800   Slater exchange
    0.7200         Becke 88

   => Exact (HF) Exchange <=

    0.2000               HF 

   => Correlation Functionals <=

    0.1900   Vosko, Wilk & Nusair (VWN5_RPA)
    0.8100   Lee, Yang & Parr

   => LibXC Density Thresholds  <==

    XC_HYB_GGA_XC_B3LYP:  1.00E-15 

   => Molecular Quadrature <=

    Radial Scheme          =       TREUTLER
    Pruning Scheme         =           NONE
    Nuclear Scheme         =       TREUTLER

    Blocking Scheme        =         OCTREE
    BS radius alpha        =              1
    Pruning alpha          =              1
    Radial Points          =             75
    Spherical Points       =            302
    Total Points           =          43402
    Total Blocks           =            404
    Max Points             =            255
    Max Functions          =             32
    Weights Tolerance      =       1.00E-15

   => Loading Basis Set <=

    Name: (CC-PVDZ AUX)
    Role: JKFIT
    Keyword: DF_BASIS_SCF
    atoms 1 entry N          line   171 file /home/jrodriguesro/psi4conda/share/psi4/basis/cc-pvdz-jkfit.gbs 
    atoms 2 entry AL         line   371 file /home/jrodriguesro/psi4conda/share/psi4/basis/cc-pvdz-jkfit.gbs 

   => Loading Basis Set <=

    Name: CC-PVDZ
    Role: ORBITAL
    Keyword: BASIS
    atoms 1 entry N          line   168 file /home/jrodriguesro/psi4conda/share/psi4/basis/cc-pvdz.gbs 
    atoms 2 entry AL         line   418 file /home/jrodriguesro/psi4conda/share/psi4/basis/cc-pvdz.gbs 

  Reading orbitals from file /tmp/triplet_NAl.default.371576.180.npy, no projection.

  ==> Integral Setup <==

  DFHelper Memory: AOs need 0.002 GiB; user supplied 5.549 GiB. 
  SCF_SUBTYPE=INCORE selected. In-core MEM_DF algorithm will be used.
  Using in-core AOs.

  ==> MemDFJK: Density-Fitted J/K Matrices <==

    J tasked:                   Yes
    K tasked:                   Yes
    wK tasked:                   No
    OpenMP threads:               5
    Memory [MiB]:              5682
    Algorithm:                 Core
    Schwarz Cutoff:           1E-12
    Mask sparsity (%):       0.0000
    Fitting Condition:        1E-10

   => Auxiliary Basis Set <=

  Basis Set: (CC-PVDZ AUX)
    Blend: CC-PVDZ-JKFIT
    Number of shells: 60
    Number of basis functions: 182
    Number of Cartesian functions: 211
    Spherical Harmonics?: true
    Max angular momentum: 3

  Cached 100.0% of DFT collocation blocks in 0.039 [GiB].

  Minimum eigenvalue in the overlap matrix is 1.0320479860E-02.
  Reciprocal condition number of the overlap matrix is 3.4298643824E-03.
    Using symmetric orthogonalization.

  ==> Pre-Iterations <==

  SCF Guess: Orbitals guess was supplied from a previous computation.

   -------------------------------------------------------
    Irrep   Nso     Nmo     Nalpha   Nbeta   Ndocc  Nsocc
   -------------------------------------------------------
     A1        16      16       7       5       5       2
     A2         2       2       0       0       0       0
     B1         7       7       2       2       2       0
     B2         7       7       2       2       2       0
   -------------------------------------------------------
    Total      32      32      11       9       9       2
   -------------------------------------------------------

  ==> Iterations <==

                           Total Energy        Delta E     RMS |[F,P]|

   @DF-UKS iter   0:  -296.94523814228853   -2.96945e+02   1.04924e-02 
   @DF-UKS iter   1:  -296.96414959686854   -1.89115e-02   8.00848e-04 DIIS/ADIIS
   @DF-UKS iter   2:  -296.96417630382183   -2.67070e-05   6.47634e-04 DIIS/ADIIS/DAMP=1%
   @DF-UKS iter   3:  -296.96477221620620   -5.95912e-04   5.52905e-04 DIIS/ADIIS/DAMP=1%
   @DF-UKS iter   4:  -296.96406842618154    7.03790e-04   2.99156e-05 DIIS/DAMP=1%
   @DF-UKS iter   5:  -296.96423117586414   -1.62750e-04   8.03672e-06 DIIS/DAMP=1%
   @DF-UKS iter   6:  -296.96425433718110   -2.31613e-05   3.59157e-06 DIIS/DAMP=1%
   @DF-UKS iter   7:  -296.96425165057536    2.68661e-06   1.08198e-06 DIIS/DAMP=1%
   @DF-UKS iter   8:  -296.96425229475500   -6.44180e-07   1.97269e-07 DIIS/DAMP=1%
   @DF-UKS iter   9:  -296.96425218784589    1.06909e-07   2.85387e-08 DIIS/DAMP=1%
   @DF-UKS iter  10:  -296.96425219413220   -6.28631e-09   7.87915e-09 DIIS/DAMP=1%
  Energy and wave function converged.


  ==> Post-Iterations <==

   Electrons on quadrature grid:
      Nalpha   =   10.9999994601 ; deviation = -5.399e-07
      Nbeta    =    8.9999994704 ; deviation = -5.296e-07
      Ntotal   =   19.9999989305 ; deviation = -1.070e-06 

   @Spin Contamination Metric:   3.864108163E-03
   @S^2 Expected:                2.000000000E+00
   @S^2 Observed:                2.003864108E+00
   @S   Expected:                1.000000000E+00
   @S   Observed:                1.000000000E+00

    Orbital Energies [Eh]
    ---------------------

    Alpha Occupied:                                                       

       1A1   -56.083925     2A1   -14.307703     3A1    -4.179421  
       4A1    -2.735053     1B1    -2.729576     1B2    -2.729576  
       5A1    -0.743056     6A1    -0.372644     7A1    -0.271724  
       2B2    -0.259136     2B1    -0.259136  

    Alpha Virtual:                                                        

       3B2    -0.040811     3B1    -0.040811     8A1     0.043760  
       9A1     0.146033     4B2     0.203671     4B1     0.203671  
      10A1     0.252903     1A2     0.252903    11A1     0.256429  
       5B2     0.362145     5B1     0.362145    12A1     0.639035  
       6B1     0.846372     6B2     0.846372    13A1     0.884104  
      14A1     1.302646     2A2     1.826072    15A1     1.826079  
       7B1     1.910892     7B2     1.910892    16A1     2.198024  

    Beta Occupied:                                                        

       1A1   -56.078593     2A1   -14.286003     3A1    -4.171215  
       1B2    -2.724547     1B1    -2.724547     4A1    -2.723651  
       5A1    -0.680774     2B2    -0.235476     2B1    -0.235476  

    Beta Virtual:                                                         

       6A1    -0.210427     7A1    -0.096099     3B2    -0.006635  
       3B1    -0.006635     8A1     0.067027     9A1     0.178483  
       4B2     0.225491     4B1     0.225491     1A2     0.273316  
      10A1     0.273316    11A1     0.313447     5B2     0.399970  
       5B1     0.399970    12A1     0.675965     6B1     0.864157  
       6B2     0.864157    13A1     0.957021    14A1     1.354902  
       2A2     1.843557    15A1     1.843563     7B1     1.980587  
       7B2     1.980587    16A1     2.268959  

    Final Occupation by Irrep:
             A1    A2    B1    B2 
    DOCC [     5,    0,    2,    2 ]
    SOCC [     2,    0,    0,    0 ]
    NA   [     7,    0,    2,    2 ]
    NB   [     5,    0,    2,    2 ]

  @DF-UKS Final Energy:  -296.96425219413220

   => Energetics <=

    Nuclear Repulsion Energy =             31.7231838379959541
    One-Electron Energy =                -474.1064067777248283
    Two-Electron Energy =                 166.0308398307996924
    DFT Exchange-Correlation Energy =     -20.6118690852029935
    Empirical Dispersion Energy =           0.0000000000000000
    VV10 Nonlocal Energy =                  0.0000000000000000
    Total Energy =                       -296.9642521941322002

  UHF NO Occupations:
  HONO-2 :    2 B1 1.9993380
  HONO-1 :    6 A1 1.0000000
  HONO-0 :    7 A1 1.0000000
  LUNO+0 :    3 B2 0.0006620
  LUNO+1 :    3 B1 0.0006620
  LUNO+2 :    8 A1 0.0006066
  LUNO+3 :    4 B1 0.0000007


Computation Completed


Properties will be evaluated at   0.000000,   0.000000,   0.000000 [a0]

Properties computed using the SCF density matrix


 Multipole Moments:

 ------------------------------------------------------------------------------------
     Multipole            Electronic (a.u.)      Nuclear  (a.u.)        Total (a.u.)
 ------------------------------------------------------------------------------------

 L = 1.  Multiply by 2.5417464519 to convert [e a0] to [Debye]
 Dipole X            :          0.0000000            0.0000000            0.0000000
 Dipole Y            :          0.0000000            0.0000000            0.0000000
 Dipole Z            :         -1.8506772            0.4780968           -1.3725804
 Magnitude           :                                                    1.3725804

 ------------------------------------------------------------------------------------

*** tstop() called on cics-quant-001 at Tue Dec 23 10:59:07 2025
Module time:
	user time   =       0.85 seconds =       0.01 minutes
	system time =       0.08 seconds =       0.00 minutes
	total time  =          0 seconds =       0.00 minutes
Total time:
	user time   =       4.07 seconds =       0.07 minutes
	system time =       0.66 seconds =       0.01 minutes
	total time  =          2 seconds =       0.03 minutes

*** tstart() called on cics-quant-001
*** at Tue Dec 23 10:59:07 2025


         ------------------------------------------------------------
                                   SCF GRAD                          
                          Rob Parrish, Justin Turney,                
                       Andy Simmonett, and Alex Sokolov              
         ------------------------------------------------------------

  ==> Geometry <==

    Molecular point group: c2v
    Full point group: C_inf_v

    Geometry (in Angstrom), charge = 0, multiplicity = 3:

       Center              X                  Y                   Z               Mass       
    ------------   -----------------  -----------------  -----------------  -----------------
         N            0.000000000000     0.000000000000     0.999336232334    14.003074004430
         AL           0.000000000000     0.000000000000    -0.518642745340    26.981538530000

  Nuclear repulsion =   31.723183837995954

  ==> Basis Set <==

  Basis Set: CC-PVDZ
    Blend: CC-PVDZ
    Number of shells: 14
    Number of basis functions: 32
    Number of Cartesian functions: 34
    Spherical Harmonics?: true
    Max angular momentum: 2

  ==> DFJKGrad: Density-Fitted SCF Gradients <==

    Gradient:                    1
    J tasked:                  Yes
    K tasked:                  Yes
    wK tasked:                  No
    OpenMP threads:              5
    Integrals threads:           5
    Memory [MiB]:             5722
    Schwarz Cutoff:          1E-12
    Fitting Condition:       1E-10

   => Auxiliary Basis Set <=

  Basis Set: (CC-PVDZ AUX)
    Blend: CC-PVDZ-JKFIT
    Number of shells: 60
    Number of basis functions: 182
    Number of Cartesian functions: 211
    Spherical Harmonics?: true
    Max angular momentum: 3

  ==> DFT Potential <==

   => LibXC <=

    Version 7.0.0
    S. Lehtola, C. Steigemann, M. J.T. Oliveira, and M. A.L. Marques.,  SoftwareX 7, 1–5 (2018) (10.1016/j.softx.2017.11.002)

   => Composite Functional: B3LYP <= 

    B3LYP Hyb-GGA Exchange-Correlation Functional

    P. J. Stephens, F. J. Devlin, C. F. Chabalowski, and M. J. Frisch.,  J. Phys. Chem. 98, 11623 (1994) (10.1021/j100096a001)

    Deriv               =              1
    GGA                 =           TRUE
    Meta                =          FALSE

    Exchange Hybrid     =           TRUE
    MP2 Hybrid          =          FALSE

   => Exchange Functionals <=

    0.0800   Slater exchange
    0.7200         Becke 88

   => Exact (HF) Exchange <=

    0.2000               HF 

   => Correlation Functionals <=

    0.1900   Vosko, Wilk & Nusair (VWN5_RPA)
    0.8100   Lee, Yang & Parr

   => LibXC Density Thresholds  <==

    XC_HYB_GGA_XC_B3LYP:  1.00E-15 

   => Molecular Quadrature <=

    Radial Scheme          =       TREUTLER
    Pruning Scheme         =           NONE
    Nuclear Scheme         =       TREUTLER

    Blocking Scheme        =         OCTREE
    BS radius alpha        =              1
    Pruning alpha          =              1
    Radial Points          =             75
    Spherical Points       =            302
    Total Points           =          43402
    Total Blocks           =            404
    Max Points             =            255
    Max Functions          =             32
    Weights Tolerance      =       1.00E-15


  -Total Gradient:
     Atom            X                  Y                   Z
    ------   -----------------  -----------------  -----------------
       1        0.000000000000     0.000000000000    -0.130590246097
       2        0.000000000000    -0.000000000000     0.130563301249


*** tstop() called on cics-quant-001 at Tue Dec 23 10:59:08 2025
Module time:
	user time   =       0.20 seconds =       0.00 minutes
	system time =       0.11 seconds =       0.00 minutes
	total time  =          1 seconds =       0.02 minutes
Total time:
	user time   =       4.27 seconds =       0.07 minutes
	system time =       0.77 seconds =       0.01 minutes
	total time  =          3 seconds =       0.05 minutes

    			-----------------------------------------

    			 OPTKING 3.0: for geometry optimizations 

    			     By R.A. King, Bethel University     

    			        with contributions from          

    			    A.V. Copan, J. Cayton, A. Heide      

    			-----------------------------------------

    
	                            ===> Fragment 1 <== 

	 Z (Atomic Numbers)          Masses                          Geom                  
	       7.000000            14.003074          0.00000000  0.00000000  1.88847179   
	      13.000000            26.981539          0.00000000  0.00000000 -0.98009275   

	 - Coordinate -           - BOHR/RAD -       - ANG/DEG -
	 R(1,2)           =         2.868565           1.517979


	        --- Internal Coordinate Step in ANG or DEG, aJ/ANG or AJ/DEG ---
	-------------------------------------------------------------------------------
	           Coordinate      Previous         Force          Change          New 
	           ----------      --------        ------          ------        ------
	               R(1,2)       1.51798        1.07579        0.06033       1.57831
	-------------------------------------------------------------------------------

	                                 ==> Convergence Check <==                                  
    
	Measures of convergence in internal coordinates in au.
    
	Criteria marked as inactive (o), active & met (*), and active & unmet ( ).

	----------------------------------------------------------------------------------------------
	   Step    Total Energy     Delta E     Max Force     RMS Force      Max Disp      RMS Disp   
	----------------------------------------------------------------------------------------------
	  Convergence Criteria     1.00e-06 *    3.00e-04 *             o    1.20e-03 *             o
	----------------------------------------------------------------------------------------------
	     4    -296.96425219   -2.42e-02      1.31e-01      1.31e-01 o    1.14e-01      1.14e-01 o  ~
	----------------------------------------------------------------------------------------------

Next Geometry in Ang 
	Fragment 1 (Ang)

	    N   0.0000000000   0.0000000000   1.0294993372
	   Al   0.0000000000   0.0000000000  -0.5488058502


    Structure for next step:
    Molecular point group: c2v
    Full point group: C_inf_v

    Geometry (in Angstrom), charge = 0, multiplicity = 3:

    N            0.000000000000     0.000000000000     1.039050989923
    AL           0.000000000000     0.000000000000    -0.539254197461


Scratch directory: /tmp/
gradient() will perform analytic gradient computation.
   => Libint2 <=

    Primary   basis highest AM E, G, H:  6, 6, 3
    Auxiliary basis highest AM E, G, H:  7, 7, 4
    Onebody   basis highest AM E, G, H:  -, -, -
    Solid Harmonics ordering:            Gaussian

*** tstart() called on cics-quant-001
*** at Tue Dec 23 10:59:08 2025

   => Loading Basis Set <=

    Name: CC-PVDZ
    Role: ORBITAL
    Keyword: BASIS
    atoms 1 entry N          line   168 file /home/jrodriguesro/psi4conda/share/psi4/basis/cc-pvdz.gbs 
    atoms 2 entry AL         line   418 file /home/jrodriguesro/psi4conda/share/psi4/basis/cc-pvdz.gbs 


         ---------------------------------------------------------
                                   SCF
               by Justin Turney, Rob Parrish, Andy Simmonett
                          and Daniel G. A. Smith
                              UKS Reference
                        5 Threads,   7629 MiB Core
         ---------------------------------------------------------

  ==> Geometry <==

    Molecular point group: c2v
    Full point group: C_inf_v

    Geometry (in Angstrom), charge = 0, multiplicity = 3:

       Center              X                  Y                   Z               Mass       
    ------------   -----------------  -----------------  -----------------  -----------------
         N            0.000000000000     0.000000000000     1.039050989923    14.003074004430
         AL           0.000000000000     0.000000000000    -0.539254197461    26.981538530000

  Running in c2v symmetry.

  Rotational constants: A = ************  B =      0.73408  C =      0.73408 [cm^-1]
  Rotational constants: A = ************  B =  22007.25983  C =  22007.25983 [MHz]
  Nuclear repulsion =   30.510655705809274

  Charge       = 0
  Multiplicity = 3
  Electrons    = 20
  Nalpha       = 11
  Nbeta        = 9

  ==> Algorithm <==

  SCF Algorithm Type is DF.
  DIIS enabled.
  MOM disabled.
  Fractional occupation disabled.
  Guess Type is READ.
  Energy threshold   = 1.00e-08
  Density threshold  = 1.00e-08
  Integral threshold = 1.00e-12

  ==> Primary Basis <==

  Basis Set: CC-PVDZ
    Blend: CC-PVDZ
    Number of shells: 14
    Number of basis functions: 32
    Number of Cartesian functions: 34
    Spherical Harmonics?: true
    Max angular momentum: 2

  ==> DFT Potential <==

   => LibXC <=

    Version 7.0.0
    S. Lehtola, C. Steigemann, M. J.T. Oliveira, and M. A.L. Marques.,  SoftwareX 7, 1–5 (2018) (10.1016/j.softx.2017.11.002)

   => Composite Functional: B3LYP <= 

    B3LYP Hyb-GGA Exchange-Correlation Functional

    P. J. Stephens, F. J. Devlin, C. F. Chabalowski, and M. J. Frisch.,  J. Phys. Chem. 98, 11623 (1994) (10.1021/j100096a001)

    Deriv               =              1
    GGA                 =           TRUE
    Meta                =          FALSE

    Exchange Hybrid     =           TRUE
    MP2 Hybrid          =          FALSE

   => Exchange Functionals <=

    0.0800   Slater exchange
    0.7200         Becke 88

   => Exact (HF) Exchange <=

    0.2000               HF 

   => Correlation Functionals <=

    0.1900   Vosko, Wilk & Nusair (VWN5_RPA)
    0.8100   Lee, Yang & Parr

   => LibXC Density Thresholds  <==

    XC_HYB_GGA_XC_B3LYP:  1.00E-15 

   => Molecular Quadrature <=

    Radial Scheme          =       TREUTLER
    Pruning Scheme         =           NONE
    Nuclear Scheme         =       TREUTLER

    Blocking Scheme        =         OCTREE
    BS radius alpha        =              1
    Pruning alpha          =              1
    Radial Points          =             75
    Spherical Points       =            302
    Total Points           =          43418
    Total Blocks           =            402
    Max Points             =            256
    Max Functions          =             32
    Weights Tolerance      =       1.00E-15

   => Loading Basis Set <=

    Name: (CC-PVDZ AUX)
    Role: JKFIT
    Keyword: DF_BASIS_SCF
    atoms 1 entry N          line   171 file /home/jrodriguesro/psi4conda/share/psi4/basis/cc-pvdz-jkfit.gbs 
    atoms 2 entry AL         line   371 file /home/jrodriguesro/psi4conda/share/psi4/basis/cc-pvdz-jkfit.gbs 

   => Loading Basis Set <=

    Name: CC-PVDZ
    Role: ORBITAL
    Keyword: BASIS
    atoms 1 entry N          line   168 file /home/jrodriguesro/psi4conda/share/psi4/basis/cc-pvdz.gbs 
    atoms 2 entry AL         line   418 file /home/jrodriguesro/psi4conda/share/psi4/basis/cc-pvdz.gbs 

  Reading orbitals from file /tmp/triplet_NAl.default.371576.180.npy, no projection.

  ==> Integral Setup <==

  DFHelper Memory: AOs need 0.002 GiB; user supplied 5.549 GiB. 
  SCF_SUBTYPE=INCORE selected. In-core MEM_DF algorithm will be used.
  Using in-core AOs.

  ==> MemDFJK: Density-Fitted J/K Matrices <==

    J tasked:                   Yes
    K tasked:                   Yes
    wK tasked:                   No
    OpenMP threads:               5
    Memory [MiB]:              5681
    Algorithm:                 Core
    Schwarz Cutoff:           1E-12
    Mask sparsity (%):       0.0000
    Fitting Condition:        1E-10

   => Auxiliary Basis Set <=

  Basis Set: (CC-PVDZ AUX)
    Blend: CC-PVDZ-JKFIT
    Number of shells: 60
    Number of basis functions: 182
    Number of Cartesian functions: 211
    Spherical Harmonics?: true
    Max angular momentum: 3

  Cached 100.0% of DFT collocation blocks in 0.039 [GiB].

  Minimum eigenvalue in the overlap matrix is 1.3102298748E-02.
  Reciprocal condition number of the overlap matrix is 4.3828452064E-03.
    Using symmetric orthogonalization.

  ==> Pre-Iterations <==

  SCF Guess: Orbitals guess was supplied from a previous computation.

   -------------------------------------------------------
    Irrep   Nso     Nmo     Nalpha   Nbeta   Ndocc  Nsocc
   -------------------------------------------------------
     A1        16      16       7       5       5       2
     A2         2       2       0       0       0       0
     B1         7       7       2       2       2       0
     B2         7       7       2       2       2       0
   -------------------------------------------------------
    Total      32      32      11       9       9       2
   -------------------------------------------------------

  ==> Iterations <==

                           Total Energy        Delta E     RMS |[F,P]|

   @DF-UKS iter   0:  -296.95689592787949   -2.96957e+02   7.65527e-03 
   @DF-UKS iter   1:  -296.97478669333191   -1.78908e-02   6.47355e-04 DIIS/ADIIS
   @DF-UKS iter   2:  -296.97420114158859    5.85552e-04   1.82410e-03 DIIS/ADIIS/DAMP=1%
   @DF-UKS iter   3:  -296.97423894581840   -3.78042e-05   9.93880e-05 DIIS/DAMP=1%
   @DF-UKS iter   4:  -296.97494335838724   -7.04413e-04   3.58132e-05 DIIS/DAMP=1%
   @DF-UKS iter   5:  -296.97489210574707    5.12526e-05   9.44278e-06 DIIS/DAMP=1%
   @DF-UKS iter   6:  -296.97491875397554   -2.66482e-05   4.17771e-06 DIIS/DAMP=1%
   @DF-UKS iter   7:  -296.97491495335134    3.80062e-06   9.87014e-07 DIIS/DAMP=1%
   @DF-UKS iter   8:  -296.97491580667514   -8.53324e-07   2.89059e-07 DIIS/DAMP=1%
   @DF-UKS iter   9:  -296.97491564733514    1.59340e-07   2.12414e-08 DIIS/DAMP=1%
   @DF-UKS iter  10:  -296.97491568350932   -3.61742e-08   4.22890e-09 DIIS/DAMP=1%
   @DF-UKS iter  11:  -296.97491569607746   -1.25681e-08   7.90387e-10 DIIS/DAMP=1%
   @DF-UKS iter  12:  -296.97491569373057    2.34689e-09   1.32074e-10 DIIS/DAMP=1%
  Energy and wave function converged.


  ==> Post-Iterations <==

   Electrons on quadrature grid:
      Nalpha   =   10.9999995465 ; deviation = -4.535e-07
      Nbeta    =    8.9999995950 ; deviation = -4.050e-07
      Ntotal   =   19.9999991415 ; deviation = -8.585e-07 

   @Spin Contamination Metric:   3.791969419E-03
   @S^2 Expected:                2.000000000E+00
   @S^2 Observed:                2.003791969E+00
   @S   Expected:                1.000000000E+00
   @S   Observed:                1.000000000E+00

    Orbital Energies [Eh]
    ---------------------

    Alpha Occupied:                                                       

       1A1   -56.097720     2A1   -14.314429     3A1    -4.187897  
       4A1    -2.742280     1B2    -2.738848     1B1    -2.738848  
       5A1    -0.736868     6A1    -0.374953     7A1    -0.274663  
       2B1    -0.253176     2B2    -0.253176  

    Alpha Virtual:                                                        

       3B2    -0.046289     3B1    -0.046289     8A1     0.040054  
       9A1     0.143928     4B2     0.201260     4B1     0.201260  
      10A1     0.250034     1A2     0.250034    11A1     0.253150  
       5B1     0.348713     5B2     0.348713    12A1     0.611095  
       6B1     0.846519     6B2     0.846519    13A1     0.858106  
      14A1     1.295470     2A2     1.826717    15A1     1.826724  
       7B2     1.904940     7B1     1.904940    16A1     2.197622  

    Beta Occupied:                                                        

       1A1   -56.092417     2A1   -14.293250     3A1    -4.179710  
       1B2    -2.733771     1B1    -2.733771     4A1    -2.731368  
       5A1    -0.674761     2B1    -0.229687     2B2    -0.229687  

    Beta Virtual:                                                         

       6A1    -0.216632     7A1    -0.098743     3B1    -0.011854  
       3B2    -0.011854     8A1     0.064218     9A1     0.175472  
       4B2     0.222249     4B1     0.222249    10A1     0.271078  
       1A2     0.271078    11A1     0.309670     5B1     0.386765  
       5B2     0.386765    12A1     0.646080     6B1     0.863718  
       6B2     0.863718    13A1     0.934715    14A1     1.344027  
       2A2     1.843660    15A1     1.843667     7B2     1.973707  
       7B1     1.973707    16A1     2.269566  

    Final Occupation by Irrep:
             A1    A2    B1    B2 
    DOCC [     5,    0,    2,    2 ]
    SOCC [     2,    0,    0,    0 ]
    NA   [     7,    0,    2,    2 ]
    NB   [     5,    0,    2,    2 ]

  @DF-UKS Final Energy:  -296.97491569373057

   => Energetics <=

    Nuclear Repulsion Energy =             30.5106557058092740
    One-Electron Energy =                -471.6434173867324375
    Two-Electron Energy =                 164.7395136150687733
    DFT Exchange-Correlation Energy =     -20.5816676278761221
    Empirical Dispersion Energy =           0.0000000000000000
    VV10 Nonlocal Energy =                  0.0000000000000000
    Total Energy =                       -296.9749156937305656

  UHF NO Occupations:
  HONO-2 :    2 B2 1.9993486
  HONO-1 :    6 A1 1.0000000
  HONO-0 :    7 A1 1.0000000
  LUNO+0 :    3 B2 0.0006514
  LUNO+1 :    3 B1 0.0006514
  LUNO+2 :    8 A1 0.0005919
  LUNO+3 :    4 B1 0.0000007


Computation Completed


Properties will be evaluated at   0.000000,   0.000000,   0.000000 [a0]

Properties computed using the SCF density matrix


 Multipole Moments:

 ------------------------------------------------------------------------------------
     Multipole            Electronic (a.u.)      Nuclear  (a.u.)        Total (a.u.)
 ------------------------------------------------------------------------------------

 L = 1.  Multiply by 2.5417464519 to convert [e a0] to [Debye]
 Dipole X            :          0.0000000            0.0000000            0.0000000
 Dipole Y            :          0.0000000            0.0000000            0.0000000
 Dipole Z            :         -1.9266997            0.4970969           -1.4296028
 Magnitude           :                                                    1.4296028

 ------------------------------------------------------------------------------------

*** tstop() called on cics-quant-001 at Tue Dec 23 10:59:08 2025
Module time:
	user time   =       0.98 seconds =       0.02 minutes
	system time =       0.12 seconds =       0.00 minutes
	total time  =          0 seconds =       0.00 minutes
Total time:
	user time   =       5.27 seconds =       0.09 minutes
	system time =       0.89 seconds =       0.01 minutes
	total time  =          3 seconds =       0.05 minutes

*** tstart() called on cics-quant-001
*** at Tue Dec 23 10:59:08 2025


         ------------------------------------------------------------
                                   SCF GRAD                          
                          Rob Parrish, Justin Turney,                
                       Andy Simmonett, and Alex Sokolov              
         ------------------------------------------------------------

  ==> Geometry <==

    Molecular point group: c2v
    Full point group: C_inf_v

    Geometry (in Angstrom), charge = 0, multiplicity = 3:

       Center              X                  Y                   Z               Mass       
    ------------   -----------------  -----------------  -----------------  -----------------
         N            0.000000000000     0.000000000000     1.039050989923    14.003074004430
         AL           0.000000000000     0.000000000000    -0.539254197461    26.981538530000

  Nuclear repulsion =   30.510655705809274

  ==> Basis Set <==

  Basis Set: CC-PVDZ
    Blend: CC-PVDZ
    Number of shells: 14
    Number of basis functions: 32
    Number of Cartesian functions: 34
    Spherical Harmonics?: true
    Max angular momentum: 2

  ==> DFJKGrad: Density-Fitted SCF Gradients <==

    Gradient:                    1
    J tasked:                  Yes
    K tasked:                  Yes
    wK tasked:                  No
    OpenMP threads:              5
    Integrals threads:           5
    Memory [MiB]:             5722
    Schwarz Cutoff:          1E-12
    Fitting Condition:       1E-10

   => Auxiliary Basis Set <=

  Basis Set: (CC-PVDZ AUX)
    Blend: CC-PVDZ-JKFIT
    Number of shells: 60
    Number of basis functions: 182
    Number of Cartesian functions: 211
    Spherical Harmonics?: true
    Max angular momentum: 3

  ==> DFT Potential <==

   => LibXC <=

    Version 7.0.0
    S. Lehtola, C. Steigemann, M. J.T. Oliveira, and M. A.L. Marques.,  SoftwareX 7, 1–5 (2018) (10.1016/j.softx.2017.11.002)

   => Composite Functional: B3LYP <= 

    B3LYP Hyb-GGA Exchange-Correlation Functional

    P. J. Stephens, F. J. Devlin, C. F. Chabalowski, and M. J. Frisch.,  J. Phys. Chem. 98, 11623 (1994) (10.1021/j100096a001)

    Deriv               =              1
    GGA                 =           TRUE
    Meta                =          FALSE

    Exchange Hybrid     =           TRUE
    MP2 Hybrid          =          FALSE

   => Exchange Functionals <=

    0.0800   Slater exchange
    0.7200         Becke 88

   => Exact (HF) Exchange <=

    0.2000               HF 

   => Correlation Functionals <=

    0.1900   Vosko, Wilk & Nusair (VWN5_RPA)
    0.8100   Lee, Yang & Parr

   => LibXC Density Thresholds  <==

    XC_HYB_GGA_XC_B3LYP:  1.00E-15 

   => Molecular Quadrature <=

    Radial Scheme          =       TREUTLER
    Pruning Scheme         =           NONE
    Nuclear Scheme         =       TREUTLER

    Blocking Scheme        =         OCTREE
    BS radius alpha        =              1
    Pruning alpha          =              1
    Radial Points          =             75
    Spherical Points       =            302
    Total Points           =          43418
    Total Blocks           =            402
    Max Points             =            256
    Max Functions          =             32
    Weights Tolerance      =       1.00E-15


  -Total Gradient:
     Atom            X                  Y                   Z
    ------   -----------------  -----------------  -----------------
       1        0.000000000000    -0.000000000000    -0.059836353410
       2        0.000000000000     0.000000000000     0.059781526531


*** tstop() called on cics-quant-001 at Tue Dec 23 10:59:08 2025
Module time:
	user time   =       0.19 seconds =       0.00 minutes
	system time =       0.11 seconds =       0.00 minutes
	total time  =          0 seconds =       0.00 minutes
Total time:
	user time   =       5.47 seconds =       0.09 minutes
	system time =       1.00 seconds =       0.02 minutes
	total time  =          3 seconds =       0.05 minutes

    			-----------------------------------------

    			 OPTKING 3.0: for geometry optimizations 

    			     By R.A. King, Bethel University     

    			        with contributions from          

    			    A.V. Copan, J. Cayton, A. Heide      

    			-----------------------------------------

    
	                            ===> Fragment 1 <== 

	 Z (Atomic Numbers)          Masses                          Geom                  
	       7.000000            14.003074          0.00000000  0.00000000  1.96352180   
	      13.000000            26.981539          0.00000000  0.00000000 -1.01904275   

	 - Coordinate -           - BOHR/RAD -       - ANG/DEG -
	 R(1,2)           =         2.982565           1.578305


	        --- Internal Coordinate Step in ANG or DEG, aJ/ANG or AJ/DEG ---
	-------------------------------------------------------------------------------
	           Coordinate      Previous         Force          Change          New 
	           ----------      --------        ------          ------        ------
	               R(1,2)       1.57831        0.49275        0.03131       1.60962
	-------------------------------------------------------------------------------

	                                 ==> Convergence Check <==                                  
    
	Measures of convergence in internal coordinates in au.
    
	Criteria marked as inactive (o), active & met (*), and active & unmet ( ).

	----------------------------------------------------------------------------------------------
	   Step    Total Energy     Delta E     Max Force     RMS Force      Max Disp      RMS Disp   
	----------------------------------------------------------------------------------------------
	  Convergence Criteria     1.00e-06 *    3.00e-04 *             o    1.20e-03 *             o
	----------------------------------------------------------------------------------------------
	     5    -296.97491569   -1.07e-02      5.98e-02      5.98e-02 o    5.92e-02      5.92e-02 o  ~
	----------------------------------------------------------------------------------------------

Next Geometry in Ang 
	Fragment 1 (Ang)

	    N   0.0000000000   0.0000000000   1.0547076276
	   Al   0.0000000000   0.0000000000  -0.5549108351


    Structure for next step:
    Molecular point group: c2v
    Full point group: C_inf_v

    Geometry (in Angstrom), charge = 0, multiplicity = 3:

    N            0.000000000000     0.000000000000     1.059665564362
    AL           0.000000000000     0.000000000000    -0.549952898394


Scratch directory: /tmp/
gradient() will perform analytic gradient computation.
   => Libint2 <=

    Primary   basis highest AM E, G, H:  6, 6, 3
    Auxiliary basis highest AM E, G, H:  7, 7, 4
    Onebody   basis highest AM E, G, H:  -, -, -
    Solid Harmonics ordering:            Gaussian

*** tstart() called on cics-quant-001
*** at Tue Dec 23 10:59:08 2025

   => Loading Basis Set <=

    Name: CC-PVDZ
    Role: ORBITAL
    Keyword: BASIS
    atoms 1 entry N          line   168 file /home/jrodriguesro/psi4conda/share/psi4/basis/cc-pvdz.gbs 
    atoms 2 entry AL         line   418 file /home/jrodriguesro/psi4conda/share/psi4/basis/cc-pvdz.gbs 


         ---------------------------------------------------------
                                   SCF
               by Justin Turney, Rob Parrish, Andy Simmonett
                          and Daniel G. A. Smith
                              UKS Reference
                        5 Threads,   7629 MiB Core
         ---------------------------------------------------------

  ==> Geometry <==

    Molecular point group: c2v
    Full point group: C_inf_v

    Geometry (in Angstrom), charge = 0, multiplicity = 3:

       Center              X                  Y                   Z               Mass       
    ------------   -----------------  -----------------  -----------------  -----------------
         N            0.000000000000     0.000000000000     1.059665564362    14.003074004430
         AL           0.000000000000     0.000000000000    -0.549952898394    26.981538530000

  Running in c2v symmetry.

  Rotational constants: A = ************  B =      0.70580  C =      0.70580 [cm^-1]
  Rotational constants: A = ************  B =  21159.33668  C =  21159.33668 [MHz]
  Nuclear repulsion =   29.917106000707861

  Charge       = 0
  Multiplicity = 3
  Electrons    = 20
  Nalpha       = 11
  Nbeta        = 9

  ==> Algorithm <==

  SCF Algorithm Type is DF.
  DIIS enabled.
  MOM disabled.
  Fractional occupation disabled.
  Guess Type is READ.
  Energy threshold   = 1.00e-08
  Density threshold  = 1.00e-08
  Integral threshold = 1.00e-12

  ==> Primary Basis <==

  Basis Set: CC-PVDZ
    Blend: CC-PVDZ
    Number of shells: 14
    Number of basis functions: 32
    Number of Cartesian functions: 34
    Spherical Harmonics?: true
    Max angular momentum: 2

  ==> DFT Potential <==

   => LibXC <=

    Version 7.0.0
    S. Lehtola, C. Steigemann, M. J.T. Oliveira, and M. A.L. Marques.,  SoftwareX 7, 1–5 (2018) (10.1016/j.softx.2017.11.002)

   => Composite Functional: B3LYP <= 

    B3LYP Hyb-GGA Exchange-Correlation Functional

    P. J. Stephens, F. J. Devlin, C. F. Chabalowski, and M. J. Frisch.,  J. Phys. Chem. 98, 11623 (1994) (10.1021/j100096a001)

    Deriv               =              1
    GGA                 =           TRUE
    Meta                =          FALSE

    Exchange Hybrid     =           TRUE
    MP2 Hybrid          =          FALSE

   => Exchange Functionals <=

    0.0800   Slater exchange
    0.7200         Becke 88

   => Exact (HF) Exchange <=

    0.2000               HF 

   => Correlation Functionals <=

    0.1900   Vosko, Wilk & Nusair (VWN5_RPA)
    0.8100   Lee, Yang & Parr

   => LibXC Density Thresholds  <==

    XC_HYB_GGA_XC_B3LYP:  1.00E-15 

   => Molecular Quadrature <=

    Radial Scheme          =       TREUTLER
    Pruning Scheme         =           NONE
    Nuclear Scheme         =       TREUTLER

    Blocking Scheme        =         OCTREE
    BS radius alpha        =              1
    Pruning alpha          =              1
    Radial Points          =             75
    Spherical Points       =            302
    Total Points           =          43432
    Total Blocks           =            402
    Max Points             =            256
    Max Functions          =             32
    Weights Tolerance      =       1.00E-15

   => Loading Basis Set <=

    Name: (CC-PVDZ AUX)
    Role: JKFIT
    Keyword: DF_BASIS_SCF
    atoms 1 entry N          line   171 file /home/jrodriguesro/psi4conda/share/psi4/basis/cc-pvdz-jkfit.gbs 
    atoms 2 entry AL         line   371 file /home/jrodriguesro/psi4conda/share/psi4/basis/cc-pvdz-jkfit.gbs 

   => Loading Basis Set <=

    Name: CC-PVDZ
    Role: ORBITAL
    Keyword: BASIS
    atoms 1 entry N          line   168 file /home/jrodriguesro/psi4conda/share/psi4/basis/cc-pvdz.gbs 
    atoms 2 entry AL         line   418 file /home/jrodriguesro/psi4conda/share/psi4/basis/cc-pvdz.gbs 

  Reading orbitals from file /tmp/triplet_NAl.default.371576.180.npy, no projection.

  ==> Integral Setup <==

  DFHelper Memory: AOs need 0.002 GiB; user supplied 5.549 GiB. 
  SCF_SUBTYPE=INCORE selected. In-core MEM_DF algorithm will be used.
  Using in-core AOs.

  ==> MemDFJK: Density-Fitted J/K Matrices <==

    J tasked:                   Yes
    K tasked:                   Yes
    wK tasked:                   No
    OpenMP threads:               5
    Memory [MiB]:              5681
    Algorithm:                 Core
    Schwarz Cutoff:           1E-12
    Mask sparsity (%):       0.0000
    Fitting Condition:        1E-10

   => Auxiliary Basis Set <=

  Basis Set: (CC-PVDZ AUX)
    Blend: CC-PVDZ-JKFIT
    Number of shells: 60
    Number of basis functions: 182
    Number of Cartesian functions: 211
    Spherical Harmonics?: true
    Max angular momentum: 3

  Cached 100.0% of DFT collocation blocks in 0.039 [GiB].

  Minimum eigenvalue in the overlap matrix is 1.4744904047E-02.
  Reciprocal condition number of the overlap matrix is 4.9505811644E-03.
    Using symmetric orthogonalization.

  ==> Pre-Iterations <==

  SCF Guess: Orbitals guess was supplied from a previous computation.

   -------------------------------------------------------
    Irrep   Nso     Nmo     Nalpha   Nbeta   Ndocc  Nsocc
   -------------------------------------------------------
     A1        16      16       7       5       5       2
     A2         2       2       0       0       0       0
     B1         7       7       2       2       2       0
     B2         7       7       2       2       2       0
   -------------------------------------------------------
    Total      32      32      11       9       9       2
   -------------------------------------------------------

  ==> Iterations <==

                           Total Energy        Delta E     RMS |[F,P]|

   @DF-UKS iter   0:  -296.96739712601504   -2.96967e+02   3.57383e-03 
   @DF-UKS iter   1:  -296.97747775564960   -1.00806e-02   5.33052e-04 DIIS/ADIIS
   @DF-UKS iter   2:  -296.97691856141455    5.59194e-04   1.73653e-03 DIIS/ADIIS/DAMP=1%
   @DF-UKS iter   3:  -296.97692027703840   -1.71562e-06   9.43272e-05 DIIS/DAMP=1%
   @DF-UKS iter   4:  -296.97752920465592   -6.08928e-04   1.26599e-05 DIIS/DAMP=1%
   @DF-UKS iter   5:  -296.97755049436910   -2.12897e-05   5.07285e-06 DIIS/DAMP=1%
   @DF-UKS iter   6:  -296.97756027875067   -9.78438e-06   2.46915e-06 DIIS/DAMP=1%
   @DF-UKS iter   7:  -296.97755827259027    2.00616e-06   7.65204e-07 DIIS/DAMP=1%
   @DF-UKS iter   8:  -296.97755889805120   -6.25461e-07   3.77663e-07 DIIS/DAMP=1%
   @DF-UKS iter   9:  -296.97755853538683    3.62664e-07   1.25576e-08 DIIS/DAMP=1%
   @DF-UKS iter  10:  -296.97755863476237   -9.93755e-08   9.46944e-09 DIIS/DAMP=1%
   @DF-UKS iter  11:  -296.97755864508275   -1.03204e-08   1.05431e-09 DIIS/DAMP=1%
   @DF-UKS iter  12:  -296.97755864038209    4.70067e-09   1.81278e-10 DIIS/DAMP=1%
  Energy and wave function converged.


  ==> Post-Iterations <==

   Electrons on quadrature grid:
      Nalpha   =   10.9999998840 ; deviation = -1.160e-07
      Nbeta    =    8.9999999656 ; deviation = -3.439e-08
      Ntotal   =   19.9999998496 ; deviation = -1.504e-07 

   @Spin Contamination Metric:   3.733879457E-03
   @S^2 Expected:                2.000000000E+00
   @S^2 Observed:                2.003733879E+00
   @S   Expected:                1.000000000E+00
   @S   Observed:                1.000000000E+00

    Orbital Energies [Eh]
    ---------------------

    Alpha Occupied:                                                       

       1A1   -56.104492     2A1   -14.317579     3A1    -4.192322  
       4A1    -2.746213     1B2    -2.743601     1B1    -2.743601  
       5A1    -0.733486     6A1    -0.375962     7A1    -0.275976  
       2B2    -0.250211     2B1    -0.250211  

    Alpha Virtual:                                                        

       3B2    -0.049159     3B1    -0.049159     8A1     0.037979  
       9A1     0.142802     4B1     0.200007     4B2     0.200007  
      10A1     0.248457     1A2     0.248457    11A1     0.251275  
       5B2     0.342014     5B1     0.342014    12A1     0.596725  
      13A1     0.846333     6B2     0.846441     6B1     0.846441  
      14A1     1.293388     2A2     1.827085    15A1     1.827090  
       7B2     1.901430     7B1     1.901430    16A1     2.195859  

    Beta Occupied:                                                        

       1A1   -56.099189     2A1   -14.296694     3A1    -4.184122  
       1B2    -2.738484     1B1    -2.738484     4A1    -2.735500  
       5A1    -0.671516     2B2    -0.226888     2B1    -0.226888  

    Beta Virtual:                                                         

       6A1    -0.219785     7A1    -0.099923     3B2    -0.014628  
       3B1    -0.014628     8A1     0.062761     9A1     0.173897  
       4B1     0.220618     4B2     0.220618    10A1     0.269867  
       1A2     0.269867    11A1     0.307448     5B2     0.380193  
       5B1     0.380193    12A1     0.631230     6B2     0.863280  
       6B1     0.863280    13A1     0.924308    14A1     1.340170  
       2A2     1.843638    15A1     1.843644     7B2     1.969633  
       7B1     1.969633    16A1     2.268092  

    Final Occupation by Irrep:
             A1    A2    B1    B2 
    DOCC [     5,    0,    2,    2 ]
    SOCC [     2,    0,    0,    0 ]
    NA   [     7,    0,    2,    2 ]
    NB   [     5,    0,    2,    2 ]

  @DF-UKS Final Energy:  -296.97755864038209

   => Energetics <=

    Nuclear Repulsion Energy =             29.9171060007078609
    One-Electron Energy =                -470.4313614687621339
    Two-Electron Energy =                 164.1039872335014991
    DFT Exchange-Correlation Energy =     -20.5672904058292829
    Empirical Dispersion Energy =           0.0000000000000000
    VV10 Nonlocal Energy =                  0.0000000000000000
    Total Energy =                       -296.9775586403820284

  UHF NO Occupations:
  HONO-2 :    2 B2 1.9993605
  HONO-1 :    6 A1 1.0000000
  HONO-0 :    7 A1 1.0000000
  LUNO+0 :    3 B2 0.0006395
  LUNO+1 :    3 B1 0.0006395
  LUNO+2 :    8 A1 0.0005867
  LUNO+3 :    4 B2 0.0000006


Computation Completed


Properties will be evaluated at   0.000000,   0.000000,   0.000000 [a0]

Properties computed using the SCF density matrix


 Multipole Moments:

 ------------------------------------------------------------------------------------
     Multipole            Electronic (a.u.)      Nuclear  (a.u.)        Total (a.u.)
 ------------------------------------------------------------------------------------

 L = 1.  Multiply by 2.5417464519 to convert [e a0] to [Debye]
 Dipole X            :          0.0000000            0.0000000            0.0000000
 Dipole Y            :          0.0000000            0.0000000            0.0000000
 Dipole Z            :         -1.9662888            0.5069592           -1.4593296
 Magnitude           :                                                    1.4593296

 ------------------------------------------------------------------------------------

*** tstop() called on cics-quant-001 at Tue Dec 23 10:59:09 2025
Module time:
	user time   =       0.80 seconds =       0.01 minutes
	system time =       0.09 seconds =       0.00 minutes
	total time  =          1 seconds =       0.02 minutes
Total time:
	user time   =       6.29 seconds =       0.10 minutes
	system time =       1.09 seconds =       0.02 minutes
	total time  =          4 seconds =       0.07 minutes

*** tstart() called on cics-quant-001
*** at Tue Dec 23 10:59:09 2025


         ------------------------------------------------------------
                                   SCF GRAD                          
                          Rob Parrish, Justin Turney,                
                       Andy Simmonett, and Alex Sokolov              
         ------------------------------------------------------------

  ==> Geometry <==

    Molecular point group: c2v
    Full point group: C_inf_v

    Geometry (in Angstrom), charge = 0, multiplicity = 3:

       Center              X                  Y                   Z               Mass       
    ------------   -----------------  -----------------  -----------------  -----------------
         N            0.000000000000     0.000000000000     1.059665564362    14.003074004430
         AL           0.000000000000     0.000000000000    -0.549952898394    26.981538530000

  Nuclear repulsion =   29.917106000707861

  ==> Basis Set <==

  Basis Set: CC-PVDZ
    Blend: CC-PVDZ
    Number of shells: 14
    Number of basis functions: 32
    Number of Cartesian functions: 34
    Spherical Harmonics?: true
    Max angular momentum: 2

  ==> DFJKGrad: Density-Fitted SCF Gradients <==

    Gradient:                    1
    J tasked:                  Yes
    K tasked:                  Yes
    wK tasked:                  No
    OpenMP threads:              5
    Integrals threads:           5
    Memory [MiB]:             5722
    Schwarz Cutoff:          1E-12
    Fitting Condition:       1E-10

   => Auxiliary Basis Set <=

  Basis Set: (CC-PVDZ AUX)
    Blend: CC-PVDZ-JKFIT
    Number of shells: 60
    Number of basis functions: 182
    Number of Cartesian functions: 211
    Spherical Harmonics?: true
    Max angular momentum: 3

  ==> DFT Potential <==

   => LibXC <=

    Version 7.0.0
    S. Lehtola, C. Steigemann, M. J.T. Oliveira, and M. A.L. Marques.,  SoftwareX 7, 1–5 (2018) (10.1016/j.softx.2017.11.002)

   => Composite Functional: B3LYP <= 

    B3LYP Hyb-GGA Exchange-Correlation Functional

    P. J. Stephens, F. J. Devlin, C. F. Chabalowski, and M. J. Frisch.,  J. Phys. Chem. 98, 11623 (1994) (10.1021/j100096a001)

    Deriv               =              1
    GGA                 =           TRUE
    Meta                =          FALSE

    Exchange Hybrid     =           TRUE
    MP2 Hybrid          =          FALSE

   => Exchange Functionals <=

    0.0800   Slater exchange
    0.7200         Becke 88

   => Exact (HF) Exchange <=

    0.2000               HF 

   => Correlation Functionals <=

    0.1900   Vosko, Wilk & Nusair (VWN5_RPA)
    0.8100   Lee, Yang & Parr

   => LibXC Density Thresholds  <==

    XC_HYB_GGA_XC_B3LYP:  1.00E-15 

   => Molecular Quadrature <=

    Radial Scheme          =       TREUTLER
    Pruning Scheme         =           NONE
    Nuclear Scheme         =       TREUTLER

    Blocking Scheme        =         OCTREE
    BS radius alpha        =              1
    Pruning alpha          =              1
    Radial Points          =             75
    Spherical Points       =            302
    Total Points           =          43432
    Total Blocks           =            402
    Max Points             =            256
    Max Functions          =             32
    Weights Tolerance      =       1.00E-15


  -Total Gradient:
     Atom            X                  Y                   Z
    ------   -----------------  -----------------  -----------------
       1       -0.000000000000     0.000000000000    -0.030246564986
       2        0.000000000000     0.000000000000     0.030210671102


*** tstop() called on cics-quant-001 at Tue Dec 23 10:59:09 2025
Module time:
	user time   =       0.21 seconds =       0.00 minutes
	system time =       0.12 seconds =       0.00 minutes
	total time  =          0 seconds =       0.00 minutes
Total time:
	user time   =       6.50 seconds =       0.11 minutes
	system time =       1.21 seconds =       0.02 minutes
	total time  =          4 seconds =       0.07 minutes

    			-----------------------------------------

    			 OPTKING 3.0: for geometry optimizations 

    			     By R.A. King, Bethel University     

    			        with contributions from          

    			    A.V. Copan, J. Cayton, A. Heide      

    			-----------------------------------------

    
	                            ===> Fragment 1 <== 

	 Z (Atomic Numbers)          Masses                          Geom                  
	       7.000000            14.003074          0.00000000  0.00000000  2.00247770   
	      13.000000            26.981539          0.00000000  0.00000000 -1.03926036   

	 - Coordinate -           - BOHR/RAD -       - ANG/DEG -
	 R(1,2)           =         3.041738           1.609618


	        --- Internal Coordinate Step in ANG or DEG, aJ/ANG or AJ/DEG ---
	-------------------------------------------------------------------------------
	           Coordinate      Previous         Force          Change          New 
	           ----------      --------        ------          ------        ------
	               R(1,2)       1.60962        0.24905        0.02308       1.63270
	-------------------------------------------------------------------------------

	                                 ==> Convergence Check <==                                  
    
	Measures of convergence in internal coordinates in au.
    
	Criteria marked as inactive (o), active & met (*), and active & unmet ( ).

	----------------------------------------------------------------------------------------------
	   Step    Total Energy     Delta E     Max Force     RMS Force      Max Disp      RMS Disp   
	----------------------------------------------------------------------------------------------
	  Convergence Criteria     1.00e-06 *    3.00e-04 *             o    1.20e-03 *             o
	----------------------------------------------------------------------------------------------
	     6    -296.97755864   -2.64e-03      3.02e-02      3.02e-02 o    4.36e-02      4.36e-02 o  ~
	----------------------------------------------------------------------------------------------

Next Geometry in Ang 
	Fragment 1 (Ang)

	    N   0.0000000000   0.0000000000   1.0712045101
	   Al   0.0000000000   0.0000000000  -0.5614918442


    Structure for next step:
    Molecular point group: c2v
    Full point group: C_inf_v

    Geometry (in Angstrom), charge = 0, multiplicity = 3:

    N            0.000000000000     0.000000000000     1.074858510717
    AL           0.000000000000     0.000000000000    -0.557837843573


Scratch directory: /tmp/
gradient() will perform analytic gradient computation.
   => Libint2 <=

    Primary   basis highest AM E, G, H:  6, 6, 3
    Auxiliary basis highest AM E, G, H:  7, 7, 4
    Onebody   basis highest AM E, G, H:  -, -, -
    Solid Harmonics ordering:            Gaussian

*** tstart() called on cics-quant-001
*** at Tue Dec 23 10:59:09 2025

   => Loading Basis Set <=

    Name: CC-PVDZ
    Role: ORBITAL
    Keyword: BASIS
    atoms 1 entry N          line   168 file /home/jrodriguesro/psi4conda/share/psi4/basis/cc-pvdz.gbs 
    atoms 2 entry AL         line   418 file /home/jrodriguesro/psi4conda/share/psi4/basis/cc-pvdz.gbs 


         ---------------------------------------------------------
                                   SCF
               by Justin Turney, Rob Parrish, Andy Simmonett
                          and Daniel G. A. Smith
                              UKS Reference
                        5 Threads,   7629 MiB Core
         ---------------------------------------------------------

  ==> Geometry <==

    Molecular point group: c2v
    Full point group: C_inf_v

    Geometry (in Angstrom), charge = 0, multiplicity = 3:

       Center              X                  Y                   Z               Mass       
    ------------   -----------------  -----------------  -----------------  -----------------
         N            0.000000000000     0.000000000000     1.074858510717    14.003074004430
         AL           0.000000000000     0.000000000000    -0.557837843573    26.981538530000

  Running in c2v symmetry.

  Rotational constants: A = ************  B =      0.68599  C =      0.68599 [cm^-1]
  Rotational constants: A = ************  B =  20565.39677  C =  20565.39677 [MHz]
  Nuclear repulsion =   29.494232681075641

  Charge       = 0
  Multiplicity = 3
  Electrons    = 20
  Nalpha       = 11
  Nbeta        = 9

  ==> Algorithm <==

  SCF Algorithm Type is DF.
  DIIS enabled.
  MOM disabled.
  Fractional occupation disabled.
  Guess Type is READ.
  Energy threshold   = 1.00e-08
  Density threshold  = 1.00e-08
  Integral threshold = 1.00e-12

  ==> Primary Basis <==

  Basis Set: CC-PVDZ
    Blend: CC-PVDZ
    Number of shells: 14
    Number of basis functions: 32
    Number of Cartesian functions: 34
    Spherical Harmonics?: true
    Max angular momentum: 2

  ==> DFT Potential <==

   => LibXC <=

    Version 7.0.0
    S. Lehtola, C. Steigemann, M. J.T. Oliveira, and M. A.L. Marques.,  SoftwareX 7, 1–5 (2018) (10.1016/j.softx.2017.11.002)

   => Composite Functional: B3LYP <= 

    B3LYP Hyb-GGA Exchange-Correlation Functional

    P. J. Stephens, F. J. Devlin, C. F. Chabalowski, and M. J. Frisch.,  J. Phys. Chem. 98, 11623 (1994) (10.1021/j100096a001)

    Deriv               =              1
    GGA                 =           TRUE
    Meta                =          FALSE

    Exchange Hybrid     =           TRUE
    MP2 Hybrid          =          FALSE

   => Exchange Functionals <=

    0.0800   Slater exchange
    0.7200         Becke 88

   => Exact (HF) Exchange <=

    0.2000               HF 

   => Correlation Functionals <=

    0.1900   Vosko, Wilk & Nusair (VWN5_RPA)
    0.8100   Lee, Yang & Parr

   => LibXC Density Thresholds  <==

    XC_HYB_GGA_XC_B3LYP:  1.00E-15 

   => Molecular Quadrature <=

    Radial Scheme          =       TREUTLER
    Pruning Scheme         =           NONE
    Nuclear Scheme         =       TREUTLER

    Blocking Scheme        =         OCTREE
    BS radius alpha        =              1
    Pruning alpha          =              1
    Radial Points          =             75
    Spherical Points       =            302
    Total Points           =          43428
    Total Blocks           =            401
    Max Points             =            254
    Max Functions          =             32
    Weights Tolerance      =       1.00E-15

   => Loading Basis Set <=

    Name: (CC-PVDZ AUX)
    Role: JKFIT
    Keyword: DF_BASIS_SCF
    atoms 1 entry N          line   171 file /home/jrodriguesro/psi4conda/share/psi4/basis/cc-pvdz-jkfit.gbs 
    atoms 2 entry AL         line   371 file /home/jrodriguesro/psi4conda/share/psi4/basis/cc-pvdz-jkfit.gbs 

   => Loading Basis Set <=

    Name: CC-PVDZ
    Role: ORBITAL
    Keyword: BASIS
    atoms 1 entry N          line   168 file /home/jrodriguesro/psi4conda/share/psi4/basis/cc-pvdz.gbs 
    atoms 2 entry AL         line   418 file /home/jrodriguesro/psi4conda/share/psi4/basis/cc-pvdz.gbs 

  Reading orbitals from file /tmp/triplet_NAl.default.371576.180.npy, no projection.

  ==> Integral Setup <==

  DFHelper Memory: AOs need 0.002 GiB; user supplied 5.549 GiB. 
  SCF_SUBTYPE=INCORE selected. In-core MEM_DF algorithm will be used.
  Using in-core AOs.

  ==> MemDFJK: Density-Fitted J/K Matrices <==

    J tasked:                   Yes
    K tasked:                   Yes
    wK tasked:                   No
    OpenMP threads:               5
    Memory [MiB]:              5682
    Algorithm:                 Core
    Schwarz Cutoff:           1E-12
    Mask sparsity (%):       0.0000
    Fitting Condition:        1E-10

   => Auxiliary Basis Set <=

  Basis Set: (CC-PVDZ AUX)
    Blend: CC-PVDZ-JKFIT
    Number of shells: 60
    Number of basis functions: 182
    Number of Cartesian functions: 211
    Spherical Harmonics?: true
    Max angular momentum: 3

  Cached 100.0% of DFT collocation blocks in 0.039 [GiB].

  Minimum eigenvalue in the overlap matrix is 1.6042747633E-02.
  Reciprocal condition number of the overlap matrix is 5.4017719923E-03.
    Using symmetric orthogonalization.

  ==> Pre-Iterations <==

  SCF Guess: Orbitals guess was supplied from a previous computation.

   -------------------------------------------------------
    Irrep   Nso     Nmo     Nalpha   Nbeta   Ndocc  Nsocc
   -------------------------------------------------------
     A1        16      16       7       5       5       2
     A2         2       2       0       0       0       0
     B1         7       7       2       2       2       0
     B2         7       7       2       2       2       0
   -------------------------------------------------------
    Total      32      32      11       9       9       2
   -------------------------------------------------------

  ==> Iterations <==

                           Total Energy        Delta E     RMS |[F,P]|

   @DF-UKS iter   0:  -296.97075201069214   -2.96971e+02   2.49288e-03 
    Occupation by irrep:
             A1    A2    B1    B2 
    DOCC [     6,    0,    1,    2 ]
    SOCC [     1,    0,    1,    0 ]
    NA   [     7,    0,    2,    2 ]
    NB   [     6,    0,    1,    2 ]

   @DF-UKS iter   1:  -296.97838840114645   -7.63639e-03   4.82408e-04 DIIS/ADIIS
   @DF-UKS iter   2:  -296.97549713709975    2.89126e-03   1.57407e-02 DIIS/ADIIS/DAMP=1%
   @DF-UKS iter   3:  -296.99361597941265   -1.81188e-02   1.33136e-02 DIIS/ADIIS/DAMP=1%
   @DF-UKS iter   4:  -297.02666417574358   -3.30482e-02   7.26527e-03 DIIS/ADIIS/DAMP=1%
   @DF-UKS iter   5:  -297.00651358885131    2.01506e-02   1.19117e-02 DIIS/ADIIS/DAMP=1%
   @DF-UKS iter   6:  -297.02050545467955   -1.39919e-02   9.04066e-03 DIIS/ADIIS/DAMP=1%
   @DF-UKS iter   7:  -297.02246436692002   -1.95891e-03   9.02585e-03 DIIS/ADIIS/DAMP=1%
   @DF-UKS iter   8:  -297.02274952293271   -2.85156e-04   8.96183e-03 DIIS/ADIIS/DAMP=1%
   @DF-UKS iter   9:  -297.02249525740308    2.54266e-04   9.02844e-03 DIIS/ADIIS/DAMP=1%
   @DF-UKS iter  10:  -297.02296267766974   -4.67420e-04   8.93961e-03 DIIS/ADIIS/DAMP=1%
   @DF-UKS iter  11:  -297.02284168834842    1.20989e-04   8.96981e-03 DIIS/ADIIS/DAMP=1%
   @DF-UKS iter  12:  -297.04394361960533   -2.11019e-02   4.76018e-04 DIIS/ADIIS/DAMP=1%
   @DF-UKS iter  13:  -297.04676368378819   -2.82006e-03   8.13842e-05 DIIS/DAMP=1%
   @DF-UKS iter  14:  -297.04694500732541   -1.81324e-04   2.86804e-05 DIIS/DAMP=1%
   @DF-UKS iter  15:  -297.04695483503059   -9.82771e-06   2.88751e-06 DIIS/DAMP=1%
   @DF-UKS iter  16:  -297.04696163979344   -6.80476e-06   1.36010e-06 DIIS/DAMP=1%
   @DF-UKS iter  17:  -297.04696050940930    1.13038e-06   1.15341e-07 DIIS/DAMP=1%
   @DF-UKS iter  18:  -297.04696092383750   -4.14428e-07   4.01186e-08 DIIS/DAMP=1%
   @DF-UKS iter  19:  -297.04696094226614   -1.84286e-08   3.90820e-09 DIIS/DAMP=1%
   @DF-UKS iter  20:  -297.04696094459314   -2.32700e-09   1.52607e-09 DIIS/DAMP=1%
  Energy and wave function converged.


  ==> Post-Iterations <==

   Electrons on quadrature grid:
      Nalpha   =   11.0000004288 ; deviation = 4.288e-07
      Nbeta    =    8.9999999414 ; deviation = -5.855e-08
      Ntotal   =   20.0000003703 ; deviation = 3.703e-07 

   @Spin Contamination Metric:   1.472037456E-02
   @S^2 Expected:                2.000000000E+00
   @S^2 Observed:                2.014720375E+00
   @S   Expected:                1.000000000E+00
   @S   Observed:                1.000000000E+00

    Orbital Energies [Eh]
    ---------------------

    Alpha Occupied:                                                       

       1A1   -56.062952     2A1   -14.346535     3A1    -4.153196  
       4A1    -2.706852     1B1    -2.706659     1B2    -2.703051  
       5A1    -0.780861     6A1    -0.364236     2B1    -0.323185  
       2B2    -0.274977     7A1    -0.249082  

    Alpha Virtual:                                                        

       3B1    -0.048194     3B2    -0.035279     8A1     0.038838  
       9A1     0.165119     4B1     0.211740     4B2     0.218334  
      10A1     0.259779     1A2     0.260520    11A1     0.269007  
       5B1     0.335522     5B2     0.352081    12A1     0.584818  
       6B1     0.789864     6B2     0.823330    13A1     0.831138  
      14A1     1.260222     2A2     1.764432    15A1     1.764495  
       7B1     1.853379     7B2     1.891327    16A1     2.177861  

    Beta Occupied:                                                        

       1A1   -56.061305     2A1   -14.317383     3A1    -4.151155  
       1B1    -2.704402     1B2    -2.702594     4A1    -2.701053  
       5A1    -0.684136     6A1    -0.285179     2B2    -0.242415  

    Beta Virtual:                                                         

       2B1    -0.147461     7A1    -0.135553     3B2    -0.019865  
       3B1    -0.003092     8A1     0.055229     9A1     0.178603  
       4B2     0.221428     4B1     0.221575     1A2     0.268832  
      10A1     0.269648    11A1     0.296943     5B2     0.368919  
       5B1     0.374820    12A1     0.610393     6B2     0.848116  
       6B1     0.869857    13A1     0.892734    14A1     1.316668  
       2A2     1.834764    15A1     1.841117     7B2     1.942329  
       7B1     1.954823    16A1     2.244934  

    Final Occupation by Irrep:
             A1    A2    B1    B2 
    DOCC [     6,    0,    1,    2 ]
    SOCC [     1,    0,    1,    0 ]
    NA   [     7,    0,    2,    2 ]
    NB   [     6,    0,    1,    2 ]

  @DF-UKS Final Energy:  -297.04696094459314

   => Energetics <=

    Nuclear Repulsion Energy =             29.4942326810756406
    One-Electron Energy =                -469.8448253895705875
    Two-Electron Energy =                 163.8833472646340113
    DFT Exchange-Correlation Energy =     -20.5797155007322274
    Empirical Dispersion Energy =           0.0000000000000000
    VV10 Nonlocal Energy =                  0.0000000000000000
    Total Energy =                       -297.0469609445931951

  UHF NO Occupations:
  HONO-2 :    2 B2 1.9961575
  HONO-1 :    7 A1 1.0000000
  HONO-0 :    2 B1 1.0000000
  LUNO+0 :    3 B2 0.0038425
  LUNO+1 :    8 A1 0.0029079
  LUNO+2 :    9 A1 0.0006211
  LUNO+3 :   10 A1 0.0000002


Computation Completed


Properties will be evaluated at   0.000000,   0.000000,   0.000000 [a0]

Properties computed using the SCF density matrix


 Multipole Moments:

 ------------------------------------------------------------------------------------
     Multipole            Electronic (a.u.)      Nuclear  (a.u.)        Total (a.u.)
 ------------------------------------------------------------------------------------

 L = 1.  Multiply by 2.5417464519 to convert [e a0] to [Debye]
 Dipole X            :          0.0000000            0.0000000            0.0000000
 Dipole Y            :          0.0000000            0.0000000            0.0000000
 Dipole Z            :         -1.3709996            0.5142278           -0.8567719
 Magnitude           :                                                    0.8567719

 ------------------------------------------------------------------------------------

*** tstop() called on cics-quant-001 at Tue Dec 23 10:59:09 2025
Module time:
	user time   =       1.30 seconds =       0.02 minutes
	system time =       0.10 seconds =       0.00 minutes
	total time  =          0 seconds =       0.00 minutes
Total time:
	user time   =       7.82 seconds =       0.13 minutes
	system time =       1.31 seconds =       0.02 minutes
	total time  =          4 seconds =       0.07 minutes

*** tstart() called on cics-quant-001
*** at Tue Dec 23 10:59:09 2025


         ------------------------------------------------------------
                                   SCF GRAD                          
                          Rob Parrish, Justin Turney,                
                       Andy Simmonett, and Alex Sokolov              
         ------------------------------------------------------------

  ==> Geometry <==

    Molecular point group: c2v
    Full point group: C_inf_v

    Geometry (in Angstrom), charge = 0, multiplicity = 3:

       Center              X                  Y                   Z               Mass       
    ------------   -----------------  -----------------  -----------------  -----------------
         N            0.000000000000     0.000000000000     1.074858510717    14.003074004430
         AL           0.000000000000     0.000000000000    -0.557837843573    26.981538530000

  Nuclear repulsion =   29.494232681075641

  ==> Basis Set <==

  Basis Set: CC-PVDZ
    Blend: CC-PVDZ
    Number of shells: 14
    Number of basis functions: 32
    Number of Cartesian functions: 34
    Spherical Harmonics?: true
    Max angular momentum: 2

  ==> DFJKGrad: Density-Fitted SCF Gradients <==

    Gradient:                    1
    J tasked:                  Yes
    K tasked:                  Yes
    wK tasked:                  No
    OpenMP threads:              5
    Integrals threads:           5
    Memory [MiB]:             5722
    Schwarz Cutoff:          1E-12
    Fitting Condition:       1E-10

   => Auxiliary Basis Set <=

  Basis Set: (CC-PVDZ AUX)
    Blend: CC-PVDZ-JKFIT
    Number of shells: 60
    Number of basis functions: 182
    Number of Cartesian functions: 211
    Spherical Harmonics?: true
    Max angular momentum: 3

  ==> DFT Potential <==

   => LibXC <=

    Version 7.0.0
    S. Lehtola, C. Steigemann, M. J.T. Oliveira, and M. A.L. Marques.,  SoftwareX 7, 1–5 (2018) (10.1016/j.softx.2017.11.002)

   => Composite Functional: B3LYP <= 

    B3LYP Hyb-GGA Exchange-Correlation Functional

    P. J. Stephens, F. J. Devlin, C. F. Chabalowski, and M. J. Frisch.,  J. Phys. Chem. 98, 11623 (1994) (10.1021/j100096a001)

    Deriv               =              1
    GGA                 =           TRUE
    Meta                =          FALSE

    Exchange Hybrid     =           TRUE
    MP2 Hybrid          =          FALSE

   => Exchange Functionals <=

    0.0800   Slater exchange
    0.7200         Becke 88

   => Exact (HF) Exchange <=

    0.2000               HF 

   => Correlation Functionals <=

    0.1900   Vosko, Wilk & Nusair (VWN5_RPA)
    0.8100   Lee, Yang & Parr

   => LibXC Density Thresholds  <==

    XC_HYB_GGA_XC_B3LYP:  1.00E-15 

   => Molecular Quadrature <=

    Radial Scheme          =       TREUTLER
    Pruning Scheme         =           NONE
    Nuclear Scheme         =       TREUTLER

    Blocking Scheme        =         OCTREE
    BS radius alpha        =              1
    Pruning alpha          =              1
    Radial Points          =             75
    Spherical Points       =            302
    Total Points           =          43428
    Total Blocks           =            401
    Max Points             =            254
    Max Functions          =             32
    Weights Tolerance      =       1.00E-15


  -Total Gradient:
     Atom            X                  Y                   Z
    ------   -----------------  -----------------  -----------------
       1       -0.000000000000     0.000000000000    -0.105953733005
       2        0.000000000000     0.000000000000     0.105934712090


*** tstop() called on cics-quant-001 at Tue Dec 23 10:59:09 2025
Module time:
	user time   =       0.23 seconds =       0.00 minutes
	system time =       0.12 seconds =       0.00 minutes
	total time  =          0 seconds =       0.00 minutes
Total time:
	user time   =       8.05 seconds =       0.13 minutes
	system time =       1.43 seconds =       0.02 minutes
	total time  =          4 seconds =       0.07 minutes

    			-----------------------------------------

    			 OPTKING 3.0: for geometry optimizations 

    			     By R.A. King, Bethel University     

    			        with contributions from          

    			    A.V. Copan, J. Cayton, A. Heide      

    			-----------------------------------------

    
	                            ===> Fragment 1 <== 

	 Z (Atomic Numbers)          Masses                          Geom                  
	       7.000000            14.003074          0.00000000  0.00000000  2.03118821   
	      13.000000            26.981539          0.00000000  0.00000000 -1.05416075   

	 - Coordinate -           - BOHR/RAD -       - ANG/DEG -
	 R(1,2)           =         3.085349           1.632696


	        --- Internal Coordinate Step in ANG or DEG, aJ/ANG or AJ/DEG ---
	-------------------------------------------------------------------------------
	           Coordinate      Previous         Force          Change          New 
	           ----------      --------        ------          ------        ------
	               R(1,2)       1.63270        0.87285        0.13499       1.76769
	-------------------------------------------------------------------------------

	                                 ==> Convergence Check <==                                  
    
	Measures of convergence in internal coordinates in au.
    
	Criteria marked as inactive (o), active & met (*), and active & unmet ( ).

	----------------------------------------------------------------------------------------------
	   Step    Total Energy     Delta E     Max Force     RMS Force      Max Disp      RMS Disp   
	----------------------------------------------------------------------------------------------
	  Convergence Criteria     1.00e-06 *    3.00e-04 *             o    1.20e-03 *             o
	----------------------------------------------------------------------------------------------
	     7    -297.04696094   -6.94e-02      1.06e-01      1.06e-01 o    2.55e-01      2.55e-01 o  ~
	----------------------------------------------------------------------------------------------

Next Geometry in Ang 
	Fragment 1 (Ang)

	    N   0.0000000000   0.0000000000   1.1423540970
	   Al   0.0000000000   0.0000000000  -0.6253334299


    Structure for next step:
    Molecular point group: c2v
    Full point group: C_inf_v

    Geometry (in Angstrom), charge = 0, multiplicity = 3:

    N            0.000000000000     0.000000000000     1.163727705773
    AL           0.000000000000     0.000000000000    -0.603959821150


Scratch directory: /tmp/
gradient() will perform analytic gradient computation.
   => Libint2 <=

    Primary   basis highest AM E, G, H:  6, 6, 3
    Auxiliary basis highest AM E, G, H:  7, 7, 4
    Onebody   basis highest AM E, G, H:  -, -, -
    Solid Harmonics ordering:            Gaussian

*** tstart() called on cics-quant-001
*** at Tue Dec 23 10:59:10 2025

   => Loading Basis Set <=

    Name: CC-PVDZ
    Role: ORBITAL
    Keyword: BASIS
    atoms 1 entry N          line   168 file /home/jrodriguesro/psi4conda/share/psi4/basis/cc-pvdz.gbs 
    atoms 2 entry AL         line   418 file /home/jrodriguesro/psi4conda/share/psi4/basis/cc-pvdz.gbs 


         ---------------------------------------------------------
                                   SCF
               by Justin Turney, Rob Parrish, Andy Simmonett
                          and Daniel G. A. Smith
                              UKS Reference
                        5 Threads,   7629 MiB Core
         ---------------------------------------------------------

  ==> Geometry <==

    Molecular point group: c2v
    Full point group: C_inf_v

    Geometry (in Angstrom), charge = 0, multiplicity = 3:

       Center              X                  Y                   Z               Mass       
    ------------   -----------------  -----------------  -----------------  -----------------
         N            0.000000000000     0.000000000000     1.163727705773    14.003074004430
         AL           0.000000000000     0.000000000000    -0.603959821150    26.981538530000

  Running in c2v symmetry.

  Rotational constants: A = ************  B =      0.58522  C =      0.58522 [cm^-1]
  Rotational constants: A = ************  B =  17544.33631  C =  17544.33631 [MHz]
  Nuclear repulsion =   27.241876993268942

  Charge       = 0
  Multiplicity = 3
  Electrons    = 20
  Nalpha       = 11
  Nbeta        = 9

  ==> Algorithm <==

  SCF Algorithm Type is DF.
  DIIS enabled.
  MOM disabled.
  Fractional occupation disabled.
  Guess Type is READ.
  Energy threshold   = 1.00e-08
  Density threshold  = 1.00e-08
  Integral threshold = 1.00e-12

  ==> Primary Basis <==

  Basis Set: CC-PVDZ
    Blend: CC-PVDZ
    Number of shells: 14
    Number of basis functions: 32
    Number of Cartesian functions: 34
    Spherical Harmonics?: true
    Max angular momentum: 2

  ==> DFT Potential <==

   => LibXC <=

    Version 7.0.0
    S. Lehtola, C. Steigemann, M. J.T. Oliveira, and M. A.L. Marques.,  SoftwareX 7, 1–5 (2018) (10.1016/j.softx.2017.11.002)

   => Composite Functional: B3LYP <= 

    B3LYP Hyb-GGA Exchange-Correlation Functional

    P. J. Stephens, F. J. Devlin, C. F. Chabalowski, and M. J. Frisch.,  J. Phys. Chem. 98, 11623 (1994) (10.1021/j100096a001)

    Deriv               =              1
    GGA                 =           TRUE
    Meta                =          FALSE

    Exchange Hybrid     =           TRUE
    MP2 Hybrid          =          FALSE

   => Exchange Functionals <=

    0.0800   Slater exchange
    0.7200         Becke 88

   => Exact (HF) Exchange <=

    0.2000               HF 

   => Correlation Functionals <=

    0.1900   Vosko, Wilk & Nusair (VWN5_RPA)
    0.8100   Lee, Yang & Parr

   => LibXC Density Thresholds  <==

    XC_HYB_GGA_XC_B3LYP:  1.00E-15 

   => Molecular Quadrature <=

    Radial Scheme          =       TREUTLER
    Pruning Scheme         =           NONE
    Nuclear Scheme         =       TREUTLER

    Blocking Scheme        =         OCTREE
    BS radius alpha        =              1
    Pruning alpha          =              1
    Radial Points          =             75
    Spherical Points       =            302
    Total Points           =          43462
    Total Blocks           =            405
    Max Points             =            253
    Max Functions          =             32
    Weights Tolerance      =       1.00E-15

   => Loading Basis Set <=

    Name: (CC-PVDZ AUX)
    Role: JKFIT
    Keyword: DF_BASIS_SCF
    atoms 1 entry N          line   171 file /home/jrodriguesro/psi4conda/share/psi4/basis/cc-pvdz-jkfit.gbs 
    atoms 2 entry AL         line   371 file /home/jrodriguesro/psi4conda/share/psi4/basis/cc-pvdz-jkfit.gbs 

   => Loading Basis Set <=

    Name: CC-PVDZ
    Role: ORBITAL
    Keyword: BASIS
    atoms 1 entry N          line   168 file /home/jrodriguesro/psi4conda/share/psi4/basis/cc-pvdz.gbs 
    atoms 2 entry AL         line   418 file /home/jrodriguesro/psi4conda/share/psi4/basis/cc-pvdz.gbs 

  Reading orbitals from file /tmp/triplet_NAl.default.371576.180.npy, no projection.

  ==> Integral Setup <==

  DFHelper Memory: AOs need 0.002 GiB; user supplied 5.549 GiB. 
  SCF_SUBTYPE=INCORE selected. In-core MEM_DF algorithm will be used.
  Using in-core AOs.

  ==> MemDFJK: Density-Fitted J/K Matrices <==

    J tasked:                   Yes
    K tasked:                   Yes
    wK tasked:                   No
    OpenMP threads:               5
    Memory [MiB]:              5682
    Algorithm:                 Core
    Schwarz Cutoff:           1E-12
    Mask sparsity (%):       0.0000
    Fitting Condition:        1E-10

   => Auxiliary Basis Set <=

  Basis Set: (CC-PVDZ AUX)
    Blend: CC-PVDZ-JKFIT
    Number of shells: 60
    Number of basis functions: 182
    Number of Cartesian functions: 211
    Spherical Harmonics?: true
    Max angular momentum: 3

  Cached 100.0% of DFT collocation blocks in 0.039 [GiB].

  Minimum eigenvalue in the overlap matrix is 2.5022873504E-02.
  Reciprocal condition number of the overlap matrix is 8.5879700673E-03.
    Using symmetric orthogonalization.

  ==> Pre-Iterations <==

  SCF Guess: Orbitals guess was supplied from a previous computation.

   -------------------------------------------------------
    Irrep   Nso     Nmo     Nalpha   Nbeta   Ndocc  Nsocc
   -------------------------------------------------------
     A1        16      16       7       6       6       1
     A2         2       2       0       0       0       0
     B1         7       7       2       1       1       1
     B2         7       7       2       2       2       0
   -------------------------------------------------------
    Total      32      32      11       9       9       2
   -------------------------------------------------------

  ==> Iterations <==

                           Total Energy        Delta E     RMS |[F,P]|

   @DF-UKS iter   0:  -297.03315141605299   -2.97033e+02   1.34927e-02 
   @DF-UKS iter   1:  -297.06134277619697   -2.81914e-02   1.10442e-03 DIIS/ADIIS
   @DF-UKS iter   2:  -297.05922364155043    2.11913e-03   3.39733e-03 DIIS/ADIIS/DAMP=1%
   @DF-UKS iter   3:  -297.06080429053799   -1.58065e-03   3.32604e-04 DIIS/ADIIS/DAMP=1%
   @DF-UKS iter   4:  -297.06185873854304   -1.05445e-03   1.36761e-04 DIIS/ADIIS/DAMP=1%
   @DF-UKS iter   5:  -297.06197278506835   -1.14047e-04   2.74736e-05 DIIS/DAMP=1%
   @DF-UKS iter   6:  -297.06199135270538   -1.85676e-05   1.22802e-05 DIIS/DAMP=1%
   @DF-UKS iter   7:  -297.06198880774735    2.54496e-06   2.85436e-06 DIIS/DAMP=1%
   @DF-UKS iter   8:  -297.06198969170975   -8.83962e-07   9.29192e-07 DIIS/DAMP=1%
   @DF-UKS iter   9:  -297.06198934350192    3.48208e-07   3.28146e-07 DIIS/DAMP=1%
   @DF-UKS iter  10:  -297.06198956328507   -2.19783e-07   6.75727e-08 DIIS/DAMP=1%
   @DF-UKS iter  11:  -297.06198957633376   -1.30487e-08   1.56762e-08 DIIS/DAMP=1%
   @DF-UKS iter  12:  -297.06198953707946    3.92543e-08   6.67120e-10 DIIS/DAMP=1%
   @DF-UKS iter  13:  -297.06198954337611   -6.29666e-09   1.61745e-10 DIIS/DAMP=1%
  Energy and wave function converged.


  ==> Post-Iterations <==

   Electrons on quadrature grid:
      Nalpha   =   11.0000028435 ; deviation = 2.843e-06
      Nbeta    =    9.0000009933 ; deviation = 9.933e-07
      Ntotal   =   20.0000038367 ; deviation = 3.837e-06 

   @Spin Contamination Metric:   2.204251552E-02
   @S^2 Expected:                2.000000000E+00
   @S^2 Observed:                2.022042516E+00
   @S   Expected:                1.000000000E+00
   @S   Observed:                1.000000000E+00

    Orbital Energies [Eh]
    ---------------------

    Alpha Occupied:                                                       

       1A1   -56.077625     2A1   -14.355164     3A1    -4.160875  
       1B1    -2.714861     4A1    -2.713377     1B2    -2.711660  
       5A1    -0.765734     6A1    -0.366984     2B1    -0.311649  
       2B2    -0.264091     7A1    -0.252238  

    Alpha Virtual:                                                        

       3B1    -0.055481     3B2    -0.043163     8A1     0.032826  
       9A1     0.163398     4B1     0.211283     4B2     0.217359  
      10A1     0.258440     1A2     0.261473    11A1     0.263439  
       5B1     0.316423     5B2     0.331479    12A1     0.524542  
       6B1     0.787185    13A1     0.800303     6B2     0.820268  
      14A1     1.254040    15A1     1.765766     2A2     1.765873  
       7B1     1.832244     7B2     1.869640    16A1     2.141094  

    Beta Occupied:                                                        

       1A1   -56.076380     2A1   -14.324410     3A1    -4.159372  
       1B1    -2.713238     1B2    -2.711604     4A1    -2.708681  
       5A1    -0.663588     6A1    -0.291661     2B2    -0.227772  

    Beta Virtual:                                                         

       2B1    -0.135639     7A1    -0.132891     3B2    -0.029670  
       3B1    -0.010162     8A1     0.050341     9A1     0.174741  
       4B2     0.217833     4B1     0.218324     1A2     0.266243  
      10A1     0.266970    11A1     0.287782     5B2     0.346682  
       5B1     0.352852    12A1     0.550925     6B2     0.847250  
      13A1     0.867837     6B1     0.869547    14A1     1.312543  
       2A2     1.839142    15A1     1.845452     7B2     1.926425  
       7B1     1.940587    16A1     2.215243  

    Final Occupation by Irrep:
             A1    A2    B1    B2 
    DOCC [     6,    0,    1,    2 ]
    SOCC [     1,    0,    1,    0 ]
    NA   [     7,    0,    2,    2 ]
    NB   [     6,    0,    1,    2 ]

  @DF-UKS Final Energy:  -297.06198954337611

   => Energetics <=

    Nuclear Repulsion Energy =             27.2418769932689422
    One-Electron Energy =                -465.3483725337331407
    Two-Electron Energy =                 161.5835282484003983
    DFT Exchange-Correlation Energy =     -20.5390222513123106
    Empirical Dispersion Energy =           0.0000000000000000
    VV10 Nonlocal Energy =                  0.0000000000000000
    Total Energy =                       -297.0619895433761144

  UHF NO Occupations:
  HONO-2 :    2 B2 1.9932036
  HONO-1 :    2 B1 1.0000000
  HONO-0 :    7 A1 1.0000000
  LUNO+0 :    3 B2 0.0067964
  LUNO+1 :    8 A1 0.0035995
  LUNO+2 :    9 A1 0.0006547
  LUNO+3 :   10 A1 0.0000002


Computation Completed


Properties will be evaluated at   0.000000,   0.000000,   0.000000 [a0]

Properties computed using the SCF density matrix


 Multipole Moments:

 ------------------------------------------------------------------------------------
     Multipole            Electronic (a.u.)      Nuclear  (a.u.)        Total (a.u.)
 ------------------------------------------------------------------------------------

 L = 1.  Multiply by 2.5417464519 to convert [e a0] to [Debye]
 Dipole X            :          0.0000000            0.0000000            0.0000000
 Dipole Y            :          0.0000000            0.0000000            0.0000000
 Dipole Z            :         -1.4477765            0.5567441           -0.8910325
 Magnitude           :                                                    0.8910325

 ------------------------------------------------------------------------------------

*** tstop() called on cics-quant-001 at Tue Dec 23 10:59:10 2025
Module time:
	user time   =       1.10 seconds =       0.02 minutes
	system time =       0.09 seconds =       0.00 minutes
	total time  =          0 seconds =       0.00 minutes
Total time:
	user time   =       9.17 seconds =       0.15 minutes
	system time =       1.52 seconds =       0.03 minutes
	total time  =          5 seconds =       0.08 minutes

*** tstart() called on cics-quant-001
*** at Tue Dec 23 10:59:10 2025


         ------------------------------------------------------------
                                   SCF GRAD                          
                          Rob Parrish, Justin Turney,                
                       Andy Simmonett, and Alex Sokolov              
         ------------------------------------------------------------

  ==> Geometry <==

    Molecular point group: c2v
    Full point group: C_inf_v

    Geometry (in Angstrom), charge = 0, multiplicity = 3:

       Center              X                  Y                   Z               Mass       
    ------------   -----------------  -----------------  -----------------  -----------------
         N            0.000000000000     0.000000000000     1.163727705773    14.003074004430
         AL           0.000000000000     0.000000000000    -0.603959821150    26.981538530000

  Nuclear repulsion =   27.241876993268942

  ==> Basis Set <==

  Basis Set: CC-PVDZ
    Blend: CC-PVDZ
    Number of shells: 14
    Number of basis functions: 32
    Number of Cartesian functions: 34
    Spherical Harmonics?: true
    Max angular momentum: 2

  ==> DFJKGrad: Density-Fitted SCF Gradients <==

    Gradient:                    1
    J tasked:                  Yes
    K tasked:                  Yes
    wK tasked:                  No
    OpenMP threads:              5
    Integrals threads:           5
    Memory [MiB]:             5722
    Schwarz Cutoff:          1E-12
    Fitting Condition:       1E-10

   => Auxiliary Basis Set <=

  Basis Set: (CC-PVDZ AUX)
    Blend: CC-PVDZ-JKFIT
    Number of shells: 60
    Number of basis functions: 182
    Number of Cartesian functions: 211
    Spherical Harmonics?: true
    Max angular momentum: 3

  ==> DFT Potential <==

   => LibXC <=

    Version 7.0.0
    S. Lehtola, C. Steigemann, M. J.T. Oliveira, and M. A.L. Marques.,  SoftwareX 7, 1–5 (2018) (10.1016/j.softx.2017.11.002)

   => Composite Functional: B3LYP <= 

    B3LYP Hyb-GGA Exchange-Correlation Functional

    P. J. Stephens, F. J. Devlin, C. F. Chabalowski, and M. J. Frisch.,  J. Phys. Chem. 98, 11623 (1994) (10.1021/j100096a001)

    Deriv               =              1
    GGA                 =           TRUE
    Meta                =          FALSE

    Exchange Hybrid     =           TRUE
    MP2 Hybrid          =          FALSE

   => Exchange Functionals <=

    0.0800   Slater exchange
    0.7200         Becke 88

   => Exact (HF) Exchange <=

    0.2000               HF 

   => Correlation Functionals <=

    0.1900   Vosko, Wilk & Nusair (VWN5_RPA)
    0.8100   Lee, Yang & Parr

   => LibXC Density Thresholds  <==

    XC_HYB_GGA_XC_B3LYP:  1.00E-15 

   => Molecular Quadrature <=

    Radial Scheme          =       TREUTLER
    Pruning Scheme         =           NONE
    Nuclear Scheme         =       TREUTLER

    Blocking Scheme        =         OCTREE
    BS radius alpha        =              1
    Pruning alpha          =              1
    Radial Points          =             75
    Spherical Points       =            302
    Total Points           =          43462
    Total Blocks           =            405
    Max Points             =            253
    Max Functions          =             32
    Weights Tolerance      =       1.00E-15


  -Total Gradient:
     Atom            X                  Y                   Z
    ------   -----------------  -----------------  -----------------
       1        0.000000000000     0.000000000000    -0.021000348801
       2        0.000000000000     0.000000000000     0.020973579988


*** tstop() called on cics-quant-001 at Tue Dec 23 10:59:10 2025
Module time:
	user time   =       0.17 seconds =       0.00 minutes
	system time =       0.13 seconds =       0.00 minutes
	total time  =          0 seconds =       0.00 minutes
Total time:
	user time   =       9.34 seconds =       0.16 minutes
	system time =       1.65 seconds =       0.03 minutes
	total time  =          5 seconds =       0.08 minutes

    			-----------------------------------------

    			 OPTKING 3.0: for geometry optimizations 

    			     By R.A. King, Bethel University     

    			        with contributions from          

    			    A.V. Copan, J. Cayton, A. Heide      

    			-----------------------------------------

    
	                            ===> Fragment 1 <== 

	 Z (Atomic Numbers)          Masses                          Geom                  
	       7.000000            14.003074          0.00000000  0.00000000  2.19912665   
	      13.000000            26.981539          0.00000000  0.00000000 -1.14131865   

	 - Coordinate -           - BOHR/RAD -       - ANG/DEG -
	 R(1,2)           =         3.340445           1.767688


	        --- Internal Coordinate Step in ANG or DEG, aJ/ANG or AJ/DEG ---
	-------------------------------------------------------------------------------
	           Coordinate      Previous         Force          Change          New 
	           ----------      --------        ------          ------        ------
	               R(1,2)       1.76769        0.17291        0.04744       1.81512
	-------------------------------------------------------------------------------

	                                 ==> Convergence Check <==                                  
    
	Measures of convergence in internal coordinates in au.
    
	Criteria marked as inactive (o), active & met (*), and active & unmet ( ).

	----------------------------------------------------------------------------------------------
	   Step    Total Energy     Delta E     Max Force     RMS Force      Max Disp      RMS Disp   
	----------------------------------------------------------------------------------------------
	  Convergence Criteria     1.00e-06 *    3.00e-04 *             o    1.20e-03 *             o
	----------------------------------------------------------------------------------------------
	     8    -297.06198954   -1.50e-02      2.10e-02      2.10e-02 o    8.96e-02      8.96e-02 o  ~
	----------------------------------------------------------------------------------------------

Next Geometry in Ang 
	Fragment 1 (Ang)

	    N   0.0000000000   0.0000000000   1.1874457557
	   Al   0.0000000000   0.0000000000  -0.6276778710


    Structure for next step:
    Molecular point group: c2v
    Full point group: C_inf_v

    Geometry (in Angstrom), charge = 0, multiplicity = 3:

    N            0.000000000000     0.000000000000     1.194956473696
    AL           0.000000000000     0.000000000000    -0.620167152983


Scratch directory: /tmp/
gradient() will perform analytic gradient computation.
   => Libint2 <=

    Primary   basis highest AM E, G, H:  6, 6, 3
    Auxiliary basis highest AM E, G, H:  7, 7, 4
    Onebody   basis highest AM E, G, H:  -, -, -
    Solid Harmonics ordering:            Gaussian

*** tstart() called on cics-quant-001
*** at Tue Dec 23 10:59:10 2025

   => Loading Basis Set <=

    Name: CC-PVDZ
    Role: ORBITAL
    Keyword: BASIS
    atoms 1 entry N          line   168 file /home/jrodriguesro/psi4conda/share/psi4/basis/cc-pvdz.gbs 
    atoms 2 entry AL         line   418 file /home/jrodriguesro/psi4conda/share/psi4/basis/cc-pvdz.gbs 


         ---------------------------------------------------------
                                   SCF
               by Justin Turney, Rob Parrish, Andy Simmonett
                          and Daniel G. A. Smith
                              UKS Reference
                        5 Threads,   7629 MiB Core
         ---------------------------------------------------------

  ==> Geometry <==

    Molecular point group: c2v
    Full point group: C_inf_v

    Geometry (in Angstrom), charge = 0, multiplicity = 3:

       Center              X                  Y                   Z               Mass       
    ------------   -----------------  -----------------  -----------------  -----------------
         N            0.000000000000     0.000000000000     1.194956473696    14.003074004430
         AL           0.000000000000     0.000000000000    -0.620167152983    26.981538530000

  Running in c2v symmetry.

  Rotational constants: A = ************  B =      0.55503  C =      0.55503 [cm^-1]
  Rotational constants: A = ************  B =  16639.31790  C =  16639.31790 [MHz]
  Nuclear repulsion =   26.529942899309361

  Charge       = 0
  Multiplicity = 3
  Electrons    = 20
  Nalpha       = 11
  Nbeta        = 9

  ==> Algorithm <==

  SCF Algorithm Type is DF.
  DIIS enabled.
  MOM disabled.
  Fractional occupation disabled.
  Guess Type is READ.
  Energy threshold   = 1.00e-08
  Density threshold  = 1.00e-08
  Integral threshold = 1.00e-12

  ==> Primary Basis <==

  Basis Set: CC-PVDZ
    Blend: CC-PVDZ
    Number of shells: 14
    Number of basis functions: 32
    Number of Cartesian functions: 34
    Spherical Harmonics?: true
    Max angular momentum: 2

  ==> DFT Potential <==

   => LibXC <=

    Version 7.0.0
    S. Lehtola, C. Steigemann, M. J.T. Oliveira, and M. A.L. Marques.,  SoftwareX 7, 1–5 (2018) (10.1016/j.softx.2017.11.002)

   => Composite Functional: B3LYP <= 

    B3LYP Hyb-GGA Exchange-Correlation Functional

    P. J. Stephens, F. J. Devlin, C. F. Chabalowski, and M. J. Frisch.,  J. Phys. Chem. 98, 11623 (1994) (10.1021/j100096a001)

    Deriv               =              1
    GGA                 =           TRUE
    Meta                =          FALSE

    Exchange Hybrid     =           TRUE
    MP2 Hybrid          =          FALSE

   => Exchange Functionals <=

    0.0800   Slater exchange
    0.7200         Becke 88

   => Exact (HF) Exchange <=

    0.2000               HF 

   => Correlation Functionals <=

    0.1900   Vosko, Wilk & Nusair (VWN5_RPA)
    0.8100   Lee, Yang & Parr

   => LibXC Density Thresholds  <==

    XC_HYB_GGA_XC_B3LYP:  1.00E-15 

   => Molecular Quadrature <=

    Radial Scheme          =       TREUTLER
    Pruning Scheme         =           NONE
    Nuclear Scheme         =       TREUTLER

    Blocking Scheme        =         OCTREE
    BS radius alpha        =              1
    Pruning alpha          =              1
    Radial Points          =             75
    Spherical Points       =            302
    Total Points           =          43463
    Total Blocks           =            406
    Max Points             =            256
    Max Functions          =             32
    Weights Tolerance      =       1.00E-15

   => Loading Basis Set <=

    Name: (CC-PVDZ AUX)
    Role: JKFIT
    Keyword: DF_BASIS_SCF
    atoms 1 entry N          line   171 file /home/jrodriguesro/psi4conda/share/psi4/basis/cc-pvdz-jkfit.gbs 
    atoms 2 entry AL         line   371 file /home/jrodriguesro/psi4conda/share/psi4/basis/cc-pvdz-jkfit.gbs 

   => Loading Basis Set <=

    Name: CC-PVDZ
    Role: ORBITAL
    Keyword: BASIS
    atoms 1 entry N          line   168 file /home/jrodriguesro/psi4conda/share/psi4/basis/cc-pvdz.gbs 
    atoms 2 entry AL         line   418 file /home/jrodriguesro/psi4conda/share/psi4/basis/cc-pvdz.gbs 

  Reading orbitals from file /tmp/triplet_NAl.default.371576.180.npy, no projection.

  ==> Integral Setup <==

  DFHelper Memory: AOs need 0.002 GiB; user supplied 5.549 GiB. 
  SCF_SUBTYPE=INCORE selected. In-core MEM_DF algorithm will be used.
  Using in-core AOs.

  ==> MemDFJK: Density-Fitted J/K Matrices <==

    J tasked:                   Yes
    K tasked:                   Yes
    wK tasked:                   No
    OpenMP threads:               5
    Memory [MiB]:              5682
    Algorithm:                 Core
    Schwarz Cutoff:           1E-12
    Mask sparsity (%):       0.0000
    Fitting Condition:        1E-10

   => Auxiliary Basis Set <=

  Basis Set: (CC-PVDZ AUX)
    Blend: CC-PVDZ-JKFIT
    Number of shells: 60
    Number of basis functions: 182
    Number of Cartesian functions: 211
    Spherical Harmonics?: true
    Max angular momentum: 3

  Cached 100.0% of DFT collocation blocks in 0.039 [GiB].

  Minimum eigenvalue in the overlap matrix is 2.8651489226E-02.
  Reciprocal condition number of the overlap matrix is 9.9089704415E-03.
    Using symmetric orthogonalization.

  ==> Pre-Iterations <==

  SCF Guess: Orbitals guess was supplied from a previous computation.

   -------------------------------------------------------
    Irrep   Nso     Nmo     Nalpha   Nbeta   Ndocc  Nsocc
   -------------------------------------------------------
     A1        16      16       7       6       6       1
     A2         2       2       0       0       0       0
     B1         7       7       2       1       1       1
     B2         7       7       2       2       2       0
   -------------------------------------------------------
    Total      32      32      11       9       9       2
   -------------------------------------------------------

  ==> Iterations <==

                           Total Energy        Delta E     RMS |[F,P]|

   @DF-UKS iter   0:  -297.05133975441862   -2.97051e+02   4.07869e-03 
   @DF-UKS iter   1:  -297.06284309797979   -1.15033e-02   6.32692e-04 DIIS/ADIIS
   @DF-UKS iter   2:  -297.06217345756204    6.69640e-04   1.85745e-03 DIIS/ADIIS/DAMP=1%
   @DF-UKS iter   3:  -297.06235428850283   -1.80831e-04   1.24058e-04 DIIS/ADIIS/DAMP=1%
   @DF-UKS iter   4:  -297.06294089829726   -5.86610e-04   6.44251e-05 DIIS/DAMP=1%
   @DF-UKS iter   5:  -297.06297701538836   -3.61171e-05   1.16555e-05 DIIS/DAMP=1%
   @DF-UKS iter   6:  -297.06299777486947   -2.07595e-05   4.78402e-06 DIIS/DAMP=1%
   @DF-UKS iter   7:  -297.06299269645808    5.07841e-06   1.05304e-06 DIIS/DAMP=1%
   @DF-UKS iter   8:  -297.06299330753490   -6.11077e-07   3.36343e-07 DIIS/DAMP=1%
   @DF-UKS iter   9:  -297.06299326189821    4.56367e-08   1.11546e-07 DIIS/DAMP=1%
   @DF-UKS iter  10:  -297.06299328147651   -1.95783e-08   3.31633e-08 DIIS/DAMP=1%
   @DF-UKS iter  11:  -297.06299330263869   -2.11622e-08   5.38081e-09 DIIS/DAMP=1%
   @DF-UKS iter  12:  -297.06299328606138    1.65773e-08   2.43547e-10 DIIS/DAMP=1%
   @DF-UKS iter  13:  -297.06299328819506   -2.13367e-09   9.10144e-11 DIIS/DAMP=1%
  Energy and wave function converged.


  ==> Post-Iterations <==

   Electrons on quadrature grid:
      Nalpha   =   11.0000033634 ; deviation = 3.363e-06
      Nbeta    =    9.0000011934 ; deviation = 1.193e-06
      Ntotal   =   20.0000045568 ; deviation = 4.557e-06 

   @Spin Contamination Metric:   2.542966831E-02
   @S^2 Expected:                2.000000000E+00
   @S^2 Observed:                2.025429668E+00
   @S   Expected:                1.000000000E+00
   @S   Observed:                1.000000000E+00

    Orbital Energies [Eh]
    ---------------------

    Alpha Occupied:                                                       

       1A1   -56.081972     2A1   -14.357066     3A1    -4.163490  
       1B1    -2.717561     4A1    -2.715765     1B2    -2.714464  
       5A1    -0.760737     6A1    -0.367071     2B1    -0.308040  
       2B2    -0.260706     7A1    -0.253285  

    Alpha Virtual:                                                        

       3B1    -0.057915     3B2    -0.045830     8A1     0.030292  
       9A1     0.162727     4B1     0.211127     4B2     0.217042  
      10A1     0.255969     1A2     0.261609    11A1     0.262661  
       5B1     0.310585     5B2     0.325119    12A1     0.504450  
       6B1     0.786020    13A1     0.793946     6B2     0.818937  
      14A1     1.252692    15A1     1.766340     2A2     1.766531  
       7B1     1.824864     7B2     1.862029    16A1     2.121311  

    Beta Occupied:                                                        

       1A1   -56.080856     2A1   -14.325713     3A1    -4.162157  
       1B1    -2.716126     1B2    -2.714547     4A1    -2.711398  
       5A1    -0.656402     6A1    -0.293934     2B2    -0.222837  

    Beta Virtual:                                                         

       2B1    -0.131833     7A1    -0.131451     3B2    -0.033072  
       3B1    -0.012510     8A1     0.048508     9A1     0.173300  
       4B2     0.216659     4B1     0.217292     1A2     0.265157  
      10A1     0.265861    11A1     0.283868     5B2     0.339626  
       5B1     0.345879    12A1     0.531055     6B2     0.846787  
      13A1     0.863438     6B1     0.869238    14A1     1.311797  
       2A2     1.840906    15A1     1.847181     7B2     1.920880  
       7B1     1.935555    16A1     2.198104  

    Final Occupation by Irrep:
             A1    A2    B1    B2 
    DOCC [     6,    0,    1,    2 ]
    SOCC [     1,    0,    1,    0 ]
    NA   [     7,    0,    2,    2 ]
    NB   [     6,    0,    1,    2 ]

  @DF-UKS Final Energy:  -297.06299328819506

   => Energetics <=

    Nuclear Repulsion Energy =             26.5299428993093613
    One-Electron Energy =                -463.9211234162518167
    Two-Electron Energy =                 160.8558812121209201
    DFT Exchange-Correlation Energy =     -20.5276939833735810
    Empirical Dispersion Energy =           0.0000000000000000
    VV10 Nonlocal Energy =                  0.0000000000000000
    Total Energy =                       -297.0629932881950594

  UHF NO Occupations:
  HONO-2 :    2 B2 1.9917296
  HONO-1 :    2 B1 1.0000000
  HONO-0 :    7 A1 1.0000000
  LUNO+0 :    3 B2 0.0082704
  LUNO+1 :    8 A1 0.0038176
  LUNO+2 :    9 A1 0.0006680
  LUNO+3 :   10 A1 0.0000002


Computation Completed


Properties will be evaluated at   0.000000,   0.000000,   0.000000 [a0]

Properties computed using the SCF density matrix


 Multipole Moments:

 ------------------------------------------------------------------------------------
     Multipole            Electronic (a.u.)      Nuclear  (a.u.)        Total (a.u.)
 ------------------------------------------------------------------------------------

 L = 1.  Multiply by 2.5417464519 to convert [e a0] to [Debye]
 Dipole X            :          0.0000000            0.0000000            0.0000000
 Dipole Y            :          0.0000000            0.0000000            0.0000000
 Dipole Z            :         -1.4790388            0.5716843           -0.9073544
 Magnitude           :                                                    0.9073544

 ------------------------------------------------------------------------------------

*** tstop() called on cics-quant-001 at Tue Dec 23 10:59:11 2025
Module time:
	user time   =       0.84 seconds =       0.01 minutes
	system time =       0.07 seconds =       0.00 minutes
	total time  =          1 seconds =       0.02 minutes
Total time:
	user time   =      10.20 seconds =       0.17 minutes
	system time =       1.72 seconds =       0.03 minutes
	total time  =          6 seconds =       0.10 minutes

*** tstart() called on cics-quant-001
*** at Tue Dec 23 10:59:11 2025


         ------------------------------------------------------------
                                   SCF GRAD                          
                          Rob Parrish, Justin Turney,                
                       Andy Simmonett, and Alex Sokolov              
         ------------------------------------------------------------

  ==> Geometry <==

    Molecular point group: c2v
    Full point group: C_inf_v

    Geometry (in Angstrom), charge = 0, multiplicity = 3:

       Center              X                  Y                   Z               Mass       
    ------------   -----------------  -----------------  -----------------  -----------------
         N            0.000000000000     0.000000000000     1.194956473696    14.003074004430
         AL           0.000000000000     0.000000000000    -0.620167152983    26.981538530000

  Nuclear repulsion =   26.529942899309361

  ==> Basis Set <==

  Basis Set: CC-PVDZ
    Blend: CC-PVDZ
    Number of shells: 14
    Number of basis functions: 32
    Number of Cartesian functions: 34
    Spherical Harmonics?: true
    Max angular momentum: 2

  ==> DFJKGrad: Density-Fitted SCF Gradients <==

    Gradient:                    1
    J tasked:                  Yes
    K tasked:                  Yes
    wK tasked:                  No
    OpenMP threads:              5
    Integrals threads:           5
    Memory [MiB]:             5722
    Schwarz Cutoff:          1E-12
    Fitting Condition:       1E-10

   => Auxiliary Basis Set <=

  Basis Set: (CC-PVDZ AUX)
    Blend: CC-PVDZ-JKFIT
    Number of shells: 60
    Number of basis functions: 182
    Number of Cartesian functions: 211
    Spherical Harmonics?: true
    Max angular momentum: 3

  ==> DFT Potential <==

   => LibXC <=

    Version 7.0.0
    S. Lehtola, C. Steigemann, M. J.T. Oliveira, and M. A.L. Marques.,  SoftwareX 7, 1–5 (2018) (10.1016/j.softx.2017.11.002)

   => Composite Functional: B3LYP <= 

    B3LYP Hyb-GGA Exchange-Correlation Functional

    P. J. Stephens, F. J. Devlin, C. F. Chabalowski, and M. J. Frisch.,  J. Phys. Chem. 98, 11623 (1994) (10.1021/j100096a001)

    Deriv               =              1
    GGA                 =           TRUE
    Meta                =          FALSE

    Exchange Hybrid     =           TRUE
    MP2 Hybrid          =          FALSE

   => Exchange Functionals <=

    0.0800   Slater exchange
    0.7200         Becke 88

   => Exact (HF) Exchange <=

    0.2000               HF 

   => Correlation Functionals <=

    0.1900   Vosko, Wilk & Nusair (VWN5_RPA)
    0.8100   Lee, Yang & Parr

   => LibXC Density Thresholds  <==

    XC_HYB_GGA_XC_B3LYP:  1.00E-15 

   => Molecular Quadrature <=

    Radial Scheme          =       TREUTLER
    Pruning Scheme         =           NONE
    Nuclear Scheme         =       TREUTLER

    Blocking Scheme        =         OCTREE
    BS radius alpha        =              1
    Pruning alpha          =              1
    Radial Points          =             75
    Spherical Points       =            302
    Total Points           =          43463
    Total Blocks           =            406
    Max Points             =            256
    Max Functions          =             32
    Weights Tolerance      =       1.00E-15


  -Total Gradient:
     Atom            X                  Y                   Z
    ------   -----------------  -----------------  -----------------
       1        0.000000000000    -0.000000000000    -0.002199831334
       2        0.000000000000    -0.000000000000     0.002164919305


*** tstop() called on cics-quant-001 at Tue Dec 23 10:59:11 2025
Module time:
	user time   =       0.20 seconds =       0.00 minutes
	system time =       0.12 seconds =       0.00 minutes
	total time  =          0 seconds =       0.00 minutes
Total time:
	user time   =      10.40 seconds =       0.17 minutes
	system time =       1.84 seconds =       0.03 minutes
	total time  =          6 seconds =       0.10 minutes

    			-----------------------------------------

    			 OPTKING 3.0: for geometry optimizations 

    			     By R.A. King, Bethel University     

    			        with contributions from          

    			    A.V. Copan, J. Cayton, A. Heide      

    			-----------------------------------------

    
	                            ===> Fragment 1 <== 

	 Z (Atomic Numbers)          Masses                          Geom                  
	       7.000000            14.003074          0.00000000  0.00000000  2.25814047   
	      13.000000            26.981539          0.00000000  0.00000000 -1.17194607   

	 - Coordinate -           - BOHR/RAD -       - ANG/DEG -
	 R(1,2)           =         3.430087           1.815124


	        --- Internal Coordinate Step in ANG or DEG, aJ/ANG or AJ/DEG ---
	-------------------------------------------------------------------------------
	           Coordinate      Previous         Force          Change          New 
	           ----------      --------        ------          ------        ------
	               R(1,2)       1.81512        0.01798        0.00897       1.82409
	-------------------------------------------------------------------------------

	                                 ==> Convergence Check <==                                  
    
	Measures of convergence in internal coordinates in au.
    
	Criteria marked as inactive (o), active & met (*), and active & unmet ( ).

	----------------------------------------------------------------------------------------------
	   Step    Total Energy     Delta E     Max Force     RMS Force      Max Disp      RMS Disp   
	----------------------------------------------------------------------------------------------
	  Convergence Criteria     1.00e-06 *    3.00e-04 *             o    1.20e-03 *             o
	----------------------------------------------------------------------------------------------
	     9    -297.06299329   -1.00e-03      2.18e-03      2.18e-03 o    1.69e-02      1.69e-02 o  ~
	----------------------------------------------------------------------------------------------

Next Geometry in Ang 
	Fragment 1 (Ang)

	    N   0.0000000000   0.0000000000   1.1994394613
	   Al   0.0000000000   0.0000000000  -0.6246501406


    Structure for next step:
    Molecular point group: c2v
    Full point group: C_inf_v

    Geometry (in Angstrom), charge = 0, multiplicity = 3:

    N            0.000000000000     0.000000000000     1.200859074466
    AL           0.000000000000     0.000000000000    -0.623230527419


Scratch directory: /tmp/
gradient() will perform analytic gradient computation.
   => Libint2 <=

    Primary   basis highest AM E, G, H:  6, 6, 3
    Auxiliary basis highest AM E, G, H:  7, 7, 4
    Onebody   basis highest AM E, G, H:  -, -, -
    Solid Harmonics ordering:            Gaussian

*** tstart() called on cics-quant-001
*** at Tue Dec 23 10:59:11 2025

   => Loading Basis Set <=

    Name: CC-PVDZ
    Role: ORBITAL
    Keyword: BASIS
    atoms 1 entry N          line   168 file /home/jrodriguesro/psi4conda/share/psi4/basis/cc-pvdz.gbs 
    atoms 2 entry AL         line   418 file /home/jrodriguesro/psi4conda/share/psi4/basis/cc-pvdz.gbs 


         ---------------------------------------------------------
                                   SCF
               by Justin Turney, Rob Parrish, Andy Simmonett
                          and Daniel G. A. Smith
                              UKS Reference
                        5 Threads,   7629 MiB Core
         ---------------------------------------------------------

  ==> Geometry <==

    Molecular point group: c2v
    Full point group: C_inf_v

    Geometry (in Angstrom), charge = 0, multiplicity = 3:

       Center              X                  Y                   Z               Mass       
    ------------   -----------------  -----------------  -----------------  -----------------
         N            0.000000000000     0.000000000000     1.200859074466    14.003074004430
         AL           0.000000000000     0.000000000000    -0.623230527419    26.981538530000

  Running in c2v symmetry.

  Rotational constants: A = ************  B =      0.54959  C =      0.54959 [cm^-1]
  Rotational constants: A = ************  B =  16476.14493  C =  16476.14493 [MHz]
  Nuclear repulsion =   26.399539869748715

  Charge       = 0
  Multiplicity = 3
  Electrons    = 20
  Nalpha       = 11
  Nbeta        = 9

  ==> Algorithm <==

  SCF Algorithm Type is DF.
  DIIS enabled.
  MOM disabled.
  Fractional occupation disabled.
  Guess Type is READ.
  Energy threshold   = 1.00e-08
  Density threshold  = 1.00e-08
  Integral threshold = 1.00e-12

  ==> Primary Basis <==

  Basis Set: CC-PVDZ
    Blend: CC-PVDZ
    Number of shells: 14
    Number of basis functions: 32
    Number of Cartesian functions: 34
    Spherical Harmonics?: true
    Max angular momentum: 2

  ==> DFT Potential <==

   => LibXC <=

    Version 7.0.0
    S. Lehtola, C. Steigemann, M. J.T. Oliveira, and M. A.L. Marques.,  SoftwareX 7, 1–5 (2018) (10.1016/j.softx.2017.11.002)

   => Composite Functional: B3LYP <= 

    B3LYP Hyb-GGA Exchange-Correlation Functional

    P. J. Stephens, F. J. Devlin, C. F. Chabalowski, and M. J. Frisch.,  J. Phys. Chem. 98, 11623 (1994) (10.1021/j100096a001)

    Deriv               =              1
    GGA                 =           TRUE
    Meta                =          FALSE

    Exchange Hybrid     =           TRUE
    MP2 Hybrid          =          FALSE

   => Exchange Functionals <=

    0.0800   Slater exchange
    0.7200         Becke 88

   => Exact (HF) Exchange <=

    0.2000               HF 

   => Correlation Functionals <=

    0.1900   Vosko, Wilk & Nusair (VWN5_RPA)
    0.8100   Lee, Yang & Parr

   => LibXC Density Thresholds  <==

    XC_HYB_GGA_XC_B3LYP:  1.00E-15 

   => Molecular Quadrature <=

    Radial Scheme          =       TREUTLER
    Pruning Scheme         =           NONE
    Nuclear Scheme         =       TREUTLER

    Blocking Scheme        =         OCTREE
    BS radius alpha        =              1
    Pruning alpha          =              1
    Radial Points          =             75
    Spherical Points       =            302
    Total Points           =          43458
    Total Blocks           =            406
    Max Points             =            256
    Max Functions          =             32
    Weights Tolerance      =       1.00E-15

   => Loading Basis Set <=

    Name: (CC-PVDZ AUX)
    Role: JKFIT
    Keyword: DF_BASIS_SCF
    atoms 1 entry N          line   171 file /home/jrodriguesro/psi4conda/share/psi4/basis/cc-pvdz-jkfit.gbs 
    atoms 2 entry AL         line   371 file /home/jrodriguesro/psi4conda/share/psi4/basis/cc-pvdz-jkfit.gbs 

   => Loading Basis Set <=

    Name: CC-PVDZ
    Role: ORBITAL
    Keyword: BASIS
    atoms 1 entry N          line   168 file /home/jrodriguesro/psi4conda/share/psi4/basis/cc-pvdz.gbs 
    atoms 2 entry AL         line   418 file /home/jrodriguesro/psi4conda/share/psi4/basis/cc-pvdz.gbs 

  Reading orbitals from file /tmp/triplet_NAl.default.371576.180.npy, no projection.

  ==> Integral Setup <==

  DFHelper Memory: AOs need 0.002 GiB; user supplied 5.549 GiB. 
  SCF_SUBTYPE=INCORE selected. In-core MEM_DF algorithm will be used.
  Using in-core AOs.

  ==> MemDFJK: Density-Fitted J/K Matrices <==

    J tasked:                   Yes
    K tasked:                   Yes
    wK tasked:                   No
    OpenMP threads:               5
    Memory [MiB]:              5682
    Algorithm:                 Core
    Schwarz Cutoff:           1E-12
    Mask sparsity (%):       0.0000
    Fitting Condition:        1E-10

   => Auxiliary Basis Set <=

  Basis Set: (CC-PVDZ AUX)
    Blend: CC-PVDZ-JKFIT
    Number of shells: 60
    Number of basis functions: 182
    Number of Cartesian functions: 211
    Spherical Harmonics?: true
    Max angular momentum: 3

  Cached 100.0% of DFT collocation blocks in 0.039 [GiB].

  Minimum eigenvalue in the overlap matrix is 2.9357681024E-02.
  Reciprocal condition number of the overlap matrix is 1.0168476524E-02.
    Using symmetric orthogonalization.

  ==> Pre-Iterations <==

  SCF Guess: Orbitals guess was supplied from a previous computation.

   -------------------------------------------------------
    Irrep   Nso     Nmo     Nalpha   Nbeta   Ndocc  Nsocc
   -------------------------------------------------------
     A1        16      16       7       6       6       1
     A2         2       2       0       0       0       0
     B1         7       7       2       1       1       1
     B2         7       7       2       2       2       0
   -------------------------------------------------------
    Total      32      32      11       9       9       2
   -------------------------------------------------------

  ==> Iterations <==

                           Total Energy        Delta E     RMS |[F,P]|

   @DF-UKS iter   0:  -297.06075121758221   -2.97061e+02   7.39555e-04 
   @DF-UKS iter   1:  -297.06299794805284   -2.24673e-03   1.27697e-04 DIIS/ADIIS
   @DF-UKS iter   2:  -297.06297165366567    2.62944e-05   3.68268e-04 DIIS/ADIIS/DAMP=1%
   @DF-UKS iter   3:  -297.06288004813769    9.16055e-05   2.70950e-05 DIIS/DAMP=1%
   @DF-UKS iter   4:  -297.06299246147785   -1.12413e-04   1.23727e-05 DIIS/DAMP=1%
   @DF-UKS iter   5:  -297.06300044715653   -7.98568e-06   2.29194e-06 DIIS/DAMP=1%
   @DF-UKS iter   6:  -297.06300476964429   -4.32249e-06   9.13835e-07 DIIS/DAMP=1%
   @DF-UKS iter   7:  -297.06300372362580    1.04602e-06   2.05401e-07 DIIS/DAMP=1%
   @DF-UKS iter   8:  -297.06300384227910   -1.18653e-07   6.38356e-08 DIIS/DAMP=1%
   @DF-UKS iter   9:  -297.06300383745190    4.82720e-09   2.00313e-08 DIIS/DAMP=1%
   @DF-UKS iter  10:  -297.06300383757127   -1.19371e-10   6.38931e-09 DIIS/DAMP=1%
  Energy and wave function converged.


  ==> Post-Iterations <==

   Electrons on quadrature grid:
      Nalpha   =   11.0000034160 ; deviation = 3.416e-06
      Nbeta    =    9.0000012084 ; deviation = 1.208e-06
      Ntotal   =   20.0000046243 ; deviation = 4.624e-06 

   @Spin Contamination Metric:   2.612974921E-02
   @S^2 Expected:                2.000000000E+00
   @S^2 Observed:                2.026129749E+00
   @S   Expected:                1.000000000E+00
   @S   Observed:                1.000000000E+00

    Orbital Energies [Eh]
    ---------------------

    Alpha Occupied:                                                       

       1A1   -56.082755     2A1   -14.357363     3A1    -4.163979  
       1B1    -2.718062     4A1    -2.716219     1B2    -2.714983  
       5A1    -0.759813     6A1    -0.367038     2B1    -0.307376  
       2B2    -0.260087     7A1    -0.253481  

    Alpha Virtual:                                                        

       3B1    -0.058369     3B2    -0.046327     8A1     0.029784  
       9A1     0.162596     4B1     0.211095     4B2     0.216982  
      10A1     0.255398     1A2     0.261622    11A1     0.262575  
       5B1     0.309526     5B2     0.323963    12A1     0.500756  
       6B1     0.785793    13A1     0.792953     6B2     0.818675  
      14A1     1.252435    15A1     1.766459     2A2     1.766668  
       7B1     1.823498     7B2     1.860616    16A1     2.117287  

    Beta Occupied:                                                        

       1A1   -56.081662     2A1   -14.325896     3A1    -4.162677  
       1B1    -2.716661     1B2    -2.715091     4A1    -2.711911  
       5A1    -0.655054     6A1    -0.294367     2B2    -0.221911  

    Beta Virtual:                                                         

       7A1    -0.131156     2B1    -0.131133     3B2    -0.033709  
       3B1    -0.012941     8A1     0.048153     9A1     0.173025  
       4B2     0.216441     4B1     0.217102     1A2     0.264942  
      10A1     0.265643    11A1     0.283094     5B2     0.338332  
       5B1     0.344601    12A1     0.527392     6B2     0.846695  
      13A1     0.862806     6B1     0.869173    14A1     1.311645  
       2A2     1.841257    15A1     1.847524     7B2     1.919857  
       7B1     1.934623    16A1     2.194585  

    Final Occupation by Irrep:
             A1    A2    B1    B2 
    DOCC [     6,    0,    1,    2 ]
    SOCC [     1,    0,    1,    0 ]
    NA   [     7,    0,    2,    2 ]
    NB   [     6,    0,    1,    2 ]

  @DF-UKS Final Energy:  -297.06300383757127

   => Energetics <=

    Nuclear Repulsion Energy =             26.3995398697487147
    One-Electron Energy =                -463.6594474335377640
    Two-Electron Energy =                 160.7226054809250684
    DFT Exchange-Correlation Energy =     -20.5257017547072991
    Empirical Dispersion Energy =           0.0000000000000000
    VV10 Nonlocal Energy =                  0.0000000000000000
    Total Energy =                       -297.0630038375713298

  UHF NO Occupations:
  HONO-2 :    2 B2 1.9914179
  HONO-1 :    2 B1 1.0000000
  HONO-0 :    7 A1 1.0000000
  LUNO+0 :    3 B2 0.0085821
  LUNO+1 :    8 A1 0.0038563
  LUNO+2 :    9 A1 0.0006706
  LUNO+3 :   10 A1 0.0000002


Computation Completed


Properties will be evaluated at   0.000000,   0.000000,   0.000000 [a0]

Properties computed using the SCF density matrix


 Multipole Moments:

 ------------------------------------------------------------------------------------
     Multipole            Electronic (a.u.)      Nuclear  (a.u.)        Total (a.u.)
 ------------------------------------------------------------------------------------

 L = 1.  Multiply by 2.5417464519 to convert [e a0] to [Debye]
 Dipole X            :          0.0000000            0.0000000            0.0000000
 Dipole Y            :          0.0000000            0.0000000            0.0000000
 Dipole Z            :         -1.4852928            0.5745082           -0.9107845
 Magnitude           :                                                    0.9107845

 ------------------------------------------------------------------------------------

*** tstop() called on cics-quant-001 at Tue Dec 23 10:59:11 2025
Module time:
	user time   =       0.70 seconds =       0.01 minutes
	system time =       0.11 seconds =       0.00 minutes
	total time  =          0 seconds =       0.00 minutes
Total time:
	user time   =      11.12 seconds =       0.19 minutes
	system time =       1.95 seconds =       0.03 minutes
	total time  =          6 seconds =       0.10 minutes

*** tstart() called on cics-quant-001
*** at Tue Dec 23 10:59:11 2025


         ------------------------------------------------------------
                                   SCF GRAD                          
                          Rob Parrish, Justin Turney,                
                       Andy Simmonett, and Alex Sokolov              
         ------------------------------------------------------------

  ==> Geometry <==

    Molecular point group: c2v
    Full point group: C_inf_v

    Geometry (in Angstrom), charge = 0, multiplicity = 3:

       Center              X                  Y                   Z               Mass       
    ------------   -----------------  -----------------  -----------------  -----------------
         N            0.000000000000     0.000000000000     1.200859074466    14.003074004430
         AL           0.000000000000     0.000000000000    -0.623230527419    26.981538530000

  Nuclear repulsion =   26.399539869748715

  ==> Basis Set <==

  Basis Set: CC-PVDZ
    Blend: CC-PVDZ
    Number of shells: 14
    Number of basis functions: 32
    Number of Cartesian functions: 34
    Spherical Harmonics?: true
    Max angular momentum: 2

  ==> DFJKGrad: Density-Fitted SCF Gradients <==

    Gradient:                    1
    J tasked:                  Yes
    K tasked:                  Yes
    wK tasked:                  No
    OpenMP threads:              5
    Integrals threads:           5
    Memory [MiB]:             5722
    Schwarz Cutoff:          1E-12
    Fitting Condition:       1E-10

   => Auxiliary Basis Set <=

  Basis Set: (CC-PVDZ AUX)
    Blend: CC-PVDZ-JKFIT
    Number of shells: 60
    Number of basis functions: 182
    Number of Cartesian functions: 211
    Spherical Harmonics?: true
    Max angular momentum: 3

  ==> DFT Potential <==

   => LibXC <=

    Version 7.0.0
    S. Lehtola, C. Steigemann, M. J.T. Oliveira, and M. A.L. Marques.,  SoftwareX 7, 1–5 (2018) (10.1016/j.softx.2017.11.002)

   => Composite Functional: B3LYP <= 

    B3LYP Hyb-GGA Exchange-Correlation Functional

    P. J. Stephens, F. J. Devlin, C. F. Chabalowski, and M. J. Frisch.,  J. Phys. Chem. 98, 11623 (1994) (10.1021/j100096a001)

    Deriv               =              1
    GGA                 =           TRUE
    Meta                =          FALSE

    Exchange Hybrid     =           TRUE
    MP2 Hybrid          =          FALSE

   => Exchange Functionals <=

    0.0800   Slater exchange
    0.7200         Becke 88

   => Exact (HF) Exchange <=

    0.2000               HF 

   => Correlation Functionals <=

    0.1900   Vosko, Wilk & Nusair (VWN5_RPA)
    0.8100   Lee, Yang & Parr

   => LibXC Density Thresholds  <==

    XC_HYB_GGA_XC_B3LYP:  1.00E-15 

   => Molecular Quadrature <=

    Radial Scheme          =       TREUTLER
    Pruning Scheme         =           NONE
    Nuclear Scheme         =       TREUTLER

    Blocking Scheme        =         OCTREE
    BS radius alpha        =              1
    Pruning alpha          =              1
    Radial Points          =             75
    Spherical Points       =            302
    Total Points           =          43458
    Total Blocks           =            406
    Max Points             =            256
    Max Functions          =             32
    Weights Tolerance      =       1.00E-15


  -Total Gradient:
     Atom            X                  Y                   Z
    ------   -----------------  -----------------  -----------------
       1        0.000000000000    -0.000000000000     0.000871761726
       2        0.000000000000     0.000000000000    -0.000905687281


*** tstop() called on cics-quant-001 at Tue Dec 23 10:59:11 2025
Module time:
	user time   =       0.17 seconds =       0.00 minutes
	system time =       0.13 seconds =       0.00 minutes
	total time  =          0 seconds =       0.00 minutes
Total time:
	user time   =      11.30 seconds =       0.19 minutes
	system time =       2.08 seconds =       0.03 minutes
	total time  =          6 seconds =       0.10 minutes

    			-----------------------------------------

    			 OPTKING 3.0: for geometry optimizations 

    			     By R.A. King, Bethel University     

    			        with contributions from          

    			    A.V. Copan, J. Cayton, A. Heide      

    			-----------------------------------------

    
	                            ===> Fragment 1 <== 

	 Z (Atomic Numbers)          Masses                          Geom                  
	       7.000000            14.003074          0.00000000  0.00000000  2.26929477   
	      13.000000            26.981539          0.00000000  0.00000000 -1.17773501   

	 - Coordinate -           - BOHR/RAD -       - ANG/DEG -
	 R(1,2)           =         3.447030           1.824090


	        --- Internal Coordinate Step in ANG or DEG, aJ/ANG or AJ/DEG ---
	-------------------------------------------------------------------------------
	           Coordinate      Previous         Force          Change          New 
	           ----------      --------        ------          ------        ------
	               R(1,2)       1.82409       -0.00732       -0.00612       1.81797
	-------------------------------------------------------------------------------

	                                 ==> Convergence Check <==                                  
    
	Measures of convergence in internal coordinates in au.
    
	Criteria marked as inactive (o), active & met (*), and active & unmet ( ).

	----------------------------------------------------------------------------------------------
	   Step    Total Energy     Delta E     Max Force     RMS Force      Max Disp      RMS Disp   
	----------------------------------------------------------------------------------------------
	  Convergence Criteria     1.00e-06 *    3.00e-04 *             o    1.20e-03 *             o
	----------------------------------------------------------------------------------------------
	    10    -297.06300384   -1.05e-05      8.89e-04      8.89e-04 o    1.16e-02      1.16e-02 o  ~
	----------------------------------------------------------------------------------------------

Next Geometry in Ang 
	Fragment 1 (Ang)

	    N   0.0000000000   0.0000000000   1.1977967914
	   Al   0.0000000000   0.0000000000  -0.6201682443


    Structure for next step:
    Molecular point group: c2v
    Full point group: C_inf_v

    Geometry (in Angstrom), charge = 0, multiplicity = 3:

    N            0.000000000000     0.000000000000     1.196827068088
    AL           0.000000000000     0.000000000000    -0.621137967589


Scratch directory: /tmp/
gradient() will perform analytic gradient computation.
   => Libint2 <=

    Primary   basis highest AM E, G, H:  6, 6, 3
    Auxiliary basis highest AM E, G, H:  7, 7, 4
    Onebody   basis highest AM E, G, H:  -, -, -
    Solid Harmonics ordering:            Gaussian

*** tstart() called on cics-quant-001
*** at Tue Dec 23 10:59:11 2025

   => Loading Basis Set <=

    Name: CC-PVDZ
    Role: ORBITAL
    Keyword: BASIS
    atoms 1 entry N          line   168 file /home/jrodriguesro/psi4conda/share/psi4/basis/cc-pvdz.gbs 
    atoms 2 entry AL         line   418 file /home/jrodriguesro/psi4conda/share/psi4/basis/cc-pvdz.gbs 


         ---------------------------------------------------------
                                   SCF
               by Justin Turney, Rob Parrish, Andy Simmonett
                          and Daniel G. A. Smith
                              UKS Reference
                        5 Threads,   7629 MiB Core
         ---------------------------------------------------------

  ==> Geometry <==

    Molecular point group: c2v
    Full point group: C_inf_v

    Geometry (in Angstrom), charge = 0, multiplicity = 3:

       Center              X                  Y                   Z               Mass       
    ------------   -----------------  -----------------  -----------------  -----------------
         N            0.000000000000     0.000000000000     1.196827068088    14.003074004430
         AL           0.000000000000     0.000000000000    -0.621137967589    26.981538530000

  Running in c2v symmetry.

  Rotational constants: A = ************  B =      0.55329  C =      0.55329 [cm^-1]
  Rotational constants: A = ************  B =  16587.34532  C =  16587.34532 [MHz]
  Nuclear repulsion =   26.488477625237827

  Charge       = 0
  Multiplicity = 3
  Electrons    = 20
  Nalpha       = 11
  Nbeta        = 9

  ==> Algorithm <==

  SCF Algorithm Type is DF.
  DIIS enabled.
  MOM disabled.
  Fractional occupation disabled.
  Guess Type is READ.
  Energy threshold   = 1.00e-08
  Density threshold  = 1.00e-08
  Integral threshold = 1.00e-12

  ==> Primary Basis <==

  Basis Set: CC-PVDZ
    Blend: CC-PVDZ
    Number of shells: 14
    Number of basis functions: 32
    Number of Cartesian functions: 34
    Spherical Harmonics?: true
    Max angular momentum: 2

  ==> DFT Potential <==

   => LibXC <=

    Version 7.0.0
    S. Lehtola, C. Steigemann, M. J.T. Oliveira, and M. A.L. Marques.,  SoftwareX 7, 1–5 (2018) (10.1016/j.softx.2017.11.002)

   => Composite Functional: B3LYP <= 

    B3LYP Hyb-GGA Exchange-Correlation Functional

    P. J. Stephens, F. J. Devlin, C. F. Chabalowski, and M. J. Frisch.,  J. Phys. Chem. 98, 11623 (1994) (10.1021/j100096a001)

    Deriv               =              1
    GGA                 =           TRUE
    Meta                =          FALSE

    Exchange Hybrid     =           TRUE
    MP2 Hybrid          =          FALSE

   => Exchange Functionals <=

    0.0800   Slater exchange
    0.7200         Becke 88

   => Exact (HF) Exchange <=

    0.2000               HF 

   => Correlation Functionals <=

    0.1900   Vosko, Wilk & Nusair (VWN5_RPA)
    0.8100   Lee, Yang & Parr

   => LibXC Density Thresholds  <==

    XC_HYB_GGA_XC_B3LYP:  1.00E-15 

   => Molecular Quadrature <=

    Radial Scheme          =       TREUTLER
    Pruning Scheme         =           NONE
    Nuclear Scheme         =       TREUTLER

    Blocking Scheme        =         OCTREE
    BS radius alpha        =              1
    Pruning alpha          =              1
    Radial Points          =             75
    Spherical Points       =            302
    Total Points           =          43462
    Total Blocks           =            407
    Max Points             =            256
    Max Functions          =             32
    Weights Tolerance      =       1.00E-15

   => Loading Basis Set <=

    Name: (CC-PVDZ AUX)
    Role: JKFIT
    Keyword: DF_BASIS_SCF
    atoms 1 entry N          line   171 file /home/jrodriguesro/psi4conda/share/psi4/basis/cc-pvdz-jkfit.gbs 
    atoms 2 entry AL         line   371 file /home/jrodriguesro/psi4conda/share/psi4/basis/cc-pvdz-jkfit.gbs 

   => Loading Basis Set <=

    Name: CC-PVDZ
    Role: ORBITAL
    Keyword: BASIS
    atoms 1 entry N          line   168 file /home/jrodriguesro/psi4conda/share/psi4/basis/cc-pvdz.gbs 
    atoms 2 entry AL         line   418 file /home/jrodriguesro/psi4conda/share/psi4/basis/cc-pvdz.gbs 

  Reading orbitals from file /tmp/triplet_NAl.default.371576.180.npy, no projection.

  ==> Integral Setup <==

  DFHelper Memory: AOs need 0.002 GiB; user supplied 5.549 GiB. 
  SCF_SUBTYPE=INCORE selected. In-core MEM_DF algorithm will be used.
  Using in-core AOs.

  ==> MemDFJK: Density-Fitted J/K Matrices <==

    J tasked:                   Yes
    K tasked:                   Yes
    wK tasked:                   No
    OpenMP threads:               5
    Memory [MiB]:              5682
    Algorithm:                 Core
    Schwarz Cutoff:           1E-12
    Mask sparsity (%):       0.0000
    Fitting Condition:        1E-10

   => Auxiliary Basis Set <=

  Basis Set: (CC-PVDZ AUX)
    Blend: CC-PVDZ-JKFIT
    Number of shells: 60
    Number of basis functions: 182
    Number of Cartesian functions: 211
    Spherical Harmonics?: true
    Max angular momentum: 3

  Cached 100.0% of DFT collocation blocks in 0.039 [GiB].

  Minimum eigenvalue in the overlap matrix is 2.8874671851E-02.
  Reciprocal condition number of the overlap matrix is 9.9908964691E-03.
    Using symmetric orthogonalization.

  ==> Pre-Iterations <==

  SCF Guess: Orbitals guess was supplied from a previous computation.

   -------------------------------------------------------
    Irrep   Nso     Nmo     Nalpha   Nbeta   Ndocc  Nsocc
   -------------------------------------------------------
     A1        16      16       7       6       6       1
     A2         2       2       0       0       0       0
     B1         7       7       2       1       1       1
     B2         7       7       2       2       2       0
   -------------------------------------------------------
    Total      32      32      11       9       9       2
   -------------------------------------------------------

  ==> Iterations <==

                           Total Energy        Delta E     RMS |[F,P]|

   @DF-UKS iter   0:  -297.06455186875132   -2.97065e+02   5.04816e-04 
   @DF-UKS iter   1:  -297.06299956479415    1.55230e-03   8.64771e-05 DIIS
   @DF-UKS iter   2:  -297.06298764004748    1.19247e-05   2.48622e-04 DIIS/ADIIS/DAMP=1%
   @DF-UKS iter   3:  -297.06308526195465   -9.76219e-05   1.88208e-05 DIIS/DAMP=1%
   @DF-UKS iter   4:  -297.06301007929966    7.51827e-05   8.45098e-06 DIIS/DAMP=1%
   @DF-UKS iter   5:  -297.06300459602107    5.48328e-06   1.56062e-06 DIIS/DAMP=1%
   @DF-UKS iter   6:  -297.06300164934640    2.94667e-06   6.21898e-07 DIIS/DAMP=1%
   @DF-UKS iter   7:  -297.06300235517955   -7.05833e-07   1.39569e-07 DIIS/DAMP=1%
   @DF-UKS iter   8:  -297.06300227595619    7.92234e-08   4.25595e-08 DIIS/DAMP=1%
   @DF-UKS iter   9:  -297.06300227919968   -3.24349e-09   1.29764e-08 DIIS/DAMP=1%
   @DF-UKS iter  10:  -297.06300227978204   -5.82361e-10   4.34869e-09 DIIS/DAMP=1%
  Energy and wave function converged.


  ==> Post-Iterations <==

   Electrons on quadrature grid:
      Nalpha   =   11.0000033810 ; deviation = 3.381e-06
      Nbeta    =    9.0000011981 ; deviation = 1.198e-06
      Ntotal   =   20.0000045791 ; deviation = 4.579e-06 

   @Spin Contamination Metric:   2.564929980E-02
   @S^2 Expected:                2.000000000E+00
   @S^2 Observed:                2.025649300E+00
   @S   Expected:                1.000000000E+00
   @S   Observed:                1.000000000E+00

    Orbital Energies [Eh]
    ---------------------

    Alpha Occupied:                                                       

       1A1   -56.082222     2A1   -14.357162     3A1    -4.163645  
       1B1    -2.717720     4A1    -2.715909     1B2    -2.714629  
       5A1    -0.760444     6A1    -0.367062     2B1    -0.307829  
       2B2    -0.260509     7A1    -0.253347  

    Alpha Virtual:                                                        

       3B1    -0.058059     3B2    -0.045987     8A1     0.030132  
       9A1     0.162686     4B1     0.211117     4B2     0.217023  
      10A1     0.255791     1A2     0.261614    11A1     0.262633  
       5B1     0.310248     5B2     0.324751    12A1     0.503275  
       6B1     0.785948    13A1     0.793625     6B2     0.818855  
      14A1     1.252611    15A1     1.766377     2A2     1.766574  
       7B1     1.824430     7B2     1.861580    16A1     2.120044  

    Beta Occupied:                                                        

       1A1   -56.081112     2A1   -14.325773     3A1    -4.162322  
       1B1    -2.716296     1B2    -2.714720     4A1    -2.711560  
       5A1    -0.655974     6A1    -0.294071     2B2    -0.222543  

    Beta Virtual:                                                         

       2B1    -0.131611     7A1    -0.131359     3B2    -0.033274  
       3B1    -0.012647     8A1     0.048396     9A1     0.173213  
       4B2     0.216590     4B1     0.217231     1A2     0.265089  
      10A1     0.265792    11A1     0.283624     5B2     0.339214  
       5B1     0.345472    12A1     0.529891     6B2     0.846758  
      13A1     0.863231     6B1     0.869218    14A1     1.311750  
       2A2     1.841017    15A1     1.847289     7B2     1.920555  
       7B1     1.935259    16A1     2.196997  

    Final Occupation by Irrep:
             A1    A2    B1    B2 
    DOCC [     6,    0,    1,    2 ]
    SOCC [     1,    0,    1,    0 ]
    NA   [     7,    0,    2,    2 ]
    NB   [     6,    0,    1,    2 ]

  @DF-UKS Final Energy:  -297.06300227978204

   => Energetics <=

    Nuclear Repulsion Energy =             26.4884776252378273
    One-Electron Energy =                -463.8379238682821324
    Two-Electron Energy =                 160.8135016225588743
    DFT Exchange-Correlation Energy =     -20.5270576592965632
    Empirical Dispersion Energy =           0.0000000000000000
    VV10 Nonlocal Energy =                  0.0000000000000000
    Total Energy =                       -297.0630022797820402

  UHF NO Occupations:
  HONO-2 :    2 B2 1.9916320
  HONO-1 :    7 A1 1.0000000
  HONO-0 :    2 B1 1.0000000
  LUNO+0 :    3 B2 0.0083680
  LUNO+1 :    8 A1 0.0038300
  LUNO+2 :    9 A1 0.0006688
  LUNO+3 :   10 A1 0.0000002


Computation Completed


Properties will be evaluated at   0.000000,   0.000000,   0.000000 [a0]

Properties computed using the SCF density matrix


 Multipole Moments:

 ------------------------------------------------------------------------------------
     Multipole            Electronic (a.u.)      Nuclear  (a.u.)        Total (a.u.)
 ------------------------------------------------------------------------------------

 L = 1.  Multiply by 2.5417464519 to convert [e a0] to [Debye]
 Dipole X            :          0.0000000            0.0000000            0.0000000
 Dipole Y            :          0.0000000            0.0000000            0.0000000
 Dipole Z            :         -1.4810085            0.5725793           -0.9084292
 Magnitude           :                                                    0.9084292

 ------------------------------------------------------------------------------------

*** tstop() called on cics-quant-001 at Tue Dec 23 10:59:12 2025
Module time:
	user time   =       0.69 seconds =       0.01 minutes
	system time =       0.10 seconds =       0.00 minutes
	total time  =          1 seconds =       0.02 minutes
Total time:
	user time   =      12.01 seconds =       0.20 minutes
	system time =       2.18 seconds =       0.04 minutes
	total time  =          7 seconds =       0.12 minutes

*** tstart() called on cics-quant-001
*** at Tue Dec 23 10:59:12 2025


         ------------------------------------------------------------
                                   SCF GRAD                          
                          Rob Parrish, Justin Turney,                
                       Andy Simmonett, and Alex Sokolov              
         ------------------------------------------------------------

  ==> Geometry <==

    Molecular point group: c2v
    Full point group: C_inf_v

    Geometry (in Angstrom), charge = 0, multiplicity = 3:

       Center              X                  Y                   Z               Mass       
    ------------   -----------------  -----------------  -----------------  -----------------
         N            0.000000000000     0.000000000000     1.196827068088    14.003074004430
         AL           0.000000000000     0.000000000000    -0.621137967589    26.981538530000

  Nuclear repulsion =   26.488477625237827

  ==> Basis Set <==

  Basis Set: CC-PVDZ
    Blend: CC-PVDZ
    Number of shells: 14
    Number of basis functions: 32
    Number of Cartesian functions: 34
    Spherical Harmonics?: true
    Max angular momentum: 2

  ==> DFJKGrad: Density-Fitted SCF Gradients <==

    Gradient:                    1
    J tasked:                  Yes
    K tasked:                  Yes
    wK tasked:                  No
    OpenMP threads:              5
    Integrals threads:           5
    Memory [MiB]:             5722
    Schwarz Cutoff:          1E-12
    Fitting Condition:       1E-10

   => Auxiliary Basis Set <=

  Basis Set: (CC-PVDZ AUX)
    Blend: CC-PVDZ-JKFIT
    Number of shells: 60
    Number of basis functions: 182
    Number of Cartesian functions: 211
    Spherical Harmonics?: true
    Max angular momentum: 3

  ==> DFT Potential <==

   => LibXC <=

    Version 7.0.0
    S. Lehtola, C. Steigemann, M. J.T. Oliveira, and M. A.L. Marques.,  SoftwareX 7, 1–5 (2018) (10.1016/j.softx.2017.11.002)

   => Composite Functional: B3LYP <= 

    B3LYP Hyb-GGA Exchange-Correlation Functional

    P. J. Stephens, F. J. Devlin, C. F. Chabalowski, and M. J. Frisch.,  J. Phys. Chem. 98, 11623 (1994) (10.1021/j100096a001)

    Deriv               =              1
    GGA                 =           TRUE
    Meta                =          FALSE

    Exchange Hybrid     =           TRUE
    MP2 Hybrid          =          FALSE

   => Exchange Functionals <=

    0.0800   Slater exchange
    0.7200         Becke 88

   => Exact (HF) Exchange <=

    0.2000               HF 

   => Correlation Functionals <=

    0.1900   Vosko, Wilk & Nusair (VWN5_RPA)
    0.8100   Lee, Yang & Parr

   => LibXC Density Thresholds  <==

    XC_HYB_GGA_XC_B3LYP:  1.00E-15 

   => Molecular Quadrature <=

    Radial Scheme          =       TREUTLER
    Pruning Scheme         =           NONE
    Nuclear Scheme         =       TREUTLER

    Blocking Scheme        =         OCTREE
    BS radius alpha        =              1
    Pruning alpha          =              1
    Radial Points          =             75
    Spherical Points       =            302
    Total Points           =          43462
    Total Blocks           =            407
    Max Points             =            256
    Max Functions          =             32
    Weights Tolerance      =       1.00E-15


  -Total Gradient:
     Atom            X                  Y                   Z
    ------   -----------------  -----------------  -----------------
       1        0.000000000000    -0.000000000000    -0.001211061515
       2        0.000000000000     0.000000000000     0.001176328864


*** tstop() called on cics-quant-001 at Tue Dec 23 10:59:12 2025
Module time:
	user time   =       0.19 seconds =       0.00 minutes
	system time =       0.12 seconds =       0.00 minutes
	total time  =          0 seconds =       0.00 minutes
Total time:
	user time   =      12.20 seconds =       0.20 minutes
	system time =       2.30 seconds =       0.04 minutes
	total time  =          7 seconds =       0.12 minutes

    			-----------------------------------------

    			 OPTKING 3.0: for geometry optimizations 

    			     By R.A. King, Bethel University     

    			        with contributions from          

    			    A.V. Copan, J. Cayton, A. Heide      

    			-----------------------------------------

    
	                            ===> Fragment 1 <== 

	 Z (Atomic Numbers)          Masses                          Geom                  
	       7.000000            14.003074          0.00000000  0.00000000  2.26167538   
	      13.000000            26.981539          0.00000000  0.00000000 -1.17378064   

	 - Coordinate -           - BOHR/RAD -       - ANG/DEG -
	 R(1,2)           =         3.435456           1.817965


	        --- Internal Coordinate Step in ANG or DEG, aJ/ANG or AJ/DEG ---
	-------------------------------------------------------------------------------
	           Coordinate      Previous         Force          Change          New 
	           ----------      --------        ------          ------        ------
	               R(1,2)       1.81797        0.00983        0.00211       1.82008
	-------------------------------------------------------------------------------

	                                 ==> Convergence Check <==                                  
    
	Measures of convergence in internal coordinates in au.
    
	Criteria marked as inactive (o), active & met (*), and active & unmet ( ).

	----------------------------------------------------------------------------------------------
	   Step    Total Energy     Delta E     Max Force     RMS Force      Max Disp      RMS Disp   
	----------------------------------------------------------------------------------------------
	  Convergence Criteria     1.00e-06 *    3.00e-04 *             o    1.20e-03 *             o
	----------------------------------------------------------------------------------------------
	    11    -297.06300228    1.56e-06      1.19e-03      1.19e-03 o    3.99e-03      3.99e-03 o  ~
	----------------------------------------------------------------------------------------------

Next Geometry in Ang 
	Fragment 1 (Ang)

	    N   0.0000000000   0.0000000000   1.1978826752
	   Al   0.0000000000   0.0000000000  -0.6221935747


    Structure for next step:
    Molecular point group: c2v
    Full point group: C_inf_v

    Geometry (in Angstrom), charge = 0, multiplicity = 3:

    N            0.000000000000     0.000000000000     1.198216950950
    AL           0.000000000000     0.000000000000    -0.621859299049


Scratch directory: /tmp/
gradient() will perform analytic gradient computation.
   => Libint2 <=

    Primary   basis highest AM E, G, H:  6, 6, 3
    Auxiliary basis highest AM E, G, H:  7, 7, 4
    Onebody   basis highest AM E, G, H:  -, -, -
    Solid Harmonics ordering:            Gaussian

*** tstart() called on cics-quant-001
*** at Tue Dec 23 10:59:12 2025

   => Loading Basis Set <=

    Name: CC-PVDZ
    Role: ORBITAL
    Keyword: BASIS
    atoms 1 entry N          line   168 file /home/jrodriguesro/psi4conda/share/psi4/basis/cc-pvdz.gbs 
    atoms 2 entry AL         line   418 file /home/jrodriguesro/psi4conda/share/psi4/basis/cc-pvdz.gbs 


         ---------------------------------------------------------
                                   SCF
               by Justin Turney, Rob Parrish, Andy Simmonett
                          and Daniel G. A. Smith
                              UKS Reference
                        5 Threads,   7629 MiB Core
         ---------------------------------------------------------

  ==> Geometry <==

    Molecular point group: c2v
    Full point group: C_inf_v

    Geometry (in Angstrom), charge = 0, multiplicity = 3:

       Center              X                  Y                   Z               Mass       
    ------------   -----------------  -----------------  -----------------  -----------------
         N            0.000000000000     0.000000000000     1.198216950950    14.003074004430
         AL           0.000000000000     0.000000000000    -0.621859299049    26.981538530000

  Running in c2v symmetry.

  Rotational constants: A = ************  B =      0.55201  C =      0.55201 [cm^-1]
  Rotational constants: A = ************  B =  16548.88635  C =  16548.88635 [MHz]
  Nuclear repulsion =   26.457752070004005

  Charge       = 0
  Multiplicity = 3
  Electrons    = 20
  Nalpha       = 11
  Nbeta        = 9

  ==> Algorithm <==

  SCF Algorithm Type is DF.
  DIIS enabled.
  MOM disabled.
  Fractional occupation disabled.
  Guess Type is READ.
  Energy threshold   = 1.00e-08
  Density threshold  = 1.00e-08
  Integral threshold = 1.00e-12

  ==> Primary Basis <==

  Basis Set: CC-PVDZ
    Blend: CC-PVDZ
    Number of shells: 14
    Number of basis functions: 32
    Number of Cartesian functions: 34
    Spherical Harmonics?: true
    Max angular momentum: 2

  ==> DFT Potential <==

   => LibXC <=

    Version 7.0.0
    S. Lehtola, C. Steigemann, M. J.T. Oliveira, and M. A.L. Marques.,  SoftwareX 7, 1–5 (2018) (10.1016/j.softx.2017.11.002)

   => Composite Functional: B3LYP <= 

    B3LYP Hyb-GGA Exchange-Correlation Functional

    P. J. Stephens, F. J. Devlin, C. F. Chabalowski, and M. J. Frisch.,  J. Phys. Chem. 98, 11623 (1994) (10.1021/j100096a001)

    Deriv               =              1
    GGA                 =           TRUE
    Meta                =          FALSE

    Exchange Hybrid     =           TRUE
    MP2 Hybrid          =          FALSE

   => Exchange Functionals <=

    0.0800   Slater exchange
    0.7200         Becke 88

   => Exact (HF) Exchange <=

    0.2000               HF 

   => Correlation Functionals <=

    0.1900   Vosko, Wilk & Nusair (VWN5_RPA)
    0.8100   Lee, Yang & Parr

   => LibXC Density Thresholds  <==

    XC_HYB_GGA_XC_B3LYP:  1.00E-15 

   => Molecular Quadrature <=

    Radial Scheme          =       TREUTLER
    Pruning Scheme         =           NONE
    Nuclear Scheme         =       TREUTLER

    Blocking Scheme        =         OCTREE
    BS radius alpha        =              1
    Pruning alpha          =              1
    Radial Points          =             75
    Spherical Points       =            302
    Total Points           =          43458
    Total Blocks           =            407
    Max Points             =            256
    Max Functions          =             32
    Weights Tolerance      =       1.00E-15

   => Loading Basis Set <=

    Name: (CC-PVDZ AUX)
    Role: JKFIT
    Keyword: DF_BASIS_SCF
    atoms 1 entry N          line   171 file /home/jrodriguesro/psi4conda/share/psi4/basis/cc-pvdz-jkfit.gbs 
    atoms 2 entry AL         line   371 file /home/jrodriguesro/psi4conda/share/psi4/basis/cc-pvdz-jkfit.gbs 

   => Loading Basis Set <=

    Name: CC-PVDZ
    Role: ORBITAL
    Keyword: BASIS
    atoms 1 entry N          line   168 file /home/jrodriguesro/psi4conda/share/psi4/basis/cc-pvdz.gbs 
    atoms 2 entry AL         line   418 file /home/jrodriguesro/psi4conda/share/psi4/basis/cc-pvdz.gbs 

  Reading orbitals from file /tmp/triplet_NAl.default.371576.180.npy, no projection.

  ==> Integral Setup <==

  DFHelper Memory: AOs need 0.002 GiB; user supplied 5.549 GiB. 
  SCF_SUBTYPE=INCORE selected. In-core MEM_DF algorithm will be used.
  Using in-core AOs.

  ==> MemDFJK: Density-Fitted J/K Matrices <==

    J tasked:                   Yes
    K tasked:                   Yes
    wK tasked:                   No
    OpenMP threads:               5
    Memory [MiB]:              5682
    Algorithm:                 Core
    Schwarz Cutoff:           1E-12
    Mask sparsity (%):       0.0000
    Fitting Condition:        1E-10

   => Auxiliary Basis Set <=

  Basis Set: (CC-PVDZ AUX)
    Blend: CC-PVDZ-JKFIT
    Number of shells: 60
    Number of basis functions: 182
    Number of Cartesian functions: 211
    Spherical Harmonics?: true
    Max angular momentum: 3

  Cached 100.0% of DFT collocation blocks in 0.039 [GiB].

  Minimum eigenvalue in the overlap matrix is 2.9040875030E-02.
  Reciprocal condition number of the overlap matrix is 1.0051958820E-02.
    Using symmetric orthogonalization.

  ==> Pre-Iterations <==

  SCF Guess: Orbitals guess was supplied from a previous computation.

   -------------------------------------------------------
    Irrep   Nso     Nmo     Nalpha   Nbeta   Ndocc  Nsocc
   -------------------------------------------------------
     A1        16      16       7       6       6       1
     A2         2       2       0       0       0       0
     B1         7       7       2       1       1       1
     B2         7       7       2       2       2       0
   -------------------------------------------------------
    Total      32      32      11       9       9       2
   -------------------------------------------------------

  ==> Iterations <==

                           Total Energy        Delta E     RMS |[F,P]|

   @DF-UKS iter   0:  -297.06247337997490   -2.97062e+02   1.74424e-04 
   @DF-UKS iter   1:  -297.06300521905899   -5.31839e-04   2.98361e-05 DIIS
   @DF-UKS iter   2:  -297.06300379052311    1.42854e-06   8.59590e-05 DIIS/DAMP=1%
   @DF-UKS iter   3:  -297.06297680495624    2.69856e-05   6.57642e-06 DIIS/DAMP=1%
   @DF-UKS iter   4:  -297.06300279795948   -2.59930e-05   2.91307e-06 DIIS/DAMP=1%
   @DF-UKS iter   5:  -297.06300474553603   -1.94758e-06   5.37012e-07 DIIS/DAMP=1%
   @DF-UKS iter   6:  -297.06300575851509   -1.01298e-06   2.14505e-07 DIIS/DAMP=1%
   @DF-UKS iter   7:  -297.06300551512436    2.43391e-07   4.81836e-08 DIIS/DAMP=1%
   @DF-UKS iter   8:  -297.06300554275208   -2.76277e-08   1.48377e-08 DIIS/DAMP=1%
   @DF-UKS iter   9:  -297.06300554149851    1.25357e-09   4.57852e-09 DIIS/DAMP=1%
  Energy and wave function converged.


  ==> Post-Iterations <==

   Electrons on quadrature grid:
      Nalpha   =   11.0000033935 ; deviation = 3.393e-06
      Nbeta    =    9.0000012016 ; deviation = 1.202e-06
      Ntotal   =   20.0000045951 ; deviation = 4.595e-06 

   @Spin Contamination Metric:   2.581381745E-02
   @S^2 Expected:                2.000000000E+00
   @S^2 Observed:                2.025813817E+00
   @S   Expected:                1.000000000E+00
   @S   Observed:                1.000000000E+00

    Orbital Energies [Eh]
    ---------------------

    Alpha Occupied:                                                       

       1A1   -56.082406     2A1   -14.357232     3A1    -4.163761  
       1B1    -2.717838     4A1    -2.716016     1B2    -2.714751  
       5A1    -0.760226     6A1    -0.367054     2B1    -0.307672  
       2B2    -0.260363     7A1    -0.253393  

    Alpha Virtual:                                                        

       3B1    -0.058166     3B2    -0.046104     8A1     0.030013  
       9A1     0.162655     4B1     0.211109     4B2     0.217009  
      10A1     0.255657     1A2     0.261617    11A1     0.262612  
       5B1     0.309998     5B2     0.324479    12A1     0.502405  
       6B1     0.785895    13A1     0.793390     6B2     0.818793  
      14A1     1.252551    15A1     1.766406     2A2     1.766606  
       7B1     1.824108     7B2     1.861247    16A1     2.119098  

    Beta Occupied:                                                        

       1A1   -56.081302     2A1   -14.325817     3A1    -4.162445  
       1B1    -2.716422     1B2    -2.714848     4A1    -2.711681  
       5A1    -0.655657     6A1    -0.294173     2B2    -0.222325  

    Beta Virtual:                                                         

       2B1    -0.131446     7A1    -0.131289     3B2    -0.033424  
       3B1    -0.012749     8A1     0.048313     9A1     0.173148  
       4B2     0.216539     4B1     0.217187     1A2     0.265038  
      10A1     0.265741    11A1     0.283442     5B2     0.338910  
       5B1     0.345171    12A1     0.529028     6B2     0.846737  
      13A1     0.863082     6B1     0.869202    14A1     1.311714  
       2A2     1.841099    15A1     1.847370     7B2     1.920314  
       7B1     1.935039    16A1     2.196170  

    Final Occupation by Irrep:
             A1    A2    B1    B2 
    DOCC [     6,    0,    1,    2 ]
    SOCC [     1,    0,    1,    0 ]
    NA   [     7,    0,    2,    2 ]
    NB   [     6,    0,    1,    2 ]

  @DF-UKS Final Energy:  -297.06300554149851

   => Energetics <=

    Nuclear Repulsion Energy =             26.4577520700040054
    One-Electron Energy =                -463.7762690625078221
    Two-Electron Energy =                 160.7820993380361188
    DFT Exchange-Correlation Energy =     -20.5265878870308356
    Empirical Dispersion Energy =           0.0000000000000000
    VV10 Nonlocal Energy =                  0.0000000000000000
    Total Energy =                       -297.0630055414985122

  UHF NO Occupations:
  HONO-2 :    2 B2 1.9915588
  HONO-1 :    2 B1 1.0000000
  HONO-0 :    7 A1 1.0000000
  LUNO+0 :    3 B2 0.0084412
  LUNO+1 :    8 A1 0.0038391
  LUNO+2 :    9 A1 0.0006694
  LUNO+3 :   10 A1 0.0000002


Computation Completed


Properties will be evaluated at   0.000000,   0.000000,   0.000000 [a0]

Properties computed using the SCF density matrix


 Multipole Moments:

 ------------------------------------------------------------------------------------
     Multipole            Electronic (a.u.)      Nuclear  (a.u.)        Total (a.u.)
 ------------------------------------------------------------------------------------

 L = 1.  Multiply by 2.5417464519 to convert [e a0] to [Debye]
 Dipole X            :          0.0000000            0.0000000            0.0000000
 Dipole Y            :          0.0000000            0.0000000            0.0000000
 Dipole Z            :         -1.4824794            0.5732442           -0.9092352
 Magnitude           :                                                    0.9092352

 ------------------------------------------------------------------------------------

*** tstop() called on cics-quant-001 at Tue Dec 23 10:59:12 2025
Module time:
	user time   =       0.70 seconds =       0.01 minutes
	system time =       0.08 seconds =       0.00 minutes
	total time  =          0 seconds =       0.00 minutes
Total time:
	user time   =      12.92 seconds =       0.22 minutes
	system time =       2.38 seconds =       0.04 minutes
	total time  =          7 seconds =       0.12 minutes

*** tstart() called on cics-quant-001
*** at Tue Dec 23 10:59:12 2025


         ------------------------------------------------------------
                                   SCF GRAD                          
                          Rob Parrish, Justin Turney,                
                       Andy Simmonett, and Alex Sokolov              
         ------------------------------------------------------------

  ==> Geometry <==

    Molecular point group: c2v
    Full point group: C_inf_v

    Geometry (in Angstrom), charge = 0, multiplicity = 3:

       Center              X                  Y                   Z               Mass       
    ------------   -----------------  -----------------  -----------------  -----------------
         N            0.000000000000     0.000000000000     1.198216950950    14.003074004430
         AL           0.000000000000     0.000000000000    -0.621859299049    26.981538530000

  Nuclear repulsion =   26.457752070004005

  ==> Basis Set <==

  Basis Set: CC-PVDZ
    Blend: CC-PVDZ
    Number of shells: 14
    Number of basis functions: 32
    Number of Cartesian functions: 34
    Spherical Harmonics?: true
    Max angular momentum: 2

  ==> DFJKGrad: Density-Fitted SCF Gradients <==

    Gradient:                    1
    J tasked:                  Yes
    K tasked:                  Yes
    wK tasked:                  No
    OpenMP threads:              5
    Integrals threads:           5
    Memory [MiB]:             5722
    Schwarz Cutoff:          1E-12
    Fitting Condition:       1E-10

   => Auxiliary Basis Set <=

  Basis Set: (CC-PVDZ AUX)
    Blend: CC-PVDZ-JKFIT
    Number of shells: 60
    Number of basis functions: 182
    Number of Cartesian functions: 211
    Spherical Harmonics?: true
    Max angular momentum: 3

  ==> DFT Potential <==

   => LibXC <=

    Version 7.0.0
    S. Lehtola, C. Steigemann, M. J.T. Oliveira, and M. A.L. Marques.,  SoftwareX 7, 1–5 (2018) (10.1016/j.softx.2017.11.002)

   => Composite Functional: B3LYP <= 

    B3LYP Hyb-GGA Exchange-Correlation Functional

    P. J. Stephens, F. J. Devlin, C. F. Chabalowski, and M. J. Frisch.,  J. Phys. Chem. 98, 11623 (1994) (10.1021/j100096a001)

    Deriv               =              1
    GGA                 =           TRUE
    Meta                =          FALSE

    Exchange Hybrid     =           TRUE
    MP2 Hybrid          =          FALSE

   => Exchange Functionals <=

    0.0800   Slater exchange
    0.7200         Becke 88

   => Exact (HF) Exchange <=

    0.2000               HF 

   => Correlation Functionals <=

    0.1900   Vosko, Wilk & Nusair (VWN5_RPA)
    0.8100   Lee, Yang & Parr

   => LibXC Density Thresholds  <==

    XC_HYB_GGA_XC_B3LYP:  1.00E-15 

   => Molecular Quadrature <=

    Radial Scheme          =       TREUTLER
    Pruning Scheme         =           NONE
    Nuclear Scheme         =       TREUTLER

    Blocking Scheme        =         OCTREE
    BS radius alpha        =              1
    Pruning alpha          =              1
    Radial Points          =             75
    Spherical Points       =            302
    Total Points           =          43458
    Total Blocks           =            407
    Max Points             =            256
    Max Functions          =             32
    Weights Tolerance      =       1.00E-15


  -Total Gradient:
     Atom            X                  Y                   Z
    ------   -----------------  -----------------  -----------------
       1       -0.000000000000     0.000000000000    -0.000485668991
       2        0.000000000000    -0.000000000000     0.000451150050


*** tstop() called on cics-quant-001 at Tue Dec 23 10:59:12 2025
Module time:
	user time   =       0.18 seconds =       0.00 minutes
	system time =       0.12 seconds =       0.00 minutes
	total time  =          0 seconds =       0.00 minutes
Total time:
	user time   =      13.10 seconds =       0.22 minutes
	system time =       2.50 seconds =       0.04 minutes
	total time  =          7 seconds =       0.12 minutes

    			-----------------------------------------

    			 OPTKING 3.0: for geometry optimizations 

    			     By R.A. King, Bethel University     

    			        with contributions from          

    			    A.V. Copan, J. Cayton, A. Heide      

    			-----------------------------------------

    
	                            ===> Fragment 1 <== 

	 Z (Atomic Numbers)          Masses                          Geom                  
	       7.000000            14.003074          0.00000000  0.00000000  2.26430188   
	      13.000000            26.981539          0.00000000  0.00000000 -1.17514376   

	 - Coordinate -           - BOHR/RAD -       - ANG/DEG -
	 R(1,2)           =         3.439446           1.820076


	        --- Internal Coordinate Step in ANG or DEG, aJ/ANG or AJ/DEG ---
	-------------------------------------------------------------------------------
	           Coordinate      Previous         Force          Change          New 
	           ----------      --------        ------          ------        ------
	               R(1,2)       1.82008        0.00386        0.00120       1.82127
	-------------------------------------------------------------------------------

	                                 ==> Convergence Check <==                                  
    
	Measures of convergence in internal coordinates in au.
    
	Criteria marked as inactive (o), active & met (*), and active & unmet ( ).

	----------------------------------------------------------------------------------------------
	   Step    Total Energy     Delta E     Max Force     RMS Force      Max Disp      RMS Disp   
	----------------------------------------------------------------------------------------------
	  Convergence Criteria     1.00e-06 *    3.00e-04 *             o    1.20e-03 *             o
	----------------------------------------------------------------------------------------------
	    12    -297.06300554   -3.26e-06      4.68e-04      4.68e-04 o    2.26e-03      2.26e-03 o  ~
	----------------------------------------------------------------------------------------------

Next Geometry in Ang 
	Fragment 1 (Ang)

	    N   0.0000000000   0.0000000000   1.1988149280
	   Al   0.0000000000   0.0000000000  -0.6224572761


    Structure for next step:
    Molecular point group: c2v
    Full point group: C_inf_v

    Geometry (in Angstrom), charge = 0, multiplicity = 3:

    N            0.000000000000     0.000000000000     1.199004287504
    AL           0.000000000000     0.000000000000    -0.622267916667


Scratch directory: /tmp/
gradient() will perform analytic gradient computation.
   => Libint2 <=

    Primary   basis highest AM E, G, H:  6, 6, 3
    Auxiliary basis highest AM E, G, H:  7, 7, 4
    Onebody   basis highest AM E, G, H:  -, -, -
    Solid Harmonics ordering:            Gaussian

*** tstart() called on cics-quant-001
*** at Tue Dec 23 10:59:12 2025

   => Loading Basis Set <=

    Name: CC-PVDZ
    Role: ORBITAL
    Keyword: BASIS
    atoms 1 entry N          line   168 file /home/jrodriguesro/psi4conda/share/psi4/basis/cc-pvdz.gbs 
    atoms 2 entry AL         line   418 file /home/jrodriguesro/psi4conda/share/psi4/basis/cc-pvdz.gbs 


         ---------------------------------------------------------
                                   SCF
               by Justin Turney, Rob Parrish, Andy Simmonett
                          and Daniel G. A. Smith
                              UKS Reference
                        5 Threads,   7629 MiB Core
         ---------------------------------------------------------

  ==> Geometry <==

    Molecular point group: c2v
    Full point group: C_inf_v

    Geometry (in Angstrom), charge = 0, multiplicity = 3:

       Center              X                  Y                   Z               Mass       
    ------------   -----------------  -----------------  -----------------  -----------------
         N            0.000000000000     0.000000000000     1.199004287504    14.003074004430
         AL           0.000000000000     0.000000000000    -0.622267916667    26.981538530000

  Running in c2v symmetry.

  Rotational constants: A = ************  B =      0.55129  C =      0.55129 [cm^-1]
  Rotational constants: A = ************  B =  16527.15955  C =  16527.15955 [MHz]
  Nuclear repulsion =   26.440378357874149

  Charge       = 0
  Multiplicity = 3
  Electrons    = 20
  Nalpha       = 11
  Nbeta        = 9

  ==> Algorithm <==

  SCF Algorithm Type is DF.
  DIIS enabled.
  MOM disabled.
  Fractional occupation disabled.
  Guess Type is READ.
  Energy threshold   = 1.00e-08
  Density threshold  = 1.00e-08
  Integral threshold = 1.00e-12

  ==> Primary Basis <==

  Basis Set: CC-PVDZ
    Blend: CC-PVDZ
    Number of shells: 14
    Number of basis functions: 32
    Number of Cartesian functions: 34
    Spherical Harmonics?: true
    Max angular momentum: 2

  ==> DFT Potential <==

   => LibXC <=

    Version 7.0.0
    S. Lehtola, C. Steigemann, M. J.T. Oliveira, and M. A.L. Marques.,  SoftwareX 7, 1–5 (2018) (10.1016/j.softx.2017.11.002)

   => Composite Functional: B3LYP <= 

    B3LYP Hyb-GGA Exchange-Correlation Functional

    P. J. Stephens, F. J. Devlin, C. F. Chabalowski, and M. J. Frisch.,  J. Phys. Chem. 98, 11623 (1994) (10.1021/j100096a001)

    Deriv               =              1
    GGA                 =           TRUE
    Meta                =          FALSE

    Exchange Hybrid     =           TRUE
    MP2 Hybrid          =          FALSE

   => Exchange Functionals <=

    0.0800   Slater exchange
    0.7200         Becke 88

   => Exact (HF) Exchange <=

    0.2000               HF 

   => Correlation Functionals <=

    0.1900   Vosko, Wilk & Nusair (VWN5_RPA)
    0.8100   Lee, Yang & Parr

   => LibXC Density Thresholds  <==

    XC_HYB_GGA_XC_B3LYP:  1.00E-15 

   => Molecular Quadrature <=

    Radial Scheme          =       TREUTLER
    Pruning Scheme         =           NONE
    Nuclear Scheme         =       TREUTLER

    Blocking Scheme        =         OCTREE
    BS radius alpha        =              1
    Pruning alpha          =              1
    Radial Points          =             75
    Spherical Points       =            302
    Total Points           =          43462
    Total Blocks           =            407
    Max Points             =            256
    Max Functions          =             32
    Weights Tolerance      =       1.00E-15

   => Loading Basis Set <=

    Name: (CC-PVDZ AUX)
    Role: JKFIT
    Keyword: DF_BASIS_SCF
    atoms 1 entry N          line   171 file /home/jrodriguesro/psi4conda/share/psi4/basis/cc-pvdz-jkfit.gbs 
    atoms 2 entry AL         line   371 file /home/jrodriguesro/psi4conda/share/psi4/basis/cc-pvdz-jkfit.gbs 

   => Loading Basis Set <=

    Name: CC-PVDZ
    Role: ORBITAL
    Keyword: BASIS
    atoms 1 entry N          line   168 file /home/jrodriguesro/psi4conda/share/psi4/basis/cc-pvdz.gbs 
    atoms 2 entry AL         line   418 file /home/jrodriguesro/psi4conda/share/psi4/basis/cc-pvdz.gbs 

  Reading orbitals from file /tmp/triplet_NAl.default.371576.180.npy, no projection.

  ==> Integral Setup <==

  DFHelper Memory: AOs need 0.002 GiB; user supplied 5.549 GiB. 
  SCF_SUBTYPE=INCORE selected. In-core MEM_DF algorithm will be used.
  Using in-core AOs.

  ==> MemDFJK: Density-Fitted J/K Matrices <==

    J tasked:                   Yes
    K tasked:                   Yes
    wK tasked:                   No
    OpenMP threads:               5
    Memory [MiB]:              5682
    Algorithm:                 Core
    Schwarz Cutoff:           1E-12
    Mask sparsity (%):       0.0000
    Fitting Condition:        1E-10

   => Auxiliary Basis Set <=

  Basis Set: (CC-PVDZ AUX)
    Blend: CC-PVDZ-JKFIT
    Number of shells: 60
    Number of basis functions: 182
    Number of Cartesian functions: 211
    Spherical Harmonics?: true
    Max angular momentum: 3

  Cached 100.0% of DFT collocation blocks in 0.039 [GiB].

  Minimum eigenvalue in the overlap matrix is 2.9135164634E-02.
  Reciprocal condition number of the overlap matrix is 1.0086620376E-02.
    Using symmetric orthogonalization.

  ==> Pre-Iterations <==

  SCF Guess: Orbitals guess was supplied from a previous computation.

   -------------------------------------------------------
    Irrep   Nso     Nmo     Nalpha   Nbeta   Ndocc  Nsocc
   -------------------------------------------------------
     A1        16      16       7       6       6       1
     A2         2       2       0       0       0       0
     B1         7       7       2       1       1       1
     B2         7       7       2       2       2       0
   -------------------------------------------------------
    Total      32      32      11       9       9       2
   -------------------------------------------------------

  ==> Iterations <==

                           Total Energy        Delta E     RMS |[F,P]|

   @DF-UKS iter   0:  -297.06270455525504   -2.97063e+02   9.85577e-05 
   @DF-UKS iter   1:  -297.06300600815604   -3.01453e-04   1.69727e-05 DIIS
   @DF-UKS iter   2:  -297.06300554640274    4.61753e-07   4.88618e-05 DIIS/DAMP=1%
   @DF-UKS iter   3:  -297.06298977936160    1.57670e-05   3.72113e-06 DIIS/DAMP=1%
   @DF-UKS iter   4:  -297.06300455882985   -1.47795e-05   1.65043e-06 DIIS/DAMP=1%
   @DF-UKS iter   5:  -297.06300565935305   -1.10052e-06   3.04912e-07 DIIS/DAMP=1%
   @DF-UKS iter   6:  -297.06300623565272   -5.76300e-07   1.21587e-07 DIIS/DAMP=1%
   @DF-UKS iter   7:  -297.06300609715839    1.38494e-07   2.73722e-08 DIIS/DAMP=1%
   @DF-UKS iter   8:  -297.06300611283257   -1.56742e-08   8.43298e-09 DIIS/DAMP=1%
   @DF-UKS iter   9:  -297.06300611215067    6.81894e-10   2.60125e-09 DIIS/DAMP=1%
  Energy and wave function converged.


  ==> Post-Iterations <==

   Electrons on quadrature grid:
      Nalpha   =   11.0000034003 ; deviation = 3.400e-06
      Nbeta    =    9.0000012036 ; deviation = 1.204e-06
      Ntotal   =   20.0000046039 ; deviation = 4.604e-06 

   @Spin Contamination Metric:   2.590752558E-02
   @S^2 Expected:                2.000000000E+00
   @S^2 Observed:                2.025907526E+00
   @S   Expected:                1.000000000E+00
   @S   Observed:                1.000000000E+00

    Orbital Energies [Eh]
    ---------------------

    Alpha Occupied:                                                       

       1A1   -56.082511     2A1   -14.357271     3A1    -4.163826  
       1B1    -2.717905     4A1    -2.716076     1B2    -2.714820  
       5A1    -0.760103     6A1    -0.367050     2B1    -0.307584  
       2B2    -0.260281     7A1    -0.253419  

    Alpha Virtual:                                                        

       3B1    -0.058226     3B2    -0.046171     8A1     0.029945  
       9A1     0.162638     4B1     0.211105     4B2     0.217001  
      10A1     0.255580     1A2     0.261619    11A1     0.262601  
       5B1     0.309857     5B2     0.324325    12A1     0.501913  
       6B1     0.785864    13A1     0.793258     6B2     0.818758  
      14A1     1.252517    15A1     1.766422     2A2     1.766625  
       7B1     1.823926     7B2     1.861059    16A1     2.118560  

    Beta Occupied:                                                        

       1A1   -56.081410     2A1   -14.325841     3A1    -4.162514  
       1B1    -2.716493     1B2    -2.714921     4A1    -2.711749  
       5A1    -0.655477     6A1    -0.294231     2B2    -0.222202  

    Beta Virtual:                                                         

       2B1    -0.131353     7A1    -0.131250     3B2    -0.033509  
       3B1    -0.012806     8A1     0.048265     9A1     0.173111  
       4B2     0.216510     4B1     0.217161     1A2     0.265010  
      10A1     0.265712    11A1     0.283339     5B2     0.338737  
       5B1     0.345001    12A1     0.528540     6B2     0.846724  
      13A1     0.862999     6B1     0.869193    14A1     1.311694  
       2A2     1.841146    15A1     1.847415     7B2     1.920178  
       7B1     1.934915    16A1     2.195699  

    Final Occupation by Irrep:
             A1    A2    B1    B2 
    DOCC [     6,    0,    1,    2 ]
    SOCC [     1,    0,    1,    0 ]
    NA   [     7,    0,    2,    2 ]
    NB   [     6,    0,    1,    2 ]

  @DF-UKS Final Energy:  -297.06300611215067

   => Energetics <=

    Nuclear Repulsion Energy =             26.4403783578741489
    One-Electron Energy =                -463.7414044931265948
    Two-Electron Energy =                 160.7643428868814510
    DFT Exchange-Correlation Energy =     -20.5263228637796722
    Empirical Dispersion Energy =           0.0000000000000000
    VV10 Nonlocal Energy =                  0.0000000000000000
    Total Energy =                       -297.0630061121506742

  UHF NO Occupations:
  HONO-2 :    2 B2 1.9915171
  HONO-1 :    2 B1 1.0000000
  HONO-0 :    7 A1 1.0000000
  LUNO+0 :    3 B2 0.0084829
  LUNO+1 :    8 A1 0.0038442
  LUNO+2 :    9 A1 0.0006698
  LUNO+3 :   10 A1 0.0000002


Computation Completed


Properties will be evaluated at   0.000000,   0.000000,   0.000000 [a0]

Properties computed using the SCF density matrix


 Multipole Moments:

 ------------------------------------------------------------------------------------
     Multipole            Electronic (a.u.)      Nuclear  (a.u.)        Total (a.u.)
 ------------------------------------------------------------------------------------

 L = 1.  Multiply by 2.5417464519 to convert [e a0] to [Debye]
 Dipole X            :          0.0000000            0.0000000            0.0000000
 Dipole Y            :          0.0000000            0.0000000            0.0000000
 Dipole Z            :         -1.4833154            0.5736209           -0.9096945
 Magnitude           :                                                    0.9096945

 ------------------------------------------------------------------------------------

*** tstop() called on cics-quant-001 at Tue Dec 23 10:59:13 2025
Module time:
	user time   =       0.61 seconds =       0.01 minutes
	system time =       0.09 seconds =       0.00 minutes
	total time  =          1 seconds =       0.02 minutes
Total time:
	user time   =      13.73 seconds =       0.23 minutes
	system time =       2.59 seconds =       0.04 minutes
	total time  =          8 seconds =       0.13 minutes

*** tstart() called on cics-quant-001
*** at Tue Dec 23 10:59:13 2025


         ------------------------------------------------------------
                                   SCF GRAD                          
                          Rob Parrish, Justin Turney,                
                       Andy Simmonett, and Alex Sokolov              
         ------------------------------------------------------------

  ==> Geometry <==

    Molecular point group: c2v
    Full point group: C_inf_v

    Geometry (in Angstrom), charge = 0, multiplicity = 3:

       Center              X                  Y                   Z               Mass       
    ------------   -----------------  -----------------  -----------------  -----------------
         N            0.000000000000     0.000000000000     1.199004287504    14.003074004430
         AL           0.000000000000     0.000000000000    -0.622267916667    26.981538530000

  Nuclear repulsion =   26.440378357874149

  ==> Basis Set <==

  Basis Set: CC-PVDZ
    Blend: CC-PVDZ
    Number of shells: 14
    Number of basis functions: 32
    Number of Cartesian functions: 34
    Spherical Harmonics?: true
    Max angular momentum: 2

  ==> DFJKGrad: Density-Fitted SCF Gradients <==

    Gradient:                    1
    J tasked:                  Yes
    K tasked:                  Yes
    wK tasked:                  No
    OpenMP threads:              5
    Integrals threads:           5
    Memory [MiB]:             5722
    Schwarz Cutoff:          1E-12
    Fitting Condition:       1E-10

   => Auxiliary Basis Set <=

  Basis Set: (CC-PVDZ AUX)
    Blend: CC-PVDZ-JKFIT
    Number of shells: 60
    Number of basis functions: 182
    Number of Cartesian functions: 211
    Spherical Harmonics?: true
    Max angular momentum: 3

  ==> DFT Potential <==

   => LibXC <=

    Version 7.0.0
    S. Lehtola, C. Steigemann, M. J.T. Oliveira, and M. A.L. Marques.,  SoftwareX 7, 1–5 (2018) (10.1016/j.softx.2017.11.002)

   => Composite Functional: B3LYP <= 

    B3LYP Hyb-GGA Exchange-Correlation Functional

    P. J. Stephens, F. J. Devlin, C. F. Chabalowski, and M. J. Frisch.,  J. Phys. Chem. 98, 11623 (1994) (10.1021/j100096a001)

    Deriv               =              1
    GGA                 =           TRUE
    Meta                =          FALSE

    Exchange Hybrid     =           TRUE
    MP2 Hybrid          =          FALSE

   => Exchange Functionals <=

    0.0800   Slater exchange
    0.7200         Becke 88

   => Exact (HF) Exchange <=

    0.2000               HF 

   => Correlation Functionals <=

    0.1900   Vosko, Wilk & Nusair (VWN5_RPA)
    0.8100   Lee, Yang & Parr

   => LibXC Density Thresholds  <==

    XC_HYB_GGA_XC_B3LYP:  1.00E-15 

   => Molecular Quadrature <=

    Radial Scheme          =       TREUTLER
    Pruning Scheme         =           NONE
    Nuclear Scheme         =       TREUTLER

    Blocking Scheme        =         OCTREE
    BS radius alpha        =              1
    Pruning alpha          =              1
    Radial Points          =             75
    Spherical Points       =            302
    Total Points           =          43462
    Total Blocks           =            407
    Max Points             =            256
    Max Functions          =             32
    Weights Tolerance      =       1.00E-15


  -Total Gradient:
     Atom            X                  Y                   Z
    ------   -----------------  -----------------  -----------------
       1       -0.000000000000    -0.000000000000    -0.000078225902
       2        0.000000000000    -0.000000000000     0.000043858303


*** tstop() called on cics-quant-001 at Tue Dec 23 10:59:13 2025
Module time:
	user time   =       0.21 seconds =       0.00 minutes
	system time =       0.11 seconds =       0.00 minutes
	total time  =          0 seconds =       0.00 minutes
Total time:
	user time   =      13.94 seconds =       0.23 minutes
	system time =       2.70 seconds =       0.05 minutes
	total time  =          8 seconds =       0.13 minutes

    			-----------------------------------------

    			 OPTKING 3.0: for geometry optimizations 

    			     By R.A. King, Bethel University     

    			        with contributions from          

    			    A.V. Copan, J. Cayton, A. Heide      

    			-----------------------------------------

    
	                            ===> Fragment 1 <== 

	 Z (Atomic Numbers)          Masses                          Geom                  
	       7.000000            14.003074          0.00000000  0.00000000  2.26578973   
	      13.000000            26.981539          0.00000000  0.00000000 -1.17591594   

	 - Coordinate -           - BOHR/RAD -       - ANG/DEG -
	 R(1,2)           =         3.441706           1.821272


	        --- Internal Coordinate Step in ANG or DEG, aJ/ANG or AJ/DEG ---
	-------------------------------------------------------------------------------
	           Coordinate      Previous         Force          Change          New 
	           ----------      --------        ------          ------        ------
	               R(1,2)       1.82127        0.00050        0.00018       1.82145
	-------------------------------------------------------------------------------

	                                 ==> Convergence Check <==                                  
    
	Measures of convergence in internal coordinates in au.
    
	Criteria marked as inactive (o), active & met (*), and active & unmet ( ).

	----------------------------------------------------------------------------------------------
	   Step    Total Energy     Delta E     Max Force     RMS Force      Max Disp      RMS Disp   
	----------------------------------------------------------------------------------------------
	  Convergence Criteria     1.00e-06 *    3.00e-04 *             o    1.20e-03 *             o
	----------------------------------------------------------------------------------------------
	    13    -297.06300611   -5.71e-07 *    6.10e-05 *    6.10e-05 o    3.34e-04 *    3.34e-04 o  ~
	----------------------------------------------------------------------------------------------

Next Geometry in Ang 
	Fragment 1 (Ang)

	    N   0.0000000000   0.0000000000   1.1990927512
	   Al   0.0000000000   0.0000000000  -0.6223563804


    Final optimized geometry and variables:
    Molecular point group: c2v
    Full point group: C_inf_v

    Geometry (in Angstrom), charge = 0, multiplicity = 3:

    N            0.000000000000     0.000000000000     1.199004287504
    AL           0.000000000000     0.000000000000    -0.622267916667


    Psi4 stopped on: Tuesday, 23 December 2025 10:59AM
    Psi4 wall time for execution: 0:00:08.04

*** Psi4 exiting successfully. Buy a developer a beer!
