
    -----------------------------------------------------------------------
          Psi4: An Open-Source Ab Initio Electronic Structure Package
                               Psi4 1.10 release

                         Git: Rev {} zzzzzzz 


    D. G. A. Smith, L. A. Burns, A. C. Simmonett, R. M. Parrish,
    M. C. Schieber, R. Galvelis, P. Kraus, H. Kruse, R. Di Remigio,
    A. Alenaizan, A. M. James, S. Lehtola, J. P. Misiewicz, M. Scheurer,
    R. A. Shaw, J. B. Schriber, Y. Xie, Z. L. Glick, D. A. Sirianni,
    J. S. O'Brien, J. M. Waldrop, A. Kumar, E. G. Hohenstein,
    B. P. Pritchard, B. R. Brooks, H. F. Schaefer III, A. Yu. Sokolov,
    K. Patkowski, A. E. DePrince III, U. Bozkaya, R. A. King,
    F. A. Evangelista, J. M. Turney, T. D. Crawford, C. D. Sherrill,
    J. Chem. Phys. 152(18) 184108 (2020). https://doi.org/10.1063/5.0006002

                            Additional Code Authors
    E. T. Seidl, C. L. Janssen, E. F. Valeev, M. L. Leininger,
    J. F. Gonthier, R. M. Richard, H. R. McAlexander, M. Saitow, X. Wang,
    P. Verma, M. H. Lechner, A. Jiang, S. Behnle, A. G. Heide,
    M. F. Herbst, D. L. Poole, T. Győri, E. C. Mitchell, J. P. Pederson,
    and A. M. Wallace

             Previous Authors, Complete List of Code Contributors,
                       and Citations for Specific Modules
    https://github.com/psi4/psi4/blob/master/codemeta.json
    https://github.com/psi4/psi4/graphs/contributors
    https://psicode.org/psi4manual/master/introduction.html#citing-psifour

    -----------------------------------------------------------------------


    Psi4 started on: Tuesday, 23 December 2025 11:07AM

    Process ID: 382757
    Host:       cics-quant-001
    PSIDATADIR: /home/jrodriguesro/psi4conda/share/psi4
    Memory:     500.0 MiB
    Threads:    6
    Addons:     adcc, a̶m̶b̶i̶t̶, b̶s̶e̶, c̶c̶t̶3̶, c̶f̶o̶u̶r̶, c̶h̶e̶m̶p̶s̶2̶, c̶p̶p̶e̶, ddx, dftd3, dftd4,
                dkh, ecpint, einsums, f̶o̶r̶t̶e̶, g̶a̶u̶x̶c̶, gcp, g̶d̶m̶a̶, geometric,
                g̶p̶u̶_̶d̶f̶c̶c̶, i̶n̶t̶e̶g̶r̶a̶t̶o̶r̶x̶x̶, i̶p̶i̶, libefp, m̶d̶i̶, m̶p̶2̶d̶,
                m̶r̶c̶c̶, ooo, o̶p̶e̶n̶f̶e̶r̶m̶i̶o̶n̶p̶s̶i̶4̶, pcmsolver, p̶s̶i̶4̶f̶o̶c̶k̶c̶i̶,
                p̶s̶i̶x̶a̶s̶, r̶e̶s̶p̶, s̶i̶m̶i̶n̶t̶, s̶n̶s̶m̶p̶2̶, v̶2̶r̶d̶m̶_̶c̶a̶s̶s̶c̶f̶

  ==> Input File <==

--------------------------------------------------------------------------
memory 8 Gb

molecule { 
-1 6
O   0.00000        0.60000        0.00000
O   0.00000       -0.60000        0.00000
}

set { 
basis              cc-pvdz
reference          uks
maxiter            500
geom_maxiter       500
DAMPING_PERCENTAGE 1
guess              SAP
}

optimize('b3lyp')
--------------------------------------------------------------------------

  Memory set to   7.451 GiB by Python driver.

Scratch directory: /tmp/
gradient() will perform analytic gradient computation.
   => Libint2 <=

    Primary   basis highest AM E, G, H:  6, 6, 3
    Auxiliary basis highest AM E, G, H:  7, 7, 4
    Onebody   basis highest AM E, G, H:  -, -, -
    Solid Harmonics ordering:            Gaussian

*** tstart() called on cics-quant-001
*** at Tue Dec 23 11:07:35 2025

   => Loading Basis Set <=

    Name: CC-PVDZ
    Role: ORBITAL
    Keyword: BASIS
    atoms 1-2 entry O          line   198 file /home/jrodriguesro/psi4conda/share/psi4/basis/cc-pvdz.gbs 


         ---------------------------------------------------------
                                   SCF
               by Justin Turney, Rob Parrish, Andy Simmonett
                          and Daniel G. A. Smith
                              UKS Reference
                        6 Threads,   7629 MiB Core
         ---------------------------------------------------------

  ==> Geometry <==

    Molecular point group: d2h
    Full point group: D_inf_h

    Geometry (in Angstrom), charge = -1, multiplicity = 6:

       Center              X                  Y                   Z               Mass       
    ------------   -----------------  -----------------  -----------------  -----------------
         O           -0.000000000000     0.600000000000     0.000000000000    15.994914619570
         O            0.000000000000    -0.600000000000     0.000000000000    15.994914619570

  Running in d2h symmetry.

  Rotational constants: A = ************  B =      1.46380  C =      1.46380 [cm^-1]
  Rotational constants: A = ************  B =  43883.65345  C =  43883.65345 [MHz]
  Nuclear repulsion =   28.222784569066672

  Charge       = -1
  Multiplicity = 6
  Electrons    = 17
  Nalpha       = 11
  Nbeta        = 6

  ==> Algorithm <==

  SCF Algorithm Type is DF.
  DIIS enabled.
  MOM disabled.
  Fractional occupation disabled.
  Guess Type is SAP.
  Energy threshold   = 1.00e-08
  Density threshold  = 1.00e-08
  Integral threshold = 1.00e-12

  ==> Primary Basis <==

  Basis Set: CC-PVDZ
    Blend: CC-PVDZ
    Number of shells: 12
    Number of basis functions: 28
    Number of Cartesian functions: 30
    Spherical Harmonics?: true
    Max angular momentum: 2

  ==> DFT Potential <==

   => LibXC <=

    Version 7.0.0
    S. Lehtola, C. Steigemann, M. J.T. Oliveira, and M. A.L. Marques.,  SoftwareX 7, 1–5 (2018) (10.1016/j.softx.2017.11.002)

   => Composite Functional: B3LYP <= 

    B3LYP Hyb-GGA Exchange-Correlation Functional

    P. J. Stephens, F. J. Devlin, C. F. Chabalowski, and M. J. Frisch.,  J. Phys. Chem. 98, 11623 (1994) (10.1021/j100096a001)

    Deriv               =              1
    GGA                 =           TRUE
    Meta                =          FALSE

    Exchange Hybrid     =           TRUE
    MP2 Hybrid          =          FALSE

   => Exchange Functionals <=

    0.0800   Slater exchange
    0.7200         Becke 88

   => Exact (HF) Exchange <=

    0.2000               HF 

   => Correlation Functionals <=

    0.1900   Vosko, Wilk & Nusair (VWN5_RPA)
    0.8100   Lee, Yang & Parr

   => LibXC Density Thresholds  <==

    XC_HYB_GGA_XC_B3LYP:  1.00E-15 

   => Molecular Quadrature <=

    Radial Scheme          =       TREUTLER
    Pruning Scheme         =           NONE
    Nuclear Scheme         =       TREUTLER

    Blocking Scheme        =         OCTREE
    BS radius alpha        =              1
    Pruning alpha          =              1
    Radial Points          =             75
    Spherical Points       =            302
    Total Points           =          41434
    Total Blocks           =            370
    Max Points             =            252
    Max Functions          =             28
    Weights Tolerance      =       1.00E-15

   => Loading Basis Set <=

    Name: (CC-PVDZ AUX)
    Role: JKFIT
    Keyword: DF_BASIS_SCF
    atoms 1-2 entry O          line   221 file /home/jrodriguesro/psi4conda/share/psi4/basis/cc-pvdz-jkfit.gbs 

  ==> Integral Setup <==

  DFHelper Memory: AOs need 0.001 GiB; user supplied 5.555 GiB. 
  SCF_SUBTYPE=INCORE selected. In-core MEM_DF algorithm will be used.
  Using in-core AOs.

  ==> MemDFJK: Density-Fitted J/K Matrices <==

    J tasked:                   Yes
    K tasked:                   Yes
    wK tasked:                   No
    OpenMP threads:               6
    Memory [MiB]:              5687
    Algorithm:                 Core
    Schwarz Cutoff:           1E-12
    Mask sparsity (%):       0.0000
    Fitting Condition:        1E-10

   => Auxiliary Basis Set <=

  Basis Set: (CC-PVDZ AUX)
    Blend: CC-PVDZ-JKFIT
    Number of shells: 48
    Number of basis functions: 140
    Number of Cartesian functions: 162
    Spherical Harmonics?: true
    Max angular momentum: 3

  Cached 100.0% of DFT collocation blocks in 0.033 [GiB].

  Minimum eigenvalue in the overlap matrix is 2.9685108921E-02.
  Reciprocal condition number of the overlap matrix is 1.1564502554E-02.
    Using symmetric orthogonalization.

  ==> Pre-Iterations <==

  SCF Guess: Superposition of Atomic Potentials (doi:10.1021/acs.jctc.8b01089).

  ==> SAP guess <==

   => Molecular Quadrature <=

    Radial Scheme          =       TREUTLER
    Pruning Scheme         =           NONE
    Nuclear Scheme         =       TREUTLER

    Blocking Scheme        =         OCTREE
    BS radius alpha        =              1
    Pruning alpha          =              1
    Radial Points          =             75
    Spherical Points       =            302
    Total Points           =          41434
    Total Blocks           =            370
    Max Points             =            252
    Max Functions          =             28
    Weights Tolerance      =       1.00E-15

   -------------------------------------------------------
    Irrep   Nso     Nmo     Nalpha   Nbeta   Ndocc  Nsocc
   -------------------------------------------------------
     Ag         7       7       3       2       2       1
     B1g        3       3       1       0       0       1
     B2g        1       1       0       0       0       0
     B3g        3       3       1       0       0       1
     Au         1       1       0       0       0       0
     B1u        3       3       1       1       1       0
     B2u        7       7       4       2       2       2
     B3u        3       3       1       1       1       0
   -------------------------------------------------------
    Total      28      28      11       6       6       5
   -------------------------------------------------------

  ==> Iterations <==

                           Total Energy        Delta E     RMS |[F,P]|

   @DF-UKS iter   1:  -148.76379547438239   -1.48764e+02   5.49891e-02 DIIS/ADIIS
   @DF-UKS iter   2:  -148.82569485781073   -6.18994e-02   4.47320e-02 DIIS/ADIIS/DAMP=1%
   @DF-UKS iter   3:  -148.90387293118940   -7.81781e-02   3.51043e-03 DIIS/ADIIS/DAMP=1%
   @DF-UKS iter   4:  -148.92315075335381   -1.92778e-02   4.59741e-04 DIIS/ADIIS/DAMP=1%
   @DF-UKS iter   5:  -148.92170373447220    1.44702e-03   5.95585e-05 DIIS/DAMP=1%
   @DF-UKS iter   6:  -148.92186674681608   -1.63012e-04   9.53879e-06 DIIS/DAMP=1%
   @DF-UKS iter   7:  -148.92186753690984   -7.90094e-07   1.10666e-06 DIIS/DAMP=1%
   @DF-UKS iter   8:  -148.92186373322255    3.80369e-06   4.85263e-08 DIIS/DAMP=1%
   @DF-UKS iter   9:  -148.92186405260509   -3.19383e-07   4.36142e-09 DIIS/DAMP=1%
   @DF-UKS iter  10:  -148.92186403439058    1.82145e-08   7.34137e-10 DIIS/DAMP=1%
   @DF-UKS iter  11:  -148.92186403602500   -1.63442e-09   2.55514e-11 DIIS/DAMP=1%
  Energy and wave function converged.


  ==> Post-Iterations <==

   Electrons on quadrature grid:
      Nalpha   =   11.0000002016 ; deviation = 2.016e-07
      Nbeta    =    6.0000001406 ; deviation = 1.406e-07
      Ntotal   =   17.0000003422 ; deviation = 3.422e-07 

   @Spin Contamination Metric:   1.084401614E-02
   @S^2 Expected:                8.750000000E+00
   @S^2 Observed:                8.760844016E+00
   @S   Expected:                2.500000000E+00
   @S   Observed:                2.500000000E+00

    Orbital Energies [Eh]
    ---------------------

    Alpha Occupied:                                                       

       1B2u  -18.820494     1Ag   -18.820308     2Ag    -0.938172  
       2B2u   -0.503437     3Ag    -0.249230     1B3u   -0.192687  
       1B1u   -0.192687     1B1g    0.064362     1B3g    0.064362  
       3B2u    0.431234     4B2u    0.968364  

    Alpha Virtual:                                                        

       2B3u    1.144589     2B1u    1.144589     4Ag     1.151578  
       2B1g    1.245692     2B3g    1.245692     5Ag     1.387811  
       5B2u    1.998812     3B1u    2.422977     3B3u    2.422977  
       1B2g    2.676121     6Ag     2.676122     1Au     2.977646  
       6B2u    2.977647     7Ag     3.147246     3B1g    3.618392  
       3B3g    3.618392     7B2u    4.090488  

    Beta Occupied:                                                        

       1Ag   -18.746999     1B2u  -18.746892     2Ag    -0.784159  
       2B2u   -0.293283     1B3u   -0.060517     1B1u   -0.060517  

    Beta Virtual:                                                         

       3Ag     0.065380     1B1g    0.294544     1B3g    0.294544  
       3B2u    0.719127     2B3u    1.232656     2B1u    1.232656  
       4B2u    1.257954     4Ag     1.317631     2B1g    1.342933  
       2B3g    1.342933     5Ag     1.482295     5B2u    2.096209  
       3B1u    2.541331     3B3u    2.541331     6Ag     2.779093  
       1B2g    2.779093     6B2u    3.091815     1Au     3.091815  
       7Ag     3.289912     3B1g    3.756776     3B3g    3.756776  
       7B2u    4.255564  

    Final Occupation by Irrep:
             Ag   B1g   B2g   B3g    Au   B1u   B2u   B3u 
    DOCC [     2,    0,    0,    0,    0,    1,    2,    1 ]
    SOCC [     1,    1,    0,    1,    0,    0,    2,    0 ]
    NA   [     3,    1,    0,    1,    0,    1,    4,    1 ]
    NB   [     2,    0,    0,    0,    0,    1,    2,    1 ]

  @DF-UKS Final Energy:  -148.92186403602500

   => Energetics <=

    Nuclear Repulsion Energy =             28.2227845690666719
    One-Electron Energy =                -267.1844217494112286
    Two-Electron Energy =                 104.2957346643751890
    DFT Exchange-Correlation Energy =     -14.2559615200556085
    Empirical Dispersion Energy =           0.0000000000000000
    VV10 Nonlocal Energy =                  0.0000000000000000
    Total Energy =                       -148.9218640360249992

  UHF NO Occupations:
  HONO-2 :    4B2u 1.0000000
  HONO-1 :    1B3g 1.0000000
  HONO-0 :    1B1g 1.0000000
  LUNO+0 :    2B3u 0.0021561
  LUNO+1 :    2B1u 0.0021561
  LUNO+2 :    4 Ag 0.0007101
  LUNO+3 :    5B2u 0.0004043


Computation Completed


Properties will be evaluated at   0.000000,   0.000000,   0.000000 [a0]

Properties computed using the SCF density matrix


 Multipole Moments:

 ------------------------------------------------------------------------------------
     Multipole            Electronic (a.u.)      Nuclear  (a.u.)        Total (a.u.)
 ------------------------------------------------------------------------------------

 L = 1.  Multiply by 2.5417464519 to convert [e a0] to [Debye]
 Dipole X            :          0.0000000            0.0000000            0.0000000
 Dipole Y            :          0.0000000            0.0000000            0.0000000
 Dipole Z            :          0.0000000            0.0000000            0.0000000
 Magnitude           :                                                    0.0000000

 ------------------------------------------------------------------------------------

*** tstop() called on cics-quant-001 at Tue Dec 23 11:07:35 2025
Module time:
	user time   =       0.62 seconds =       0.01 minutes
	system time =       0.05 seconds =       0.00 minutes
	total time  =          0 seconds =       0.00 minutes
Total time:
	user time   =       0.62 seconds =       0.01 minutes
	system time =       0.05 seconds =       0.00 minutes
	total time  =          0 seconds =       0.00 minutes

*** tstart() called on cics-quant-001
*** at Tue Dec 23 11:07:35 2025


         ------------------------------------------------------------
                                   SCF GRAD                          
                          Rob Parrish, Justin Turney,                
                       Andy Simmonett, and Alex Sokolov              
         ------------------------------------------------------------

  ==> Geometry <==

    Molecular point group: d2h
    Full point group: D_inf_h

    Geometry (in Angstrom), charge = -1, multiplicity = 6:

       Center              X                  Y                   Z               Mass       
    ------------   -----------------  -----------------  -----------------  -----------------
         O           -0.000000000000     0.600000000000     0.000000000000    15.994914619570
         O            0.000000000000    -0.600000000000     0.000000000000    15.994914619570

  Nuclear repulsion =   28.222784569066672

  ==> Basis Set <==

  Basis Set: CC-PVDZ
    Blend: CC-PVDZ
    Number of shells: 12
    Number of basis functions: 28
    Number of Cartesian functions: 30
    Spherical Harmonics?: true
    Max angular momentum: 2

  ==> DFJKGrad: Density-Fitted SCF Gradients <==

    Gradient:                    1
    J tasked:                  Yes
    K tasked:                  Yes
    wK tasked:                  No
    OpenMP threads:              6
    Integrals threads:           6
    Memory [MiB]:             5722
    Schwarz Cutoff:          1E-12
    Fitting Condition:       1E-10

   => Auxiliary Basis Set <=

  Basis Set: (CC-PVDZ AUX)
    Blend: CC-PVDZ-JKFIT
    Number of shells: 48
    Number of basis functions: 140
    Number of Cartesian functions: 162
    Spherical Harmonics?: true
    Max angular momentum: 3

  ==> DFT Potential <==

   => LibXC <=

    Version 7.0.0
    S. Lehtola, C. Steigemann, M. J.T. Oliveira, and M. A.L. Marques.,  SoftwareX 7, 1–5 (2018) (10.1016/j.softx.2017.11.002)

   => Composite Functional: B3LYP <= 

    B3LYP Hyb-GGA Exchange-Correlation Functional

    P. J. Stephens, F. J. Devlin, C. F. Chabalowski, and M. J. Frisch.,  J. Phys. Chem. 98, 11623 (1994) (10.1021/j100096a001)

    Deriv               =              1
    GGA                 =           TRUE
    Meta                =          FALSE

    Exchange Hybrid     =           TRUE
    MP2 Hybrid          =          FALSE

   => Exchange Functionals <=

    0.0800   Slater exchange
    0.7200         Becke 88

   => Exact (HF) Exchange <=

    0.2000               HF 

   => Correlation Functionals <=

    0.1900   Vosko, Wilk & Nusair (VWN5_RPA)
    0.8100   Lee, Yang & Parr

   => LibXC Density Thresholds  <==

    XC_HYB_GGA_XC_B3LYP:  1.00E-15 

   => Molecular Quadrature <=

    Radial Scheme          =       TREUTLER
    Pruning Scheme         =           NONE
    Nuclear Scheme         =       TREUTLER

    Blocking Scheme        =         OCTREE
    BS radius alpha        =              1
    Pruning alpha          =              1
    Radial Points          =             75
    Spherical Points       =            302
    Total Points           =          41434
    Total Blocks           =            370
    Max Points             =            252
    Max Functions          =             28
    Weights Tolerance      =       1.00E-15


  -Total Gradient:
     Atom            X                  Y                   Z
    ------   -----------------  -----------------  -----------------
       1        0.000000000000    -0.851777988945    -0.000000000000
       2       -0.000000000000     0.851777988945     0.000000000000


*** tstop() called on cics-quant-001 at Tue Dec 23 11:07:36 2025
Module time:
	user time   =       0.13 seconds =       0.00 minutes
	system time =       0.05 seconds =       0.00 minutes
	total time  =          1 seconds =       0.02 minutes
Total time:
	user time   =       0.75 seconds =       0.01 minutes
	system time =       0.10 seconds =       0.00 minutes
	total time  =          1 seconds =       0.02 minutes

    			-----------------------------------------

    			 OPTKING 3.0: for geometry optimizations 

    			     By R.A. King, Bethel University     

    			        with contributions from          

    			    A.V. Copan, J. Cayton, A. Heide      

    			-----------------------------------------

    
	                            ===> Fragment 1 <== 

	 Z (Atomic Numbers)          Masses                          Geom                  
	       8.000000            15.994915         -0.00000000  1.13383568  0.00000000   
	       8.000000            15.994915          0.00000000 -1.13383568  0.00000000   

	 - Coordinate -           - BOHR/RAD -       - ANG/DEG -
	 R(1,2)           =         2.267671           1.200000


	        --- Internal Coordinate Step in ANG or DEG, aJ/ANG or AJ/DEG ---
	-------------------------------------------------------------------------------
	           Coordinate      Previous         Force          Change          New 
	           ----------      --------        ------          ------        ------
	               R(1,2)       1.20000        7.01756        0.26459       1.46459
	-------------------------------------------------------------------------------

	                                 ==> Convergence Check <==                                  
    
	Measures of convergence in internal coordinates in au.
    
	Criteria marked as inactive (o), active & met (*), and active & unmet ( ).

	----------------------------------------------------------------------------------------------~
	   Step    Total Energy     Delta E     Max Force     RMS Force      Max Disp      RMS Disp   ~
	----------------------------------------------------------------------------------------------~
	  Convergence Criteria     1.00e-06 *    3.00e-04 *             o    1.20e-03 *             o~
	----------------------------------------------------------------------------------------------~
	     1    -148.92186404   -1.49e+02      8.52e-01      8.52e-01 o    5.00e-01      5.00e-01 o  ~
	----------------------------------------------------------------------------------------------

Next Geometry in Ang 
	Fragment 1 (Ang)

	    O  -0.0000000000   0.7322943660   0.0000000000
	    O   0.0000000000  -0.7322943660   0.0000000000


    Structure for next step:
    Molecular point group: d2h
    Full point group: D_inf_h

    Geometry (in Angstrom), charge = -1, multiplicity = 6:

    O           -0.000000000000     0.732294365960     0.000000000000
    O            0.000000000000    -0.732294365960     0.000000000000


Scratch directory: /tmp/
gradient() will perform analytic gradient computation.
   => Libint2 <=

    Primary   basis highest AM E, G, H:  6, 6, 3
    Auxiliary basis highest AM E, G, H:  7, 7, 4
    Onebody   basis highest AM E, G, H:  -, -, -
    Solid Harmonics ordering:            Gaussian

*** tstart() called on cics-quant-001
*** at Tue Dec 23 11:07:36 2025

   => Loading Basis Set <=

    Name: CC-PVDZ
    Role: ORBITAL
    Keyword: BASIS
    atoms 1-2 entry O          line   198 file /home/jrodriguesro/psi4conda/share/psi4/basis/cc-pvdz.gbs 


         ---------------------------------------------------------
                                   SCF
               by Justin Turney, Rob Parrish, Andy Simmonett
                          and Daniel G. A. Smith
                              UKS Reference
                        6 Threads,   7629 MiB Core
         ---------------------------------------------------------

  ==> Geometry <==

    Molecular point group: d2h
    Full point group: D_inf_h

    Geometry (in Angstrom), charge = -1, multiplicity = 6:

       Center              X                  Y                   Z               Mass       
    ------------   -----------------  -----------------  -----------------  -----------------
         O           -0.000000000000     0.732294365960     0.000000000000    15.994914619570
         O            0.000000000000    -0.732294365960     0.000000000000    15.994914619570

  Running in d2h symmetry.

  Rotational constants: A = ************  B =      0.98268  C =      0.98268 [cm^-1]
  Rotational constants: A = ************  B =  29460.07796  C =  29460.07796 [MHz]
  Nuclear repulsion =   23.124130853078860

  Charge       = -1
  Multiplicity = 6
  Electrons    = 17
  Nalpha       = 11
  Nbeta        = 6

  ==> Algorithm <==

  SCF Algorithm Type is DF.
  DIIS enabled.
  MOM disabled.
  Fractional occupation disabled.
  Guess Type is READ.
  Energy threshold   = 1.00e-08
  Density threshold  = 1.00e-08
  Integral threshold = 1.00e-12

  ==> Primary Basis <==

  Basis Set: CC-PVDZ
    Blend: CC-PVDZ
    Number of shells: 12
    Number of basis functions: 28
    Number of Cartesian functions: 30
    Spherical Harmonics?: true
    Max angular momentum: 2

  ==> DFT Potential <==

   => LibXC <=

    Version 7.0.0
    S. Lehtola, C. Steigemann, M. J.T. Oliveira, and M. A.L. Marques.,  SoftwareX 7, 1–5 (2018) (10.1016/j.softx.2017.11.002)

   => Composite Functional: B3LYP <= 

    B3LYP Hyb-GGA Exchange-Correlation Functional

    P. J. Stephens, F. J. Devlin, C. F. Chabalowski, and M. J. Frisch.,  J. Phys. Chem. 98, 11623 (1994) (10.1021/j100096a001)

    Deriv               =              1
    GGA                 =           TRUE
    Meta                =          FALSE

    Exchange Hybrid     =           TRUE
    MP2 Hybrid          =          FALSE

   => Exchange Functionals <=

    0.0800   Slater exchange
    0.7200         Becke 88

   => Exact (HF) Exchange <=

    0.2000               HF 

   => Correlation Functionals <=

    0.1900   Vosko, Wilk & Nusair (VWN5_RPA)
    0.8100   Lee, Yang & Parr

   => LibXC Density Thresholds  <==

    XC_HYB_GGA_XC_B3LYP:  1.00E-15 

   => Molecular Quadrature <=

    Radial Scheme          =       TREUTLER
    Pruning Scheme         =           NONE
    Nuclear Scheme         =       TREUTLER

    Blocking Scheme        =         OCTREE
    BS radius alpha        =              1
    Pruning alpha          =              1
    Radial Points          =             75
    Spherical Points       =            302
    Total Points           =          41488
    Total Blocks           =            374
    Max Points             =            254
    Max Functions          =             28
    Weights Tolerance      =       1.00E-15

   => Loading Basis Set <=

    Name: (CC-PVDZ AUX)
    Role: JKFIT
    Keyword: DF_BASIS_SCF
    atoms 1-2 entry O          line   221 file /home/jrodriguesro/psi4conda/share/psi4/basis/cc-pvdz-jkfit.gbs 

   => Loading Basis Set <=

    Name: CC-PVDZ
    Role: ORBITAL
    Keyword: BASIS
    atoms 1-2 entry O          line   198 file /home/jrodriguesro/psi4conda/share/psi4/basis/cc-pvdz.gbs 

  Reading orbitals from file /tmp/sextet_OO.default.382757.180.npy, no projection.

  ==> Integral Setup <==

  DFHelper Memory: AOs need 0.001 GiB; user supplied 5.555 GiB. 
  SCF_SUBTYPE=INCORE selected. In-core MEM_DF algorithm will be used.
  Using in-core AOs.

  ==> MemDFJK: Density-Fitted J/K Matrices <==

    J tasked:                   Yes
    K tasked:                   Yes
    wK tasked:                   No
    OpenMP threads:               6
    Memory [MiB]:              5688
    Algorithm:                 Core
    Schwarz Cutoff:           1E-12
    Mask sparsity (%):       0.0000
    Fitting Condition:        1E-10

   => Auxiliary Basis Set <=

  Basis Set: (CC-PVDZ AUX)
    Blend: CC-PVDZ-JKFIT
    Number of shells: 48
    Number of basis functions: 140
    Number of Cartesian functions: 162
    Spherical Harmonics?: true
    Max angular momentum: 3

  Cached 100.0% of DFT collocation blocks in 0.033 [GiB].

  Minimum eigenvalue in the overlap matrix is 5.8519510629E-02.
  Reciprocal condition number of the overlap matrix is 2.4812589978E-02.
    Using symmetric orthogonalization.

  ==> Pre-Iterations <==

  SCF Guess: Orbitals guess was supplied from a previous computation.

   -------------------------------------------------------
    Irrep   Nso     Nmo     Nalpha   Nbeta   Ndocc  Nsocc
   -------------------------------------------------------
     Ag         7       7       3       2       2       1
     B1g        3       3       1       0       0       1
     B2g        1       1       0       0       0       0
     B3g        3       3       1       0       0       1
     Au         1       1       0       0       0       0
     B1u        3       3       1       1       1       0
     B2u        7       7       4       2       2       2
     B3u        3       3       1       1       1       0
   -------------------------------------------------------
    Total      28      28      11       6       6       5
   -------------------------------------------------------

  ==> Iterations <==

                           Total Energy        Delta E     RMS |[F,P]|

   @DF-UKS iter   0:  -149.35598463943182   -1.49356e+02   3.44554e-01 
   @DF-UKS iter   1:  -148.98812843880845    3.67856e-01   5.38039e-02 DIIS/ADIIS
   @DF-UKS iter   2:  -149.06991340971263   -8.17850e-02   3.75399e-02 DIIS/ADIIS/DAMP=1%
   @DF-UKS iter   3:  -149.15890142611417   -8.89880e-02   2.86172e-03 DIIS/ADIIS/DAMP=1%
   @DF-UKS iter   4:  -149.14464420159391    1.42572e-02   2.61295e-04 DIIS/ADIIS/DAMP=1%
   @DF-UKS iter   5:  -149.14577762740058   -1.13343e-03   3.98073e-05 DIIS/DAMP=1%
   @DF-UKS iter   6:  -149.14566757712947    1.10050e-04   3.55853e-06 DIIS/DAMP=1%
   @DF-UKS iter   7:  -149.14568364317483   -1.60660e-05   1.11256e-07 DIIS/DAMP=1%
   @DF-UKS iter   8:  -149.14568251037502    1.13280e-06   2.51245e-08 DIIS/DAMP=1%
   @DF-UKS iter   9:  -149.14568250246165    7.91337e-09   1.83000e-09 DIIS/DAMP=1%
  Energy and wave function converged.


  ==> Post-Iterations <==

   Electrons on quadrature grid:
      Nalpha   =   10.9999999918 ; deviation = -8.222e-09
      Nbeta    =    5.9999999208 ; deviation = -7.916e-08
      Ntotal   =   16.9999999126 ; deviation = -8.738e-08 

   @Spin Contamination Metric:   1.257350713E-02
   @S^2 Expected:                8.750000000E+00
   @S^2 Observed:                8.762573507E+00
   @S   Expected:                2.500000000E+00
   @S   Observed:                2.500000000E+00

    Orbital Energies [Eh]
    ---------------------

    Alpha Occupied:                                                       

       1B2u  -18.857973     1Ag   -18.857835     2Ag    -0.802465  
       2B2u   -0.571738     3Ag    -0.223492     1B3u   -0.137917  
       1B1u   -0.137917     1B3g   -0.001676     1B1g   -0.001676  
       3B2u    0.163079     4B2u    0.987082  

    Alpha Virtual:                                                        

       2B1u    1.122613     2B3u    1.122613     4Ag     1.199171  
       2B1g    1.239427     2B3g    1.239427     5Ag     1.469503  
       5B2u    1.865646     3B3u    2.547927     3B1u    2.547927  
       6Ag     2.605404     1B2g    2.779221     7Ag     2.779221  
       1Au     2.878866     6B2u    2.878866     3B1g    3.207957  
       3B3g    3.207957     7B2u    3.952444  

    Beta Occupied:                                                        

       1Ag   -18.788214     1B2u  -18.788197     2Ag    -0.645007  
       2B2u   -0.375465     1B3u   -0.003785     1B1u   -0.003785  

    Beta Virtual:                                                         

       3Ag     0.091139     1B3g    0.217371     1B1g    0.217371  
       3B2u    0.490845     2B1u    1.214544     2B3u    1.214544  
       4B2u    1.237151     2B1g    1.330280     2B3g    1.330280  
       4Ag     1.390785     5Ag     1.562775     5B2u    1.960256  
       3B3u    2.677283     3B1u    2.677283     6Ag     2.752236  
       1B2g    2.880819     7Ag     2.880820     1Au     2.984994  
       6B2u    2.984995     3B1g    3.345629     3B3g    3.345629  
       7B2u    4.100915  

    Final Occupation by Irrep:
             Ag   B1g   B2g   B3g    Au   B1u   B2u   B3u 
    DOCC [     2,    0,    0,    0,    0,    1,    2,    1 ]
    SOCC [     1,    1,    0,    1,    0,    0,    2,    0 ]
    NA   [     3,    1,    0,    1,    0,    1,    4,    1 ]
    NB   [     2,    0,    0,    0,    0,    1,    2,    1 ]

  @DF-UKS Final Energy:  -149.14568250246165

   => Energetics <=

    Nuclear Repulsion Energy =             23.1241308530788601
    One-Electron Energy =                -257.3598155008573940
    Two-Electron Energy =                  99.2084882088453242
    DFT Exchange-Correlation Energy =     -14.1184860635284419
    Empirical Dispersion Energy =           0.0000000000000000
    VV10 Nonlocal Energy =                  0.0000000000000000
    Total Energy =                       -149.1456825024616535

  UHF NO Occupations:
  HONO-2 :    4B2u 1.0000000
  HONO-1 :    1B1g 1.0000000
  HONO-0 :    3 Ag 1.0000000
  LUNO+0 :    2B1u 0.0024841
  LUNO+1 :    2B3u 0.0024841
  LUNO+2 :    4 Ag 0.0008440
  LUNO+3 :    5B2u 0.0004809


Computation Completed


Properties will be evaluated at   0.000000,   0.000000,   0.000000 [a0]

Properties computed using the SCF density matrix


 Multipole Moments:

 ------------------------------------------------------------------------------------
     Multipole            Electronic (a.u.)      Nuclear  (a.u.)        Total (a.u.)
 ------------------------------------------------------------------------------------

 L = 1.  Multiply by 2.5417464519 to convert [e a0] to [Debye]
 Dipole X            :          0.0000000            0.0000000            0.0000000
 Dipole Y            :          0.0000000            0.0000000            0.0000000
 Dipole Z            :          0.0000000            0.0000000            0.0000000
 Magnitude           :                                                    0.0000000

 ------------------------------------------------------------------------------------

*** tstop() called on cics-quant-001 at Tue Dec 23 11:07:36 2025
Module time:
	user time   =       0.54 seconds =       0.01 minutes
	system time =       0.03 seconds =       0.00 minutes
	total time  =          0 seconds =       0.00 minutes
Total time:
	user time   =       1.31 seconds =       0.02 minutes
	system time =       0.13 seconds =       0.00 minutes
	total time  =          1 seconds =       0.02 minutes

*** tstart() called on cics-quant-001
*** at Tue Dec 23 11:07:36 2025


         ------------------------------------------------------------
                                   SCF GRAD                          
                          Rob Parrish, Justin Turney,                
                       Andy Simmonett, and Alex Sokolov              
         ------------------------------------------------------------

  ==> Geometry <==

    Molecular point group: d2h
    Full point group: D_inf_h

    Geometry (in Angstrom), charge = -1, multiplicity = 6:

       Center              X                  Y                   Z               Mass       
    ------------   -----------------  -----------------  -----------------  -----------------
         O           -0.000000000000     0.732294365960     0.000000000000    15.994914619570
         O            0.000000000000    -0.732294365960     0.000000000000    15.994914619570

  Nuclear repulsion =   23.124130853078860

  ==> Basis Set <==

  Basis Set: CC-PVDZ
    Blend: CC-PVDZ
    Number of shells: 12
    Number of basis functions: 28
    Number of Cartesian functions: 30
    Spherical Harmonics?: true
    Max angular momentum: 2

  ==> DFJKGrad: Density-Fitted SCF Gradients <==

    Gradient:                    1
    J tasked:                  Yes
    K tasked:                  Yes
    wK tasked:                  No
    OpenMP threads:              6
    Integrals threads:           6
    Memory [MiB]:             5722
    Schwarz Cutoff:          1E-12
    Fitting Condition:       1E-10

   => Auxiliary Basis Set <=

  Basis Set: (CC-PVDZ AUX)
    Blend: CC-PVDZ-JKFIT
    Number of shells: 48
    Number of basis functions: 140
    Number of Cartesian functions: 162
    Spherical Harmonics?: true
    Max angular momentum: 3

  ==> DFT Potential <==

   => LibXC <=

    Version 7.0.0
    S. Lehtola, C. Steigemann, M. J.T. Oliveira, and M. A.L. Marques.,  SoftwareX 7, 1–5 (2018) (10.1016/j.softx.2017.11.002)

   => Composite Functional: B3LYP <= 

    B3LYP Hyb-GGA Exchange-Correlation Functional

    P. J. Stephens, F. J. Devlin, C. F. Chabalowski, and M. J. Frisch.,  J. Phys. Chem. 98, 11623 (1994) (10.1021/j100096a001)

    Deriv               =              1
    GGA                 =           TRUE
    Meta                =          FALSE

    Exchange Hybrid     =           TRUE
    MP2 Hybrid          =          FALSE

   => Exchange Functionals <=

    0.0800   Slater exchange
    0.7200         Becke 88

   => Exact (HF) Exchange <=

    0.2000               HF 

   => Correlation Functionals <=

    0.1900   Vosko, Wilk & Nusair (VWN5_RPA)
    0.8100   Lee, Yang & Parr

   => LibXC Density Thresholds  <==

    XC_HYB_GGA_XC_B3LYP:  1.00E-15 

   => Molecular Quadrature <=

    Radial Scheme          =       TREUTLER
    Pruning Scheme         =           NONE
    Nuclear Scheme         =       TREUTLER

    Blocking Scheme        =         OCTREE
    BS radius alpha        =              1
    Pruning alpha          =              1
    Radial Points          =             75
    Spherical Points       =            302
    Total Points           =          41488
    Total Blocks           =            374
    Max Points             =            254
    Max Functions          =             28
    Weights Tolerance      =       1.00E-15


  -Total Gradient:
     Atom            X                  Y                   Z
    ------   -----------------  -----------------  -----------------
       1        0.000000000000    -0.172778853767    -0.000000000000
       2       -0.000000000000     0.172778853767    -0.000000000000


*** tstop() called on cics-quant-001 at Tue Dec 23 11:07:36 2025
Module time:
	user time   =       0.13 seconds =       0.00 minutes
	system time =       0.04 seconds =       0.00 minutes
	total time  =          0 seconds =       0.00 minutes
Total time:
	user time   =       1.44 seconds =       0.02 minutes
	system time =       0.17 seconds =       0.00 minutes
	total time  =          1 seconds =       0.02 minutes

    			-----------------------------------------

    			 OPTKING 3.0: for geometry optimizations 

    			     By R.A. King, Bethel University     

    			        with contributions from          

    			    A.V. Copan, J. Cayton, A. Heide      

    			-----------------------------------------

    
	                            ===> Fragment 1 <== 

	 Z (Atomic Numbers)          Masses                          Geom                  
	       8.000000            15.994915         -0.00000000  1.38383579  0.00000000   
	       8.000000            15.994915          0.00000000 -1.38383579  0.00000000   

	 - Coordinate -           - BOHR/RAD -       - ANG/DEG -
	 R(1,2)           =         2.767672           1.464589


	        --- Internal Coordinate Step in ANG or DEG, aJ/ANG or AJ/DEG ---
	-------------------------------------------------------------------------------
	           Coordinate      Previous         Force          Change          New 
	           ----------      --------        ------          ------        ------
	               R(1,2)       1.46459        1.42348        0.06627       1.53086
	-------------------------------------------------------------------------------

	                                 ==> Convergence Check <==                                  
    
	Measures of convergence in internal coordinates in au.
    
	Criteria marked as inactive (o), active & met (*), and active & unmet ( ).

	----------------------------------------------------------------------------------------------
	   Step    Total Energy     Delta E     Max Force     RMS Force      Max Disp      RMS Disp   
	----------------------------------------------------------------------------------------------
	  Convergence Criteria     1.00e-06 *    3.00e-04 *             o    1.20e-03 *             o
	----------------------------------------------------------------------------------------------
	     2    -149.14568250   -2.24e-01      1.73e-01      1.73e-01 o    1.25e-01      1.25e-01 o  ~
	----------------------------------------------------------------------------------------------

Next Geometry in Ang 
	Fragment 1 (Ang)

	    O  -0.0000000000   0.7654301562   0.0000000000
	    O   0.0000000000  -0.7654301562   0.0000000000


    Structure for next step:
    Molecular point group: d2h
    Full point group: D_inf_h

    Geometry (in Angstrom), charge = -1, multiplicity = 6:

    O           -0.000000000000     0.765430156175     0.000000000000
    O            0.000000000000    -0.765430156175     0.000000000000


Scratch directory: /tmp/
gradient() will perform analytic gradient computation.
   => Libint2 <=

    Primary   basis highest AM E, G, H:  6, 6, 3
    Auxiliary basis highest AM E, G, H:  7, 7, 4
    Onebody   basis highest AM E, G, H:  -, -, -
    Solid Harmonics ordering:            Gaussian

*** tstart() called on cics-quant-001
*** at Tue Dec 23 11:07:36 2025

   => Loading Basis Set <=

    Name: CC-PVDZ
    Role: ORBITAL
    Keyword: BASIS
    atoms 1-2 entry O          line   198 file /home/jrodriguesro/psi4conda/share/psi4/basis/cc-pvdz.gbs 


         ---------------------------------------------------------
                                   SCF
               by Justin Turney, Rob Parrish, Andy Simmonett
                          and Daniel G. A. Smith
                              UKS Reference
                        6 Threads,   7629 MiB Core
         ---------------------------------------------------------

  ==> Geometry <==

    Molecular point group: d2h
    Full point group: D_inf_h

    Geometry (in Angstrom), charge = -1, multiplicity = 6:

       Center              X                  Y                   Z               Mass       
    ------------   -----------------  -----------------  -----------------  -----------------
         O           -0.000000000000     0.765430156175     0.000000000000    15.994914619570
         O            0.000000000000    -0.765430156175     0.000000000000    15.994914619570

  Running in d2h symmetry.

  Rotational constants: A = ************  B =      0.89944  C =      0.89944 [cm^-1]
  Rotational constants: A = ************  B =  26964.60984  C =  26964.60984 [MHz]
  Nuclear repulsion =   22.123077598681132

  Charge       = -1
  Multiplicity = 6
  Electrons    = 17
  Nalpha       = 11
  Nbeta        = 6

  ==> Algorithm <==

  SCF Algorithm Type is DF.
  DIIS enabled.
  MOM disabled.
  Fractional occupation disabled.
  Guess Type is READ.
  Energy threshold   = 1.00e-08
  Density threshold  = 1.00e-08
  Integral threshold = 1.00e-12

  ==> Primary Basis <==

  Basis Set: CC-PVDZ
    Blend: CC-PVDZ
    Number of shells: 12
    Number of basis functions: 28
    Number of Cartesian functions: 30
    Spherical Harmonics?: true
    Max angular momentum: 2

  ==> DFT Potential <==

   => LibXC <=

    Version 7.0.0
    S. Lehtola, C. Steigemann, M. J.T. Oliveira, and M. A.L. Marques.,  SoftwareX 7, 1–5 (2018) (10.1016/j.softx.2017.11.002)

   => Composite Functional: B3LYP <= 

    B3LYP Hyb-GGA Exchange-Correlation Functional

    P. J. Stephens, F. J. Devlin, C. F. Chabalowski, and M. J. Frisch.,  J. Phys. Chem. 98, 11623 (1994) (10.1021/j100096a001)

    Deriv               =              1
    GGA                 =           TRUE
    Meta                =          FALSE

    Exchange Hybrid     =           TRUE
    MP2 Hybrid          =          FALSE

   => Exchange Functionals <=

    0.0800   Slater exchange
    0.7200         Becke 88

   => Exact (HF) Exchange <=

    0.2000               HF 

   => Correlation Functionals <=

    0.1900   Vosko, Wilk & Nusair (VWN5_RPA)
    0.8100   Lee, Yang & Parr

   => LibXC Density Thresholds  <==

    XC_HYB_GGA_XC_B3LYP:  1.00E-15 

   => Molecular Quadrature <=

    Radial Scheme          =       TREUTLER
    Pruning Scheme         =           NONE
    Nuclear Scheme         =       TREUTLER

    Blocking Scheme        =         OCTREE
    BS radius alpha        =              1
    Pruning alpha          =              1
    Radial Points          =             75
    Spherical Points       =            302
    Total Points           =          41506
    Total Blocks           =            372
    Max Points             =            254
    Max Functions          =             28
    Weights Tolerance      =       1.00E-15

   => Loading Basis Set <=

    Name: (CC-PVDZ AUX)
    Role: JKFIT
    Keyword: DF_BASIS_SCF
    atoms 1-2 entry O          line   221 file /home/jrodriguesro/psi4conda/share/psi4/basis/cc-pvdz-jkfit.gbs 

   => Loading Basis Set <=

    Name: CC-PVDZ
    Role: ORBITAL
    Keyword: BASIS
    atoms 1-2 entry O          line   198 file /home/jrodriguesro/psi4conda/share/psi4/basis/cc-pvdz.gbs 

  Reading orbitals from file /tmp/sextet_OO.default.382757.180.npy, no projection.

  ==> Integral Setup <==

  DFHelper Memory: AOs need 0.001 GiB; user supplied 5.555 GiB. 
  SCF_SUBTYPE=INCORE selected. In-core MEM_DF algorithm will be used.
  Using in-core AOs.

  ==> MemDFJK: Density-Fitted J/K Matrices <==

    J tasked:                   Yes
    K tasked:                   Yes
    wK tasked:                   No
    OpenMP threads:               6
    Memory [MiB]:              5688
    Algorithm:                 Core
    Schwarz Cutoff:           1E-12
    Mask sparsity (%):       0.0000
    Fitting Condition:        1E-10

   => Auxiliary Basis Set <=

  Basis Set: (CC-PVDZ AUX)
    Blend: CC-PVDZ-JKFIT
    Number of shells: 48
    Number of basis functions: 140
    Number of Cartesian functions: 162
    Spherical Harmonics?: true
    Max angular momentum: 3

  Cached 100.0% of DFT collocation blocks in 0.033 [GiB].

  Minimum eigenvalue in the overlap matrix is 6.7476262398E-02.
  Reciprocal condition number of the overlap matrix is 2.9278347713E-02.
    Using symmetric orthogonalization.

  ==> Pre-Iterations <==

  SCF Guess: Orbitals guess was supplied from a previous computation.

   -------------------------------------------------------
    Irrep   Nso     Nmo     Nalpha   Nbeta   Ndocc  Nsocc
   -------------------------------------------------------
     Ag         7       7       3       2       2       1
     B1g        3       3       1       0       0       1
     B2g        1       1       0       0       0       0
     B3g        3       3       1       0       0       1
     Au         1       1       0       0       0       0
     B1u        3       3       1       1       1       0
     B2u        7       7       4       2       2       2
     B3u        3       3       1       1       1       0
   -------------------------------------------------------
    Total      28      28      11       6       6       5
   -------------------------------------------------------

  ==> Iterations <==

                           Total Energy        Delta E     RMS |[F,P]|

   @DF-UKS iter   0:  -149.14076590499465   -1.49141e+02   3.83687e-02 
   @DF-UKS iter   1:  -149.16147406812709   -2.07082e-02   3.74765e-03 DIIS/ADIIS
   @DF-UKS iter   2:  -149.16188589745497   -4.11829e-04   2.66582e-03 DIIS/ADIIS/DAMP=1%
   @DF-UKS iter   3:  -149.16319261398456   -1.30672e-03   5.39719e-05 DIIS/DAMP=1%
   @DF-UKS iter   4:  -149.16227374985380    9.18864e-04   1.78376e-05 DIIS/DAMP=1%
   @DF-UKS iter   5:  -149.16227337806939    3.71784e-07   2.59263e-06 DIIS/DAMP=1%
   @DF-UKS iter   6:  -149.16226603198410    7.34609e-06   4.88518e-07 DIIS/DAMP=1%
   @DF-UKS iter   7:  -149.16226659079413   -5.58810e-07   5.78106e-08 DIIS/DAMP=1%
   @DF-UKS iter   8:  -149.16226678098937   -1.90195e-07   4.70666e-09 DIIS/DAMP=1%
   @DF-UKS iter   9:  -149.16226676153059    1.94588e-08   2.06895e-10 DIIS/DAMP=1%
   @DF-UKS iter  10:  -149.16226676306070   -1.53011e-09   4.94818e-11 DIIS/DAMP=1%
  Energy and wave function converged.


  ==> Post-Iterations <==

   Electrons on quadrature grid:
      Nalpha   =   11.0000007203 ; deviation = 7.203e-07
      Nbeta    =    6.0000002341 ; deviation = 2.341e-07
      Ntotal   =   17.0000009544 ; deviation = 9.544e-07 

   @Spin Contamination Metric:   1.265576309E-02
   @S^2 Expected:                8.750000000E+00
   @S^2 Observed:                8.762655763E+00
   @S   Expected:                2.500000000E+00
   @S   Observed:                2.500000000E+00

    Orbital Energies [Eh]
    ---------------------

    Alpha Occupied:                                                       

       1B2u  -18.864614     1Ag   -18.864496     2Ag    -0.780951  
       2B2u   -0.585310     3Ag    -0.216418     1B3u   -0.129484  
       1B1u   -0.129484     1B1g   -0.012763     1B3g   -0.012763  
       3B2u    0.120728     4B2u    0.998167  

    Alpha Virtual:                                                        

       2B3u    1.113713     2B1u    1.113713     4Ag     1.205384  
       2B1g    1.238428     2B3g    1.238428     5Ag     1.471097  
       5B2u    1.843670     6Ag     2.550911     3B3u    2.595481  
       3B1u    2.595481     7Ag     2.793341     1B2g    2.793343  
       6B2u    2.865024     1Au     2.865026     3B1g    3.128290  
       3B3g    3.128290     7B2u    3.858256  

    Beta Occupied:                                                        

       1Ag   -18.795660     1B2u  -18.795646     2Ag    -0.623198  
       2B2u   -0.392047     1B3u    0.005446     1B1u    0.005446  

    Beta Virtual:                                                         

       3Ag     0.096853     1B1g    0.203659     1B3g    0.203659  
       3B2u    0.450282     2B1u    1.205750     2B3u    1.205750  
       4B2u    1.244529     2B1g    1.328317     2B3g    1.328317  
       4Ag     1.397850     5Ag     1.568354     5B2u    1.938071  
       6Ag     2.699266     3B3u    2.726721     3B1u    2.726721  
       7Ag     2.894377     1B2g    2.894379     6B2u    2.969796  
       1Au     2.969798     3B1g    3.265797     3B3g    3.265797  
       7B2u    4.004457  

    Final Occupation by Irrep:
             Ag   B1g   B2g   B3g    Au   B1u   B2u   B3u 
    DOCC [     2,    0,    0,    0,    0,    1,    2,    1 ]
    SOCC [     1,    1,    0,    1,    0,    0,    2,    0 ]
    NA   [     3,    1,    0,    1,    0,    1,    4,    1 ]
    NB   [     2,    0,    0,    0,    0,    1,    2,    1 ]

  @DF-UKS Final Energy:  -149.16226676306070

   => Energetics <=

    Nuclear Repulsion Energy =             22.1230775986811317
    One-Electron Energy =                -255.3788615519242171
    Two-Electron Energy =                  98.1905066040231560
    DFT Exchange-Correlation Energy =     -14.0969894138407970
    Empirical Dispersion Energy =           0.0000000000000000
    VV10 Nonlocal Energy =                  0.0000000000000000
    Total Energy =                       -149.1622667630606998

  UHF NO Occupations:
  HONO-2 :    1B3g 1.0000000
  HONO-1 :    1B1g 1.0000000
  HONO-0 :    4B2u 1.0000000
  LUNO+0 :    2B1u 0.0025090
  LUNO+1 :    2B3u 0.0025090
  LUNO+2 :    4 Ag 0.0008315
  LUNO+3 :    5B2u 0.0004850


Computation Completed


Properties will be evaluated at   0.000000,   0.000000,   0.000000 [a0]

Properties computed using the SCF density matrix


 Multipole Moments:

 ------------------------------------------------------------------------------------
     Multipole            Electronic (a.u.)      Nuclear  (a.u.)        Total (a.u.)
 ------------------------------------------------------------------------------------

 L = 1.  Multiply by 2.5417464519 to convert [e a0] to [Debye]
 Dipole X            :          0.0000000            0.0000000            0.0000000
 Dipole Y            :          0.0000000            0.0000000            0.0000000
 Dipole Z            :          0.0000000            0.0000000            0.0000000
 Magnitude           :                                                    0.0000000

 ------------------------------------------------------------------------------------

*** tstop() called on cics-quant-001 at Tue Dec 23 11:07:36 2025
Module time:
	user time   =       0.61 seconds =       0.01 minutes
	system time =       0.03 seconds =       0.00 minutes
	total time  =          0 seconds =       0.00 minutes
Total time:
	user time   =       2.07 seconds =       0.03 minutes
	system time =       0.20 seconds =       0.00 minutes
	total time  =          1 seconds =       0.02 minutes

*** tstart() called on cics-quant-001
*** at Tue Dec 23 11:07:36 2025


         ------------------------------------------------------------
                                   SCF GRAD                          
                          Rob Parrish, Justin Turney,                
                       Andy Simmonett, and Alex Sokolov              
         ------------------------------------------------------------

  ==> Geometry <==

    Molecular point group: d2h
    Full point group: D_inf_h

    Geometry (in Angstrom), charge = -1, multiplicity = 6:

       Center              X                  Y                   Z               Mass       
    ------------   -----------------  -----------------  -----------------  -----------------
         O           -0.000000000000     0.765430156175     0.000000000000    15.994914619570
         O            0.000000000000    -0.765430156175     0.000000000000    15.994914619570

  Nuclear repulsion =   22.123077598681135

  ==> Basis Set <==

  Basis Set: CC-PVDZ
    Blend: CC-PVDZ
    Number of shells: 12
    Number of basis functions: 28
    Number of Cartesian functions: 30
    Spherical Harmonics?: true
    Max angular momentum: 2

  ==> DFJKGrad: Density-Fitted SCF Gradients <==

    Gradient:                    1
    J tasked:                  Yes
    K tasked:                  Yes
    wK tasked:                  No
    OpenMP threads:              6
    Integrals threads:           6
    Memory [MiB]:             5722
    Schwarz Cutoff:          1E-12
    Fitting Condition:       1E-10

   => Auxiliary Basis Set <=

  Basis Set: (CC-PVDZ AUX)
    Blend: CC-PVDZ-JKFIT
    Number of shells: 48
    Number of basis functions: 140
    Number of Cartesian functions: 162
    Spherical Harmonics?: true
    Max angular momentum: 3

  ==> DFT Potential <==

   => LibXC <=

    Version 7.0.0
    S. Lehtola, C. Steigemann, M. J.T. Oliveira, and M. A.L. Marques.,  SoftwareX 7, 1–5 (2018) (10.1016/j.softx.2017.11.002)

   => Composite Functional: B3LYP <= 

    B3LYP Hyb-GGA Exchange-Correlation Functional

    P. J. Stephens, F. J. Devlin, C. F. Chabalowski, and M. J. Frisch.,  J. Phys. Chem. 98, 11623 (1994) (10.1021/j100096a001)

    Deriv               =              1
    GGA                 =           TRUE
    Meta                =          FALSE

    Exchange Hybrid     =           TRUE
    MP2 Hybrid          =          FALSE

   => Exchange Functionals <=

    0.0800   Slater exchange
    0.7200         Becke 88

   => Exact (HF) Exchange <=

    0.2000               HF 

   => Correlation Functionals <=

    0.1900   Vosko, Wilk & Nusair (VWN5_RPA)
    0.8100   Lee, Yang & Parr

   => LibXC Density Thresholds  <==

    XC_HYB_GGA_XC_B3LYP:  1.00E-15 

   => Molecular Quadrature <=

    Radial Scheme          =       TREUTLER
    Pruning Scheme         =           NONE
    Nuclear Scheme         =       TREUTLER

    Blocking Scheme        =         OCTREE
    BS radius alpha        =              1
    Pruning alpha          =              1
    Radial Points          =             75
    Spherical Points       =            302
    Total Points           =          41506
    Total Blocks           =            372
    Max Points             =            254
    Max Functions          =             28
    Weights Tolerance      =       1.00E-15


  -Total Gradient:
     Atom            X                  Y                   Z
    ------   -----------------  -----------------  -----------------
       1        0.000000000000    -0.096024018003    -0.000000000000
       2       -0.000000000000     0.096024018003    -0.000000000000


*** tstop() called on cics-quant-001 at Tue Dec 23 11:07:36 2025
Module time:
	user time   =       0.11 seconds =       0.00 minutes
	system time =       0.05 seconds =       0.00 minutes
	total time  =          0 seconds =       0.00 minutes
Total time:
	user time   =       2.18 seconds =       0.04 minutes
	system time =       0.25 seconds =       0.00 minutes
	total time  =          1 seconds =       0.02 minutes

    			-----------------------------------------

    			 OPTKING 3.0: for geometry optimizations 

    			     By R.A. King, Bethel University     

    			        with contributions from          

    			    A.V. Copan, J. Cayton, A. Heide      

    			-----------------------------------------

    
	                            ===> Fragment 1 <== 

	 Z (Atomic Numbers)          Masses                          Geom                  
	       8.000000            15.994915         -0.00000000  1.44645336  0.00000000   
	       8.000000            15.994915          0.00000000 -1.44645336  0.00000000   

	 - Coordinate -           - BOHR/RAD -       - ANG/DEG -
	 R(1,2)           =         2.892907           1.530860


	        --- Internal Coordinate Step in ANG or DEG, aJ/ANG or AJ/DEG ---
	-------------------------------------------------------------------------------
	           Coordinate      Previous         Force          Change          New 
	           ----------      --------        ------          ------        ------
	               R(1,2)       1.53086        0.79112        0.08097       1.61183
	-------------------------------------------------------------------------------

	                                 ==> Convergence Check <==                                  
    
	Measures of convergence in internal coordinates in au.
    
	Criteria marked as inactive (o), active & met (*), and active & unmet ( ).

	----------------------------------------------------------------------------------------------
	   Step    Total Energy     Delta E     Max Force     RMS Force      Max Disp      RMS Disp   
	----------------------------------------------------------------------------------------------
	  Convergence Criteria     1.00e-06 *    3.00e-04 *             o    1.20e-03 *             o
	----------------------------------------------------------------------------------------------
	     3    -149.16226676   -1.66e-02      9.60e-02      9.60e-02 o    1.53e-01      1.53e-01 o  ~
	----------------------------------------------------------------------------------------------

Next Geometry in Ang 
	Fragment 1 (Ang)

	    O  -0.0000000000   0.8059141350   0.0000000000
	    O   0.0000000000  -0.8059141350   0.0000000000


    Structure for next step:
    Molecular point group: d2h
    Full point group: D_inf_h

    Geometry (in Angstrom), charge = -1, multiplicity = 6:

    O           -0.000000000000     0.805914134978     0.000000000000
    O            0.000000000000    -0.805914134978     0.000000000000


Scratch directory: /tmp/
gradient() will perform analytic gradient computation.
   => Libint2 <=

    Primary   basis highest AM E, G, H:  6, 6, 3
    Auxiliary basis highest AM E, G, H:  7, 7, 4
    Onebody   basis highest AM E, G, H:  -, -, -
    Solid Harmonics ordering:            Gaussian

*** tstart() called on cics-quant-001
*** at Tue Dec 23 11:07:36 2025

   => Loading Basis Set <=

    Name: CC-PVDZ
    Role: ORBITAL
    Keyword: BASIS
    atoms 1-2 entry O          line   198 file /home/jrodriguesro/psi4conda/share/psi4/basis/cc-pvdz.gbs 


         ---------------------------------------------------------
                                   SCF
               by Justin Turney, Rob Parrish, Andy Simmonett
                          and Daniel G. A. Smith
                              UKS Reference
                        6 Threads,   7629 MiB Core
         ---------------------------------------------------------

  ==> Geometry <==

    Molecular point group: d2h
    Full point group: D_inf_h

    Geometry (in Angstrom), charge = -1, multiplicity = 6:

       Center              X                  Y                   Z               Mass       
    ------------   -----------------  -----------------  -----------------  -----------------
         O           -0.000000000000     0.805914134978     0.000000000000    15.994914619570
         O            0.000000000000    -0.805914134978     0.000000000000    15.994914619570

  Running in d2h symmetry.

  Rotational constants: A = ************  B =      0.81135  C =      0.81135 [cm^-1]
  Rotational constants: A = ************  B =  24323.59321  C =  24323.59321 [MHz]
  Nuclear repulsion =   21.011755479274857

  Charge       = -1
  Multiplicity = 6
  Electrons    = 17
  Nalpha       = 11
  Nbeta        = 6

  ==> Algorithm <==

  SCF Algorithm Type is DF.
  DIIS enabled.
  MOM disabled.
  Fractional occupation disabled.
  Guess Type is READ.
  Energy threshold   = 1.00e-08
  Density threshold  = 1.00e-08
  Integral threshold = 1.00e-12

  ==> Primary Basis <==

  Basis Set: CC-PVDZ
    Blend: CC-PVDZ
    Number of shells: 12
    Number of basis functions: 28
    Number of Cartesian functions: 30
    Spherical Harmonics?: true
    Max angular momentum: 2

  ==> DFT Potential <==

   => LibXC <=

    Version 7.0.0
    S. Lehtola, C. Steigemann, M. J.T. Oliveira, and M. A.L. Marques.,  SoftwareX 7, 1–5 (2018) (10.1016/j.softx.2017.11.002)

   => Composite Functional: B3LYP <= 

    B3LYP Hyb-GGA Exchange-Correlation Functional

    P. J. Stephens, F. J. Devlin, C. F. Chabalowski, and M. J. Frisch.,  J. Phys. Chem. 98, 11623 (1994) (10.1021/j100096a001)

    Deriv               =              1
    GGA                 =           TRUE
    Meta                =          FALSE

    Exchange Hybrid     =           TRUE
    MP2 Hybrid          =          FALSE

   => Exchange Functionals <=

    0.0800   Slater exchange
    0.7200         Becke 88

   => Exact (HF) Exchange <=

    0.2000               HF 

   => Correlation Functionals <=

    0.1900   Vosko, Wilk & Nusair (VWN5_RPA)
    0.8100   Lee, Yang & Parr

   => LibXC Density Thresholds  <==

    XC_HYB_GGA_XC_B3LYP:  1.00E-15 

   => Molecular Quadrature <=

    Radial Scheme          =       TREUTLER
    Pruning Scheme         =           NONE
    Nuclear Scheme         =       TREUTLER

    Blocking Scheme        =         OCTREE
    BS radius alpha        =              1
    Pruning alpha          =              1
    Radial Points          =             75
    Spherical Points       =            302
    Total Points           =          41508
    Total Blocks           =            380
    Max Points             =            252
    Max Functions          =             28
    Weights Tolerance      =       1.00E-15

   => Loading Basis Set <=

    Name: (CC-PVDZ AUX)
    Role: JKFIT
    Keyword: DF_BASIS_SCF
    atoms 1-2 entry O          line   221 file /home/jrodriguesro/psi4conda/share/psi4/basis/cc-pvdz-jkfit.gbs 

   => Loading Basis Set <=

    Name: CC-PVDZ
    Role: ORBITAL
    Keyword: BASIS
    atoms 1-2 entry O          line   198 file /home/jrodriguesro/psi4conda/share/psi4/basis/cc-pvdz.gbs 

  Reading orbitals from file /tmp/sextet_OO.default.382757.180.npy, no projection.

  ==> Integral Setup <==

  DFHelper Memory: AOs need 0.001 GiB; user supplied 5.555 GiB. 
  SCF_SUBTYPE=INCORE selected. In-core MEM_DF algorithm will be used.
  Using in-core AOs.

  ==> MemDFJK: Density-Fitted J/K Matrices <==

    J tasked:                   Yes
    K tasked:                   Yes
    wK tasked:                   No
    OpenMP threads:               6
    Memory [MiB]:              5688
    Algorithm:                 Core
    Schwarz Cutoff:           1E-12
    Mask sparsity (%):       0.0000
    Fitting Condition:        1E-10

   => Auxiliary Basis Set <=

  Basis Set: (CC-PVDZ AUX)
    Blend: CC-PVDZ-JKFIT
    Number of shells: 48
    Number of basis functions: 140
    Number of Cartesian functions: 162
    Spherical Harmonics?: true
    Max angular momentum: 3

  Cached 100.0% of DFT collocation blocks in 0.033 [GiB].

  Minimum eigenvalue in the overlap matrix is 7.8908778870E-02.
  Reciprocal condition number of the overlap matrix is 3.5268224772E-02.
    Using symmetric orthogonalization.

  ==> Pre-Iterations <==

  SCF Guess: Orbitals guess was supplied from a previous computation.

   -------------------------------------------------------
    Irrep   Nso     Nmo     Nalpha   Nbeta   Ndocc  Nsocc
   -------------------------------------------------------
     Ag         7       7       3       2       2       1
     B1g        3       3       1       0       0       1
     B2g        1       1       0       0       0       0
     B3g        3       3       1       0       0       1
     Au         1       1       0       0       0       0
     B1u        3       3       1       1       1       0
     B2u        7       7       4       2       2       2
     B3u        3       3       1       1       1       0
   -------------------------------------------------------
    Total      28      28      11       6       6       5
   -------------------------------------------------------

  ==> Iterations <==

                           Total Energy        Delta E     RMS |[F,P]|

   @DF-UKS iter   0:  -149.15180324424733   -1.49152e+02   3.91443e-02 
   @DF-UKS iter   1:  -149.17087071481410   -1.90675e-02   3.48388e-03 DIIS/ADIIS
   @DF-UKS iter   2:  -149.17124465037810   -3.73936e-04   2.44954e-03 DIIS/ADIIS/DAMP=1%
   @DF-UKS iter   3:  -149.17241800624279   -1.17336e-03   6.31385e-05 DIIS/DAMP=1%
   @DF-UKS iter   4:  -149.17157190090620    8.46105e-04   2.06418e-05 DIIS/DAMP=1%
   @DF-UKS iter   5:  -149.17157508235871   -3.18145e-06   5.17393e-06 DIIS/DAMP=1%
   @DF-UKS iter   6:  -149.17156959619695    5.48616e-06   8.48080e-07 DIIS/DAMP=1%
   @DF-UKS iter   7:  -149.17156874140372    8.54793e-07   6.82649e-08 DIIS/DAMP=1%
   @DF-UKS iter   8:  -149.17156907936362   -3.37960e-07   7.49110e-09 DIIS/DAMP=1%
   @DF-UKS iter   9:  -149.17156905822662    2.11370e-08   1.77591e-10 DIIS/DAMP=1%
   @DF-UKS iter  10:  -149.17156906085972   -2.63310e-09   4.47765e-11 DIIS/DAMP=1%
  Energy and wave function converged.


  ==> Post-Iterations <==

   Electrons on quadrature grid:
      Nalpha   =   11.0000014727 ; deviation = 1.473e-06
      Nbeta    =    6.0000005967 ; deviation = 5.967e-07
      Ntotal   =   17.0000020694 ; deviation = 2.069e-06 

   @Spin Contamination Metric:   1.264277615E-02
   @S^2 Expected:                8.750000000E+00
   @S^2 Observed:                8.762642776E+00
   @S   Expected:                2.500000000E+00
   @S   Observed:                2.500000000E+00

    Orbital Energies [Eh]
    ---------------------

    Alpha Occupied:                                                       

       1B2u  -18.871315     1Ag   -18.871214     2Ag    -0.759606  
       2B2u   -0.599977     3Ag    -0.207782     1B1u   -0.121088  
       1B3u   -0.121088     1B3g   -0.024246     1B1g   -0.024246  
       3B2u    0.078511     4B2u    1.012404  

    Alpha Virtual:                                                        

       2B3u    1.103322     2B1u    1.103322     4Ag     1.211029  
       2B1g    1.236915     2B3g    1.236915     5Ag     1.453829  
       5B2u    1.821464     6Ag     2.531806     3B1u    2.650136  
       3B3u    2.650136     7Ag     2.805761     1B2g    2.805766  
       6B2u    2.852348     1Au     2.852352     3B3g    3.045809  
       3B1g    3.045809     7B2u    3.723889  

    Beta Occupied:                                                        

       1Ag   -18.803229     1B2u  -18.803220     2Ag    -0.601463  
       2B2u   -0.410109     1B1u    0.014907     1B3u    0.014907  

    Beta Virtual:                                                         

       3Ag     0.103355     1B3g    0.189142     1B1g    0.189142  
       3B2u    0.408600     2B3u    1.195279     2B1u    1.195279  
       4B2u    1.255483     2B1g    1.325880     2B3g    1.325880  
       4Ag     1.404429     5Ag     1.554882     5B2u    1.915660  
       6Ag     2.681991     3B1u    2.783088     3B3u    2.783088  
       7Ag     2.906098     1B2g    2.906103     6B2u    2.955708  
       1Au     2.955713     3B3g    3.183158     3B1g    3.183158  
       7B2u    3.868219  

    Final Occupation by Irrep:
             Ag   B1g   B2g   B3g    Au   B1u   B2u   B3u 
    DOCC [     2,    0,    0,    0,    0,    1,    2,    1 ]
    SOCC [     1,    1,    0,    1,    0,    0,    2,    0 ]
    NA   [     3,    1,    0,    1,    0,    1,    4,    1 ]
    NB   [     2,    0,    0,    0,    0,    1,    2,    1 ]

  @DF-UKS Final Energy:  -149.17156906085972

   => Energetics <=

    Nuclear Repulsion Energy =             21.0117554792748571
    One-Electron Energy =                -253.1638167113212319
    Two-Electron Energy =                  97.0562632617864836
    DFT Exchange-Correlation Energy =     -14.0757710905998437
    Empirical Dispersion Energy =           0.0000000000000000
    VV10 Nonlocal Energy =                  0.0000000000000000
    Total Energy =                       -149.1715690608597242

  UHF NO Occupations:
  HONO-2 :    4B2u 1.0000000
  HONO-1 :    1B3g 1.0000000
  HONO-0 :    1B1g 1.0000000
  LUNO+0 :    2B3u 0.0025187
  LUNO+1 :    2B1u 0.0025187
  LUNO+2 :    4 Ag 0.0008065
  LUNO+3 :    5B2u 0.0004841


Computation Completed


Properties will be evaluated at   0.000000,   0.000000,   0.000000 [a0]

Properties computed using the SCF density matrix


 Multipole Moments:

 ------------------------------------------------------------------------------------
     Multipole            Electronic (a.u.)      Nuclear  (a.u.)        Total (a.u.)
 ------------------------------------------------------------------------------------

 L = 1.  Multiply by 2.5417464519 to convert [e a0] to [Debye]
 Dipole X            :          0.0000000            0.0000000            0.0000000
 Dipole Y            :          0.0000000            0.0000000            0.0000000
 Dipole Z            :          0.0000000            0.0000000            0.0000000
 Magnitude           :                                                    0.0000000

 ------------------------------------------------------------------------------------

*** tstop() called on cics-quant-001 at Tue Dec 23 11:07:36 2025
Module time:
	user time   =       0.57 seconds =       0.01 minutes
	system time =       0.02 seconds =       0.00 minutes
	total time  =          0 seconds =       0.00 minutes
Total time:
	user time   =       2.77 seconds =       0.05 minutes
	system time =       0.27 seconds =       0.00 minutes
	total time  =          1 seconds =       0.02 minutes

*** tstart() called on cics-quant-001
*** at Tue Dec 23 11:07:36 2025


         ------------------------------------------------------------
                                   SCF GRAD                          
                          Rob Parrish, Justin Turney,                
                       Andy Simmonett, and Alex Sokolov              
         ------------------------------------------------------------

  ==> Geometry <==

    Molecular point group: d2h
    Full point group: D_inf_h

    Geometry (in Angstrom), charge = -1, multiplicity = 6:

       Center              X                  Y                   Z               Mass       
    ------------   -----------------  -----------------  -----------------  -----------------
         O           -0.000000000000     0.805914134978     0.000000000000    15.994914619570
         O            0.000000000000    -0.805914134978     0.000000000000    15.994914619570

  Nuclear repulsion =   21.011755479274857

  ==> Basis Set <==

  Basis Set: CC-PVDZ
    Blend: CC-PVDZ
    Number of shells: 12
    Number of basis functions: 28
    Number of Cartesian functions: 30
    Spherical Harmonics?: true
    Max angular momentum: 2

  ==> DFJKGrad: Density-Fitted SCF Gradients <==

    Gradient:                    1
    J tasked:                  Yes
    K tasked:                  Yes
    wK tasked:                  No
    OpenMP threads:              6
    Integrals threads:           6
    Memory [MiB]:             5722
    Schwarz Cutoff:          1E-12
    Fitting Condition:       1E-10

   => Auxiliary Basis Set <=

  Basis Set: (CC-PVDZ AUX)
    Blend: CC-PVDZ-JKFIT
    Number of shells: 48
    Number of basis functions: 140
    Number of Cartesian functions: 162
    Spherical Harmonics?: true
    Max angular momentum: 3

  ==> DFT Potential <==

   => LibXC <=

    Version 7.0.0
    S. Lehtola, C. Steigemann, M. J.T. Oliveira, and M. A.L. Marques.,  SoftwareX 7, 1–5 (2018) (10.1016/j.softx.2017.11.002)

   => Composite Functional: B3LYP <= 

    B3LYP Hyb-GGA Exchange-Correlation Functional

    P. J. Stephens, F. J. Devlin, C. F. Chabalowski, and M. J. Frisch.,  J. Phys. Chem. 98, 11623 (1994) (10.1021/j100096a001)

    Deriv               =              1
    GGA                 =           TRUE
    Meta                =          FALSE

    Exchange Hybrid     =           TRUE
    MP2 Hybrid          =          FALSE

   => Exchange Functionals <=

    0.0800   Slater exchange
    0.7200         Becke 88

   => Exact (HF) Exchange <=

    0.2000               HF 

   => Correlation Functionals <=

    0.1900   Vosko, Wilk & Nusair (VWN5_RPA)
    0.8100   Lee, Yang & Parr

   => LibXC Density Thresholds  <==

    XC_HYB_GGA_XC_B3LYP:  1.00E-15 

   => Molecular Quadrature <=

    Radial Scheme          =       TREUTLER
    Pruning Scheme         =           NONE
    Nuclear Scheme         =       TREUTLER

    Blocking Scheme        =         OCTREE
    BS radius alpha        =              1
    Pruning alpha          =              1
    Radial Points          =             75
    Spherical Points       =            302
    Total Points           =          41508
    Total Blocks           =            380
    Max Points             =            252
    Max Functions          =             28
    Weights Tolerance      =       1.00E-15


  -Total Gradient:
     Atom            X                  Y                   Z
    ------   -----------------  -----------------  -----------------
       1        0.000000000000    -0.029932709246     0.000000000000
       2       -0.000000000000     0.029932709246     0.000000000000


*** tstop() called on cics-quant-001 at Tue Dec 23 11:07:37 2025
Module time:
	user time   =       0.12 seconds =       0.00 minutes
	system time =       0.04 seconds =       0.00 minutes
	total time  =          1 seconds =       0.02 minutes
Total time:
	user time   =       2.89 seconds =       0.05 minutes
	system time =       0.31 seconds =       0.01 minutes
	total time  =          2 seconds =       0.03 minutes

    			-----------------------------------------

    			 OPTKING 3.0: for geometry optimizations 

    			     By R.A. King, Bethel University     

    			        with contributions from          

    			    A.V. Copan, J. Cayton, A. Heide      

    			-----------------------------------------

    
	                            ===> Fragment 1 <== 

	 Z (Atomic Numbers)          Masses                          Geom                  
	       8.000000            15.994915         -0.00000000  1.52295700  0.00000000   
	       8.000000            15.994915          0.00000000 -1.52295700  0.00000000   

	 - Coordinate -           - BOHR/RAD -       - ANG/DEG -
	 R(1,2)           =         3.045914           1.611828


	        --- Internal Coordinate Step in ANG or DEG, aJ/ANG or AJ/DEG ---
	-------------------------------------------------------------------------------
	           Coordinate      Previous         Force          Change          New 
	           ----------      --------        ------          ------        ------
	               R(1,2)       1.61183        0.24661        0.03075       1.64258
	-------------------------------------------------------------------------------

	                                 ==> Convergence Check <==                                  
    
	Measures of convergence in internal coordinates in au.
    
	Criteria marked as inactive (o), active & met (*), and active & unmet ( ).

	----------------------------------------------------------------------------------------------
	   Step    Total Energy     Delta E     Max Force     RMS Force      Max Disp      RMS Disp   
	----------------------------------------------------------------------------------------------
	  Convergence Criteria     1.00e-06 *    3.00e-04 *             o    1.20e-03 *             o
	----------------------------------------------------------------------------------------------
	     4    -149.17156906   -9.30e-03      2.99e-02      2.99e-02 o    5.81e-02      5.81e-02 o  ~
	----------------------------------------------------------------------------------------------

Next Geometry in Ang 
	Fragment 1 (Ang)

	    O  -0.0000000000   0.8212887089   0.0000000000
	    O   0.0000000000  -0.8212887089   0.0000000000


    Structure for next step:
    Molecular point group: d2h
    Full point group: D_inf_h

    Geometry (in Angstrom), charge = -1, multiplicity = 6:

    O           -0.000000000000     0.821288708855     0.000000000000
    O            0.000000000000    -0.821288708855     0.000000000000


Scratch directory: /tmp/
gradient() will perform analytic gradient computation.
   => Libint2 <=

    Primary   basis highest AM E, G, H:  6, 6, 3
    Auxiliary basis highest AM E, G, H:  7, 7, 4
    Onebody   basis highest AM E, G, H:  -, -, -
    Solid Harmonics ordering:            Gaussian

*** tstart() called on cics-quant-001
*** at Tue Dec 23 11:07:37 2025

   => Loading Basis Set <=

    Name: CC-PVDZ
    Role: ORBITAL
    Keyword: BASIS
    atoms 1-2 entry O          line   198 file /home/jrodriguesro/psi4conda/share/psi4/basis/cc-pvdz.gbs 


         ---------------------------------------------------------
                                   SCF
               by Justin Turney, Rob Parrish, Andy Simmonett
                          and Daniel G. A. Smith
                              UKS Reference
                        6 Threads,   7629 MiB Core
         ---------------------------------------------------------

  ==> Geometry <==

    Molecular point group: d2h
    Full point group: D_inf_h

    Geometry (in Angstrom), charge = -1, multiplicity = 6:

       Center              X                  Y                   Z               Mass       
    ------------   -----------------  -----------------  -----------------  -----------------
         O           -0.000000000000     0.821288708855     0.000000000000    15.994914619570
         O            0.000000000000    -0.821288708855     0.000000000000    15.994914619570

  Running in d2h symmetry.

  Rotational constants: A = ************  B =      0.78126  C =      0.78126 [cm^-1]
  Rotational constants: A = ************  B =  23421.43894  C =  23421.43894 [MHz]
  Nuclear repulsion =   20.618414156753200

  Charge       = -1
  Multiplicity = 6
  Electrons    = 17
  Nalpha       = 11
  Nbeta        = 6

  ==> Algorithm <==

  SCF Algorithm Type is DF.
  DIIS enabled.
  MOM disabled.
  Fractional occupation disabled.
  Guess Type is READ.
  Energy threshold   = 1.00e-08
  Density threshold  = 1.00e-08
  Integral threshold = 1.00e-12

  ==> Primary Basis <==

  Basis Set: CC-PVDZ
    Blend: CC-PVDZ
    Number of shells: 12
    Number of basis functions: 28
    Number of Cartesian functions: 30
    Spherical Harmonics?: true
    Max angular momentum: 2

  ==> DFT Potential <==

   => LibXC <=

    Version 7.0.0
    S. Lehtola, C. Steigemann, M. J.T. Oliveira, and M. A.L. Marques.,  SoftwareX 7, 1–5 (2018) (10.1016/j.softx.2017.11.002)

   => Composite Functional: B3LYP <= 

    B3LYP Hyb-GGA Exchange-Correlation Functional

    P. J. Stephens, F. J. Devlin, C. F. Chabalowski, and M. J. Frisch.,  J. Phys. Chem. 98, 11623 (1994) (10.1021/j100096a001)

    Deriv               =              1
    GGA                 =           TRUE
    Meta                =          FALSE

    Exchange Hybrid     =           TRUE
    MP2 Hybrid          =          FALSE

   => Exchange Functionals <=

    0.0800   Slater exchange
    0.7200         Becke 88

   => Exact (HF) Exchange <=

    0.2000               HF 

   => Correlation Functionals <=

    0.1900   Vosko, Wilk & Nusair (VWN5_RPA)
    0.8100   Lee, Yang & Parr

   => LibXC Density Thresholds  <==

    XC_HYB_GGA_XC_B3LYP:  1.00E-15 

   => Molecular Quadrature <=

    Radial Scheme          =       TREUTLER
    Pruning Scheme         =           NONE
    Nuclear Scheme         =       TREUTLER

    Blocking Scheme        =         OCTREE
    BS radius alpha        =              1
    Pruning alpha          =              1
    Radial Points          =             75
    Spherical Points       =            302
    Total Points           =          41508
    Total Blocks           =            378
    Max Points             =            255
    Max Functions          =             28
    Weights Tolerance      =       1.00E-15

   => Loading Basis Set <=

    Name: (CC-PVDZ AUX)
    Role: JKFIT
    Keyword: DF_BASIS_SCF
    atoms 1-2 entry O          line   221 file /home/jrodriguesro/psi4conda/share/psi4/basis/cc-pvdz-jkfit.gbs 

   => Loading Basis Set <=

    Name: CC-PVDZ
    Role: ORBITAL
    Keyword: BASIS
    atoms 1-2 entry O          line   198 file /home/jrodriguesro/psi4conda/share/psi4/basis/cc-pvdz.gbs 

  Reading orbitals from file /tmp/sextet_OO.default.382757.180.npy, no projection.

  ==> Integral Setup <==

  DFHelper Memory: AOs need 0.001 GiB; user supplied 5.555 GiB. 
  SCF_SUBTYPE=INCORE selected. In-core MEM_DF algorithm will be used.
  Using in-core AOs.

  ==> MemDFJK: Density-Fitted J/K Matrices <==

    J tasked:                   Yes
    K tasked:                   Yes
    wK tasked:                   No
    OpenMP threads:               6
    Memory [MiB]:              5688
    Algorithm:                 Core
    Schwarz Cutoff:           1E-12
    Mask sparsity (%):       0.0000
    Fitting Condition:        1E-10

   => Auxiliary Basis Set <=

  Basis Set: (CC-PVDZ AUX)
    Blend: CC-PVDZ-JKFIT
    Number of shells: 48
    Number of basis functions: 140
    Number of Cartesian functions: 162
    Spherical Harmonics?: true
    Max angular momentum: 3

  Cached 100.0% of DFT collocation blocks in 0.033 [GiB].

  Minimum eigenvalue in the overlap matrix is 8.3323901403E-02.
  Reciprocal condition number of the overlap matrix is 3.7675434116E-02.
    Using symmetric orthogonalization.

  ==> Pre-Iterations <==

  SCF Guess: Orbitals guess was supplied from a previous computation.

   -------------------------------------------------------
    Irrep   Nso     Nmo     Nalpha   Nbeta   Ndocc  Nsocc
   -------------------------------------------------------
     Ag         7       7       3       2       2       1
     B1g        3       3       1       0       0       1
     B2g        1       1       0       0       0       0
     B3g        3       3       1       0       0       1
     Au         1       1       0       0       0       0
     B1u        3       3       1       1       1       0
     B2u        7       7       4       2       2       2
     B3u        3       3       1       1       1       0
   -------------------------------------------------------
    Total      28      28      11       6       6       5
   -------------------------------------------------------

  ==> Iterations <==

                           Total Energy        Delta E     RMS |[F,P]|

   @DF-UKS iter   0:  -149.16423960904208   -1.49164e+02   1.21996e-02 
   @DF-UKS iter   1:  -149.17269845698198   -8.45885e-03   8.85559e-04 DIIS/ADIIS
   @DF-UKS iter   2:  -149.17272414432099   -2.56873e-05   6.17642e-04 DIIS/ADIIS/DAMP=1%
   @DF-UKS iter   3:  -149.17296155178195   -2.37407e-04   1.79498e-05 DIIS/DAMP=1%
   @DF-UKS iter   4:  -149.17274420594612    2.17346e-04   5.11549e-06 DIIS/DAMP=1%
   @DF-UKS iter   5:  -149.17274647850229   -2.27256e-06   1.34698e-06 DIIS/DAMP=1%
   @DF-UKS iter   6:  -149.17274494977210    1.52873e-06   2.27935e-07 DIIS/DAMP=1%
   @DF-UKS iter   7:  -149.17274483654683    1.13225e-07   2.10369e-08 DIIS/DAMP=1%
   @DF-UKS iter   8:  -149.17274492895783   -9.24110e-08   2.51120e-09 DIIS/DAMP=1%
   @DF-UKS iter   9:  -149.17274492228083    6.67700e-09   4.47448e-11 DIIS/DAMP=1%
  Energy and wave function converged.


  ==> Post-Iterations <==

   Electrons on quadrature grid:
      Nalpha   =   11.0000015970 ; deviation = 1.597e-06
      Nbeta    =    6.0000006717 ; deviation = 6.717e-07
      Ntotal   =   17.0000022687 ; deviation = 2.269e-06 

   @Spin Contamination Metric:   1.261257281E-02
   @S^2 Expected:                8.750000000E+00
   @S^2 Observed:                8.762612573E+00
   @S   Expected:                2.500000000E+00
   @S   Observed:                2.500000000E+00

    Orbital Energies [Eh]
    ---------------------

    Alpha Occupied:                                                       

       1B2u  -18.873500     1Ag   -18.873404     2Ag    -0.752729  
       2B2u   -0.605025     3Ag    -0.204560     1B1u   -0.118367  
       1B3u   -0.118367     1B3g   -0.028100     1B1g   -0.028100  
       3B2u    0.064765     4B2u    1.017861  

    Alpha Virtual:                                                        

       2B1u    1.099670     2B3u    1.099670     4Ag     1.212595  
       2B3g    1.236202     2B1g    1.236202     5Ag     1.442228  
       5B2u    1.814203     6Ag     2.536072     3B1u    2.668955  
       3B3u    2.668955     7Ag     2.809314     1B2g    2.809319  
       6B2u    2.848543     1Au     2.848549     3B3g    3.018732  
       3B1g    3.018732     7B2u    3.669885  

    Beta Occupied:                                                        

       1Ag   -18.805713     1B2u  -18.805706     2Ag    -0.594419  
       2B2u   -0.416362     1B1u    0.018049     1B3u    0.018049  

    Beta Virtual:                                                         

       3Ag     0.105677     1B3g    0.184189     1B1g    0.184189  
       3B2u    0.394734     2B1u    1.191555     2B3u    1.191555  
       4B2u    1.259942     2B3g    1.324879     2B1g    1.324879  
       4Ag     1.406530     5Ag     1.544167     5B2u    1.908316  
       6Ag     2.686932     3B1u    2.802404     3B3u    2.802404  
       7Ag     2.909388     1B2g    2.909395     6B2u    2.951427  
       1Au     2.951433     3B3g    3.156032     3B1g    3.156032  
       7B2u    3.813738  

    Final Occupation by Irrep:
             Ag   B1g   B2g   B3g    Au   B1u   B2u   B3u 
    DOCC [     2,    0,    0,    0,    0,    1,    2,    1 ]
    SOCC [     1,    1,    0,    1,    0,    0,    2,    0 ]
    NA   [     3,    1,    0,    1,    0,    1,    4,    1 ]
    NB   [     2,    0,    0,    0,    0,    1,    2,    1 ]

  @DF-UKS Final Energy:  -149.17274492228083

   => Energetics <=

    Nuclear Repulsion Energy =             20.6184141567532002
    One-Electron Energy =                -252.3761256045335983
    Two-Electron Energy =                  96.6539278384972249
    DFT Exchange-Correlation Energy =     -14.0689613129976543
    Empirical Dispersion Energy =           0.0000000000000000
    VV10 Nonlocal Energy =                  0.0000000000000000
    Total Energy =                       -149.1727449222808275

  UHF NO Occupations:
  HONO-2 :    1B3g 1.0000000
  HONO-1 :    1B1g 1.0000000
  HONO-0 :    4B2u 1.0000000
  LUNO+0 :    2B1u 0.0025174
  LUNO+1 :    2B3u 0.0025174
  LUNO+2 :    4 Ag 0.0007958
  LUNO+3 :    5B2u 0.0004824


Computation Completed


Properties will be evaluated at   0.000000,   0.000000,   0.000000 [a0]

Properties computed using the SCF density matrix


 Multipole Moments:

 ------------------------------------------------------------------------------------
     Multipole            Electronic (a.u.)      Nuclear  (a.u.)        Total (a.u.)
 ------------------------------------------------------------------------------------

 L = 1.  Multiply by 2.5417464519 to convert [e a0] to [Debye]
 Dipole X            :          0.0000000            0.0000000            0.0000000
 Dipole Y            :          0.0000000            0.0000000            0.0000000
 Dipole Z            :          0.0000000            0.0000000            0.0000000
 Magnitude           :                                                    0.0000000

 ------------------------------------------------------------------------------------

*** tstop() called on cics-quant-001 at Tue Dec 23 11:07:37 2025
Module time:
	user time   =       0.60 seconds =       0.01 minutes
	system time =       0.03 seconds =       0.00 minutes
	total time  =          0 seconds =       0.00 minutes
Total time:
	user time   =       3.51 seconds =       0.06 minutes
	system time =       0.34 seconds =       0.01 minutes
	total time  =          2 seconds =       0.03 minutes

*** tstart() called on cics-quant-001
*** at Tue Dec 23 11:07:37 2025


         ------------------------------------------------------------
                                   SCF GRAD                          
                          Rob Parrish, Justin Turney,                
                       Andy Simmonett, and Alex Sokolov              
         ------------------------------------------------------------

  ==> Geometry <==

    Molecular point group: d2h
    Full point group: D_inf_h

    Geometry (in Angstrom), charge = -1, multiplicity = 6:

       Center              X                  Y                   Z               Mass       
    ------------   -----------------  -----------------  -----------------  -----------------
         O           -0.000000000000     0.821288708855     0.000000000000    15.994914619570
         O            0.000000000000    -0.821288708855     0.000000000000    15.994914619570

  Nuclear repulsion =   20.618414156753200

  ==> Basis Set <==

  Basis Set: CC-PVDZ
    Blend: CC-PVDZ
    Number of shells: 12
    Number of basis functions: 28
    Number of Cartesian functions: 30
    Spherical Harmonics?: true
    Max angular momentum: 2

  ==> DFJKGrad: Density-Fitted SCF Gradients <==

    Gradient:                    1
    J tasked:                  Yes
    K tasked:                  Yes
    wK tasked:                  No
    OpenMP threads:              6
    Integrals threads:           6
    Memory [MiB]:             5722
    Schwarz Cutoff:          1E-12
    Fitting Condition:       1E-10

   => Auxiliary Basis Set <=

  Basis Set: (CC-PVDZ AUX)
    Blend: CC-PVDZ-JKFIT
    Number of shells: 48
    Number of basis functions: 140
    Number of Cartesian functions: 162
    Spherical Harmonics?: true
    Max angular momentum: 3

  ==> DFT Potential <==

   => LibXC <=

    Version 7.0.0
    S. Lehtola, C. Steigemann, M. J.T. Oliveira, and M. A.L. Marques.,  SoftwareX 7, 1–5 (2018) (10.1016/j.softx.2017.11.002)

   => Composite Functional: B3LYP <= 

    B3LYP Hyb-GGA Exchange-Correlation Functional

    P. J. Stephens, F. J. Devlin, C. F. Chabalowski, and M. J. Frisch.,  J. Phys. Chem. 98, 11623 (1994) (10.1021/j100096a001)

    Deriv               =              1
    GGA                 =           TRUE
    Meta                =          FALSE

    Exchange Hybrid     =           TRUE
    MP2 Hybrid          =          FALSE

   => Exchange Functionals <=

    0.0800   Slater exchange
    0.7200         Becke 88

   => Exact (HF) Exchange <=

    0.2000               HF 

   => Correlation Functionals <=

    0.1900   Vosko, Wilk & Nusair (VWN5_RPA)
    0.8100   Lee, Yang & Parr

   => LibXC Density Thresholds  <==

    XC_HYB_GGA_XC_B3LYP:  1.00E-15 

   => Molecular Quadrature <=

    Radial Scheme          =       TREUTLER
    Pruning Scheme         =           NONE
    Nuclear Scheme         =       TREUTLER

    Blocking Scheme        =         OCTREE
    BS radius alpha        =              1
    Pruning alpha          =              1
    Radial Points          =             75
    Spherical Points       =            302
    Total Points           =          41508
    Total Blocks           =            378
    Max Points             =            255
    Max Functions          =             28
    Weights Tolerance      =       1.00E-15


  -Total Gradient:
     Atom            X                  Y                   Z
    ------   -----------------  -----------------  -----------------
       1        0.000000000000    -0.011042373285     0.000000000000
       2       -0.000000000000     0.011042373285     0.000000000000


*** tstop() called on cics-quant-001 at Tue Dec 23 11:07:37 2025
Module time:
	user time   =       0.11 seconds =       0.00 minutes
	system time =       0.05 seconds =       0.00 minutes
	total time  =          0 seconds =       0.00 minutes
Total time:
	user time   =       3.62 seconds =       0.06 minutes
	system time =       0.39 seconds =       0.01 minutes
	total time  =          2 seconds =       0.03 minutes

    			-----------------------------------------

    			 OPTKING 3.0: for geometry optimizations 

    			     By R.A. King, Bethel University     

    			        with contributions from          

    			    A.V. Copan, J. Cayton, A. Heide      

    			-----------------------------------------

    
	                            ===> Fragment 1 <== 

	 Z (Atomic Numbers)          Masses                          Geom                  
	       8.000000            15.994915         -0.00000000  1.55201073  0.00000000   
	       8.000000            15.994915          0.00000000 -1.55201073  0.00000000   

	 - Coordinate -           - BOHR/RAD -       - ANG/DEG -
	 R(1,2)           =         3.104021           1.642577


	        --- Internal Coordinate Step in ANG or DEG, aJ/ANG or AJ/DEG ---
	-------------------------------------------------------------------------------
	           Coordinate      Previous         Force          Change          New 
	           ----------      --------        ------          ------        ------
	               R(1,2)       1.64258        0.09098        0.01215       1.65472
	-------------------------------------------------------------------------------

	                                 ==> Convergence Check <==                                  
    
	Measures of convergence in internal coordinates in au.
    
	Criteria marked as inactive (o), active & met (*), and active & unmet ( ).

	----------------------------------------------------------------------------------------------
	   Step    Total Energy     Delta E     Max Force     RMS Force      Max Disp      RMS Disp   
	----------------------------------------------------------------------------------------------
	  Convergence Criteria     1.00e-06 *    3.00e-04 *             o    1.20e-03 *             o
	----------------------------------------------------------------------------------------------
	     5    -149.17274492   -1.18e-03      1.10e-02      1.10e-02 o    2.30e-02      2.30e-02 o  ~
	----------------------------------------------------------------------------------------------

Next Geometry in Ang 
	Fragment 1 (Ang)

	    O  -0.0000000000   0.8273614951   0.0000000000
	    O   0.0000000000  -0.8273614951   0.0000000000


    Structure for next step:
    Molecular point group: d2h
    Full point group: D_inf_h

    Geometry (in Angstrom), charge = -1, multiplicity = 6:

    O           -0.000000000000     0.827361495124     0.000000000000
    O            0.000000000000    -0.827361495124     0.000000000000


Scratch directory: /tmp/
gradient() will perform analytic gradient computation.
   => Libint2 <=

    Primary   basis highest AM E, G, H:  6, 6, 3
    Auxiliary basis highest AM E, G, H:  7, 7, 4
    Onebody   basis highest AM E, G, H:  -, -, -
    Solid Harmonics ordering:            Gaussian

*** tstart() called on cics-quant-001
*** at Tue Dec 23 11:07:37 2025

   => Loading Basis Set <=

    Name: CC-PVDZ
    Role: ORBITAL
    Keyword: BASIS
    atoms 1-2 entry O          line   198 file /home/jrodriguesro/psi4conda/share/psi4/basis/cc-pvdz.gbs 


         ---------------------------------------------------------
                                   SCF
               by Justin Turney, Rob Parrish, Andy Simmonett
                          and Daniel G. A. Smith
                              UKS Reference
                        6 Threads,   7629 MiB Core
         ---------------------------------------------------------

  ==> Geometry <==

    Molecular point group: d2h
    Full point group: D_inf_h

    Geometry (in Angstrom), charge = -1, multiplicity = 6:

       Center              X                  Y                   Z               Mass       
    ------------   -----------------  -----------------  -----------------  -----------------
         O           -0.000000000000     0.827361495124     0.000000000000    15.994914619570
         O            0.000000000000    -0.827361495124     0.000000000000    15.994914619570

  Running in d2h symmetry.

  Rotational constants: A = ************  B =      0.76983  C =      0.76983 [cm^-1]
  Rotational constants: A = ************  B =  23078.87670  C =  23078.87670 [MHz]
  Nuclear repulsion =   20.467076170732145

  Charge       = -1
  Multiplicity = 6
  Electrons    = 17
  Nalpha       = 11
  Nbeta        = 6

  ==> Algorithm <==

  SCF Algorithm Type is DF.
  DIIS enabled.
  MOM disabled.
  Fractional occupation disabled.
  Guess Type is READ.
  Energy threshold   = 1.00e-08
  Density threshold  = 1.00e-08
  Integral threshold = 1.00e-12

  ==> Primary Basis <==

  Basis Set: CC-PVDZ
    Blend: CC-PVDZ
    Number of shells: 12
    Number of basis functions: 28
    Number of Cartesian functions: 30
    Spherical Harmonics?: true
    Max angular momentum: 2

  ==> DFT Potential <==

   => LibXC <=

    Version 7.0.0
    S. Lehtola, C. Steigemann, M. J.T. Oliveira, and M. A.L. Marques.,  SoftwareX 7, 1–5 (2018) (10.1016/j.softx.2017.11.002)

   => Composite Functional: B3LYP <= 

    B3LYP Hyb-GGA Exchange-Correlation Functional

    P. J. Stephens, F. J. Devlin, C. F. Chabalowski, and M. J. Frisch.,  J. Phys. Chem. 98, 11623 (1994) (10.1021/j100096a001)

    Deriv               =              1
    GGA                 =           TRUE
    Meta                =          FALSE

    Exchange Hybrid     =           TRUE
    MP2 Hybrid          =          FALSE

   => Exchange Functionals <=

    0.0800   Slater exchange
    0.7200         Becke 88

   => Exact (HF) Exchange <=

    0.2000               HF 

   => Correlation Functionals <=

    0.1900   Vosko, Wilk & Nusair (VWN5_RPA)
    0.8100   Lee, Yang & Parr

   => LibXC Density Thresholds  <==

    XC_HYB_GGA_XC_B3LYP:  1.00E-15 

   => Molecular Quadrature <=

    Radial Scheme          =       TREUTLER
    Pruning Scheme         =           NONE
    Nuclear Scheme         =       TREUTLER

    Blocking Scheme        =         OCTREE
    BS radius alpha        =              1
    Pruning alpha          =              1
    Radial Points          =             75
    Spherical Points       =            302
    Total Points           =          41508
    Total Blocks           =            380
    Max Points             =            255
    Max Functions          =             28
    Weights Tolerance      =       1.00E-15

   => Loading Basis Set <=

    Name: (CC-PVDZ AUX)
    Role: JKFIT
    Keyword: DF_BASIS_SCF
    atoms 1-2 entry O          line   221 file /home/jrodriguesro/psi4conda/share/psi4/basis/cc-pvdz-jkfit.gbs 

   => Loading Basis Set <=

    Name: CC-PVDZ
    Role: ORBITAL
    Keyword: BASIS
    atoms 1-2 entry O          line   198 file /home/jrodriguesro/psi4conda/share/psi4/basis/cc-pvdz.gbs 

  Reading orbitals from file /tmp/sextet_OO.default.382757.180.npy, no projection.

  ==> Integral Setup <==

  DFHelper Memory: AOs need 0.001 GiB; user supplied 5.555 GiB. 
  SCF_SUBTYPE=INCORE selected. In-core MEM_DF algorithm will be used.
  Using in-core AOs.

  ==> MemDFJK: Density-Fitted J/K Matrices <==

    J tasked:                   Yes
    K tasked:                   Yes
    wK tasked:                   No
    OpenMP threads:               6
    Memory [MiB]:              5688
    Algorithm:                 Core
    Schwarz Cutoff:           1E-12
    Mask sparsity (%):       0.0000
    Fitting Condition:        1E-10

   => Auxiliary Basis Set <=

  Basis Set: (CC-PVDZ AUX)
    Blend: CC-PVDZ-JKFIT
    Number of shells: 48
    Number of basis functions: 140
    Number of Cartesian functions: 162
    Spherical Harmonics?: true
    Max angular momentum: 3

  Cached 100.0% of DFT collocation blocks in 0.033 [GiB].

  Minimum eigenvalue in the overlap matrix is 8.5072020700E-02.
  Reciprocal condition number of the overlap matrix is 3.8643716041E-02.
    Using symmetric orthogonalization.

  ==> Pre-Iterations <==

  SCF Guess: Orbitals guess was supplied from a previous computation.

   -------------------------------------------------------
    Irrep   Nso     Nmo     Nalpha   Nbeta   Ndocc  Nsocc
   -------------------------------------------------------
     Ag         7       7       3       2       2       1
     B1g        3       3       1       0       0       1
     B2g        1       1       0       0       0       0
     B3g        3       3       1       0       0       1
     Au         1       1       0       0       0       0
     B1u        3       3       1       1       1       0
     B2u        7       7       4       2       2       2
     B3u        3       3       1       1       1       0
   -------------------------------------------------------
    Total      28      28      11       6       6       5
   -------------------------------------------------------

  ==> Iterations <==

                           Total Energy        Delta E     RMS |[F,P]|

   @DF-UKS iter   0:  -149.16954505551087   -1.49170e+02   4.47997e-03 
   @DF-UKS iter   1:  -149.17291548679202   -3.37043e-03   2.98597e-04 DIIS/ADIIS
   @DF-UKS iter   2:  -149.17291850926136   -3.02247e-06   2.07209e-04 DIIS/ADIIS/DAMP=1%
   @DF-UKS iter   3:  -149.17299390090415   -7.53916e-05   6.55154e-06 DIIS/DAMP=1%
   @DF-UKS iter   4:  -149.17292038856229    7.35123e-05   1.70509e-06 DIIS/DAMP=1%
   @DF-UKS iter   5:  -149.17292138664178   -9.98079e-07   4.21127e-07 DIIS/DAMP=1%
   @DF-UKS iter   6:  -149.17292084298785    5.43654e-07   7.89174e-08 DIIS/DAMP=1%
   @DF-UKS iter   7:  -149.17292082627003    1.67178e-08   7.43235e-09 DIIS/DAMP=1%
   @DF-UKS iter   8:  -149.17292085844321   -3.21732e-08   9.33982e-10 DIIS/DAMP=1%
   @DF-UKS iter   9:  -149.17292085604956    2.39365e-09   1.53448e-11 DIIS/DAMP=1%
  Energy and wave function converged.


  ==> Post-Iterations <==

   Electrons on quadrature grid:
      Nalpha   =   11.0000016154 ; deviation = 1.615e-06
      Nbeta    =    6.0000006891 ; deviation = 6.891e-07
      Ntotal   =   17.0000023045 ; deviation = 2.305e-06 

   @Spin Contamination Metric:   1.259747206E-02
   @S^2 Expected:                8.750000000E+00
   @S^2 Observed:                8.762597472E+00
   @S   Expected:                2.500000000E+00
   @S   Observed:                2.500000000E+00

    Orbital Energies [Eh]
    ---------------------

    Alpha Occupied:                                                       

       1B2u  -18.874314     1Ag   -18.874220     2Ag    -0.750181  
       2B2u   -0.606943     3Ag    -0.203301     1B1u   -0.117356  
       1B3u   -0.117356     1B3g   -0.029554     1B1g   -0.029554  
       3B2u    0.059640     4B2u    1.020012  

    Alpha Virtual:                                                        

       2B1u    1.098284     2B3u    1.098284     4Ag     1.213113  
       2B3g    1.235894     2B1g    1.235894     5Ag     1.437023  
       5B2u    1.811494     6Ag     2.539173     3B1u    2.676029  
       3B3u    2.676029     7Ag     2.810564     1B2g    2.810569  
       6B2u    2.847173     1Au     2.847178     3B3g    3.008666  
       3B1g    3.008666     7B2u    3.648355  

    Beta Occupied:                                                        

       1Ag   -18.806640     1B2u  -18.806634     2Ag    -0.591801  
       2B2u   -0.418744     1B1u    0.019228     1B3u    0.019228  

    Beta Virtual:                                                         

       3Ag     0.106571     1B3g    0.182309     1B1g    0.182309  
       3B2u    0.389524     2B1u    1.190135     2B3u    1.190135  
       4B2u    1.261728     2B3g    1.324466     2B1g    1.324466  
       4Ag     1.407309     5Ag     1.539206     5B2u    1.905573  
       6Ag     2.690295     3B1u    2.809653     3B3u    2.809653  
       7Ag     2.910536     1B2g    2.910543     6B2u    2.949876  
       1Au     2.949883     3B3g    3.145947     3B1g    3.145947  
       7B2u    3.792053  

    Final Occupation by Irrep:
             Ag   B1g   B2g   B3g    Au   B1u   B2u   B3u 
    DOCC [     2,    0,    0,    0,    0,    1,    2,    1 ]
    SOCC [     1,    1,    0,    1,    0,    0,    2,    0 ]
    NA   [     3,    1,    0,    1,    0,    1,    4,    1 ]
    NB   [     2,    0,    0,    0,    0,    1,    2,    1 ]

  @DF-UKS Final Energy:  -149.17292085604956

   => Energetics <=

    Nuclear Repulsion Energy =             20.4670761707321454
    One-Electron Energy =                -252.0725720645370416
    Two-Electron Energy =                  96.4990164273330464
    DFT Exchange-Correlation Energy =     -14.0664413895776992
    Empirical Dispersion Energy =           0.0000000000000000
    VV10 Nonlocal Energy =                  0.0000000000000000
    Total Energy =                       -149.1729208560495579

  UHF NO Occupations:
  HONO-2 :    4B2u 1.0000000
  HONO-1 :    1B3g 1.0000000
  HONO-0 :    1B1g 1.0000000
  LUNO+0 :    2B1u 0.0025161
  LUNO+1 :    2B3u 0.0025161
  LUNO+2 :    4 Ag 0.0007915
  LUNO+3 :    5B2u 0.0004815


Computation Completed


Properties will be evaluated at   0.000000,   0.000000,   0.000000 [a0]

Properties computed using the SCF density matrix


 Multipole Moments:

 ------------------------------------------------------------------------------------
     Multipole            Electronic (a.u.)      Nuclear  (a.u.)        Total (a.u.)
 ------------------------------------------------------------------------------------

 L = 1.  Multiply by 2.5417464519 to convert [e a0] to [Debye]
 Dipole X            :          0.0000000            0.0000000            0.0000000
 Dipole Y            :          0.0000000            0.0000000            0.0000000
 Dipole Z            :          0.0000000            0.0000000            0.0000000
 Magnitude           :                                                    0.0000000

 ------------------------------------------------------------------------------------

*** tstop() called on cics-quant-001 at Tue Dec 23 11:07:37 2025
Module time:
	user time   =       0.62 seconds =       0.01 minutes
	system time =       0.02 seconds =       0.00 minutes
	total time  =          0 seconds =       0.00 minutes
Total time:
	user time   =       4.26 seconds =       0.07 minutes
	system time =       0.41 seconds =       0.01 minutes
	total time  =          2 seconds =       0.03 minutes

*** tstart() called on cics-quant-001
*** at Tue Dec 23 11:07:37 2025


         ------------------------------------------------------------
                                   SCF GRAD                          
                          Rob Parrish, Justin Turney,                
                       Andy Simmonett, and Alex Sokolov              
         ------------------------------------------------------------

  ==> Geometry <==

    Molecular point group: d2h
    Full point group: D_inf_h

    Geometry (in Angstrom), charge = -1, multiplicity = 6:

       Center              X                  Y                   Z               Mass       
    ------------   -----------------  -----------------  -----------------  -----------------
         O           -0.000000000000     0.827361495124     0.000000000000    15.994914619570
         O            0.000000000000    -0.827361495124     0.000000000000    15.994914619570

  Nuclear repulsion =   20.467076170732145

  ==> Basis Set <==

  Basis Set: CC-PVDZ
    Blend: CC-PVDZ
    Number of shells: 12
    Number of basis functions: 28
    Number of Cartesian functions: 30
    Spherical Harmonics?: true
    Max angular momentum: 2

  ==> DFJKGrad: Density-Fitted SCF Gradients <==

    Gradient:                    1
    J tasked:                  Yes
    K tasked:                  Yes
    wK tasked:                  No
    OpenMP threads:              6
    Integrals threads:           6
    Memory [MiB]:             5722
    Schwarz Cutoff:          1E-12
    Fitting Condition:       1E-10

   => Auxiliary Basis Set <=

  Basis Set: (CC-PVDZ AUX)
    Blend: CC-PVDZ-JKFIT
    Number of shells: 48
    Number of basis functions: 140
    Number of Cartesian functions: 162
    Spherical Harmonics?: true
    Max angular momentum: 3

  ==> DFT Potential <==

   => LibXC <=

    Version 7.0.0
    S. Lehtola, C. Steigemann, M. J.T. Oliveira, and M. A.L. Marques.,  SoftwareX 7, 1–5 (2018) (10.1016/j.softx.2017.11.002)

   => Composite Functional: B3LYP <= 

    B3LYP Hyb-GGA Exchange-Correlation Functional

    P. J. Stephens, F. J. Devlin, C. F. Chabalowski, and M. J. Frisch.,  J. Phys. Chem. 98, 11623 (1994) (10.1021/j100096a001)

    Deriv               =              1
    GGA                 =           TRUE
    Meta                =          FALSE

    Exchange Hybrid     =           TRUE
    MP2 Hybrid          =          FALSE

   => Exchange Functionals <=

    0.0800   Slater exchange
    0.7200         Becke 88

   => Exact (HF) Exchange <=

    0.2000               HF 

   => Correlation Functionals <=

    0.1900   Vosko, Wilk & Nusair (VWN5_RPA)
    0.8100   Lee, Yang & Parr

   => LibXC Density Thresholds  <==

    XC_HYB_GGA_XC_B3LYP:  1.00E-15 

   => Molecular Quadrature <=

    Radial Scheme          =       TREUTLER
    Pruning Scheme         =           NONE
    Nuclear Scheme         =       TREUTLER

    Blocking Scheme        =         OCTREE
    BS radius alpha        =              1
    Pruning alpha          =              1
    Radial Points          =             75
    Spherical Points       =            302
    Total Points           =          41508
    Total Blocks           =            380
    Max Points             =            255
    Max Functions          =             28
    Weights Tolerance      =       1.00E-15


  -Total Gradient:
     Atom            X                  Y                   Z
    ------   -----------------  -----------------  -----------------
       1        0.000000000000    -0.004365118856     0.000000000000
       2       -0.000000000000     0.004365118856     0.000000000000


*** tstop() called on cics-quant-001 at Tue Dec 23 11:07:37 2025
Module time:
	user time   =       0.13 seconds =       0.00 minutes
	system time =       0.05 seconds =       0.00 minutes
	total time  =          0 seconds =       0.00 minutes
Total time:
	user time   =       4.39 seconds =       0.07 minutes
	system time =       0.46 seconds =       0.01 minutes
	total time  =          2 seconds =       0.03 minutes

    			-----------------------------------------

    			 OPTKING 3.0: for geometry optimizations 

    			     By R.A. King, Bethel University     

    			        with contributions from          

    			    A.V. Copan, J. Cayton, A. Heide      

    			-----------------------------------------

    
	                            ===> Fragment 1 <== 

	 Z (Atomic Numbers)          Masses                          Geom                  
	       8.000000            15.994915         -0.00000000  1.56348663  0.00000000   
	       8.000000            15.994915          0.00000000 -1.56348663  0.00000000   

	 - Coordinate -           - BOHR/RAD -       - ANG/DEG -
	 R(1,2)           =         3.126973           1.654723


	        --- Internal Coordinate Step in ANG or DEG, aJ/ANG or AJ/DEG ---
	-------------------------------------------------------------------------------
	           Coordinate      Previous         Force          Change          New 
	           ----------      --------        ------          ------        ------
	               R(1,2)       1.65472        0.03596        0.00493       1.65965
	-------------------------------------------------------------------------------

	                                 ==> Convergence Check <==                                  
    
	Measures of convergence in internal coordinates in au.
    
	Criteria marked as inactive (o), active & met (*), and active & unmet ( ).

	----------------------------------------------------------------------------------------------
	   Step    Total Energy     Delta E     Max Force     RMS Force      Max Disp      RMS Disp   
	----------------------------------------------------------------------------------------------
	  Convergence Criteria     1.00e-06 *    3.00e-04 *             o    1.20e-03 *             o
	----------------------------------------------------------------------------------------------
	     6    -149.17292086   -1.76e-04      4.37e-03      4.37e-03 o    9.31e-03      9.31e-03 o  ~
	----------------------------------------------------------------------------------------------

Next Geometry in Ang 
	Fragment 1 (Ang)

	    O  -0.0000000000   0.8298253282   0.0000000000
	    O   0.0000000000  -0.8298253282   0.0000000000


    Structure for next step:
    Molecular point group: d2h
    Full point group: D_inf_h

    Geometry (in Angstrom), charge = -1, multiplicity = 6:

    O           -0.000000000000     0.829825328223     0.000000000000
    O            0.000000000000    -0.829825328223     0.000000000000


Scratch directory: /tmp/
gradient() will perform analytic gradient computation.
   => Libint2 <=

    Primary   basis highest AM E, G, H:  6, 6, 3
    Auxiliary basis highest AM E, G, H:  7, 7, 4
    Onebody   basis highest AM E, G, H:  -, -, -
    Solid Harmonics ordering:            Gaussian

*** tstart() called on cics-quant-001
*** at Tue Dec 23 11:07:37 2025

   => Loading Basis Set <=

    Name: CC-PVDZ
    Role: ORBITAL
    Keyword: BASIS
    atoms 1-2 entry O          line   198 file /home/jrodriguesro/psi4conda/share/psi4/basis/cc-pvdz.gbs 


         ---------------------------------------------------------
                                   SCF
               by Justin Turney, Rob Parrish, Andy Simmonett
                          and Daniel G. A. Smith
                              UKS Reference
                        6 Threads,   7629 MiB Core
         ---------------------------------------------------------

  ==> Geometry <==

    Molecular point group: d2h
    Full point group: D_inf_h

    Geometry (in Angstrom), charge = -1, multiplicity = 6:

       Center              X                  Y                   Z               Mass       
    ------------   -----------------  -----------------  -----------------  -----------------
         O           -0.000000000000     0.829825328223     0.000000000000    15.994914619570
         O            0.000000000000    -0.829825328223     0.000000000000    15.994914619570

  Running in d2h symmetry.

  Rotational constants: A = ************  B =      0.76526  C =      0.76526 [cm^-1]
  Rotational constants: A = ************  B =  22942.03324  C =  22942.03324 [MHz]
  Nuclear repulsion =   20.406307406526793

  Charge       = -1
  Multiplicity = 6
  Electrons    = 17
  Nalpha       = 11
  Nbeta        = 6

  ==> Algorithm <==

  SCF Algorithm Type is DF.
  DIIS enabled.
  MOM disabled.
  Fractional occupation disabled.
  Guess Type is READ.
  Energy threshold   = 1.00e-08
  Density threshold  = 1.00e-08
  Integral threshold = 1.00e-12

  ==> Primary Basis <==

  Basis Set: CC-PVDZ
    Blend: CC-PVDZ
    Number of shells: 12
    Number of basis functions: 28
    Number of Cartesian functions: 30
    Spherical Harmonics?: true
    Max angular momentum: 2

  ==> DFT Potential <==

   => LibXC <=

    Version 7.0.0
    S. Lehtola, C. Steigemann, M. J.T. Oliveira, and M. A.L. Marques.,  SoftwareX 7, 1–5 (2018) (10.1016/j.softx.2017.11.002)

   => Composite Functional: B3LYP <= 

    B3LYP Hyb-GGA Exchange-Correlation Functional

    P. J. Stephens, F. J. Devlin, C. F. Chabalowski, and M. J. Frisch.,  J. Phys. Chem. 98, 11623 (1994) (10.1021/j100096a001)

    Deriv               =              1
    GGA                 =           TRUE
    Meta                =          FALSE

    Exchange Hybrid     =           TRUE
    MP2 Hybrid          =          FALSE

   => Exchange Functionals <=

    0.0800   Slater exchange
    0.7200         Becke 88

   => Exact (HF) Exchange <=

    0.2000               HF 

   => Correlation Functionals <=

    0.1900   Vosko, Wilk & Nusair (VWN5_RPA)
    0.8100   Lee, Yang & Parr

   => LibXC Density Thresholds  <==

    XC_HYB_GGA_XC_B3LYP:  1.00E-15 

   => Molecular Quadrature <=

    Radial Scheme          =       TREUTLER
    Pruning Scheme         =           NONE
    Nuclear Scheme         =       TREUTLER

    Blocking Scheme        =         OCTREE
    BS radius alpha        =              1
    Pruning alpha          =              1
    Radial Points          =             75
    Spherical Points       =            302
    Total Points           =          41516
    Total Blocks           =            384
    Max Points             =            252
    Max Functions          =             28
    Weights Tolerance      =       1.00E-15

   => Loading Basis Set <=

    Name: (CC-PVDZ AUX)
    Role: JKFIT
    Keyword: DF_BASIS_SCF
    atoms 1-2 entry O          line   221 file /home/jrodriguesro/psi4conda/share/psi4/basis/cc-pvdz-jkfit.gbs 

   => Loading Basis Set <=

    Name: CC-PVDZ
    Role: ORBITAL
    Keyword: BASIS
    atoms 1-2 entry O          line   198 file /home/jrodriguesro/psi4conda/share/psi4/basis/cc-pvdz.gbs 

  Reading orbitals from file /tmp/sextet_OO.default.382757.180.npy, no projection.

  ==> Integral Setup <==

  DFHelper Memory: AOs need 0.001 GiB; user supplied 5.555 GiB. 
  SCF_SUBTYPE=INCORE selected. In-core MEM_DF algorithm will be used.
  Using in-core AOs.

  ==> MemDFJK: Density-Fitted J/K Matrices <==

    J tasked:                   Yes
    K tasked:                   Yes
    wK tasked:                   No
    OpenMP threads:               6
    Memory [MiB]:              5688
    Algorithm:                 Core
    Schwarz Cutoff:           1E-12
    Mask sparsity (%):       0.0000
    Fitting Condition:        1E-10

   => Auxiliary Basis Set <=

  Basis Set: (CC-PVDZ AUX)
    Blend: CC-PVDZ-JKFIT
    Number of shells: 48
    Number of basis functions: 140
    Number of Cartesian functions: 162
    Spherical Harmonics?: true
    Max angular momentum: 3

  Cached 100.0% of DFT collocation blocks in 0.033 [GiB].

  Minimum eigenvalue in the overlap matrix is 8.5781525132E-02.
  Reciprocal condition number of the overlap matrix is 3.9039206438E-02.
    Using symmetric orthogonalization.

  ==> Pre-Iterations <==

  SCF Guess: Orbitals guess was supplied from a previous computation.

   -------------------------------------------------------
    Irrep   Nso     Nmo     Nalpha   Nbeta   Ndocc  Nsocc
   -------------------------------------------------------
     Ag         7       7       3       2       2       1
     B1g        3       3       1       0       0       1
     B2g        1       1       0       0       0       0
     B3g        3       3       1       0       0       1
     Au         1       1       0       0       0       0
     B1u        3       3       1       1       1       0
     B2u        7       7       4       2       2       2
     B3u        3       3       1       1       1       0
   -------------------------------------------------------
    Total      28      28      11       6       6       5
   -------------------------------------------------------

  ==> Iterations <==

                           Total Energy        Delta E     RMS |[F,P]|

   @DF-UKS iter   0:  -149.17158345770795   -1.49172e+02   1.76641e-03 
   @DF-UKS iter   1:  -149.17294857515822   -1.36512e-03   1.13688e-04 DIIS/ADIIS
   @DF-UKS iter   2:  -149.17294902034504   -4.45187e-07   7.87001e-05 DIIS/DAMP=1%
   @DF-UKS iter   3:  -149.17297716164953   -2.81413e-05   2.58979e-06 DIIS/DAMP=1%
   @DF-UKS iter   4:  -149.17294914306862    2.80186e-05   6.48447e-07 DIIS/DAMP=1%
   @DF-UKS iter   5:  -149.17294956226411   -4.19195e-07   1.50853e-07 DIIS/DAMP=1%
   @DF-UKS iter   6:  -149.17294935066153    2.11603e-07   3.02252e-08 DIIS/DAMP=1%
   @DF-UKS iter   7:  -149.17294934789430    2.76722e-09   2.86982e-09 DIIS/DAMP=1%
  Energy and wave function converged.


  ==> Post-Iterations <==

   Electrons on quadrature grid:
      Nalpha   =   11.0000016182 ; deviation = 1.618e-06
      Nbeta    =    6.0000006948 ; deviation = 6.948e-07
      Ntotal   =   17.0000023130 ; deviation = 2.313e-06 

   @Spin Contamination Metric:   1.259086961E-02
   @S^2 Expected:                8.750000000E+00
   @S^2 Observed:                8.762590870E+00
   @S   Expected:                2.500000000E+00
   @S   Observed:                2.500000000E+00

    Orbital Energies [Eh]
    ---------------------

    Alpha Occupied:                                                       

       1B2u  -18.874636     1Ag   -18.874543     2Ag    -0.749173  
       2B2u   -0.607710     3Ag    -0.202793     1B1u   -0.116955  
       1B3u   -0.116955     1B1g   -0.030133     1B3g   -0.030133  
       3B2u    0.057607     4B2u    1.020884  

    Alpha Virtual:                                                        

       2B3u    1.097731     2B1u    1.097731     4Ag     1.213306  
       2B1g    1.235765     2B3g    1.235765     5Ag     1.434822  
       5B2u    1.810420     6Ag     2.540636     3B3u    2.678838  
       3B1u    2.678838     7Ag     2.811047     1B2g    2.811053  
       6B2u    2.846637     1Au     2.846642     3B1g    3.004682  
       3B3g    3.004682     7B2u    3.639602  

    Beta Occupied:                                                        

       1Ag   -18.807008     1B2u  -18.807002     2Ag    -0.590764  
       2B2u   -0.419696     1B3u    0.019697     1B1u    0.019697  

    Beta Virtual:                                                         

       3Ag     0.106929     1B1g    0.181559     1B3g    0.181559  
       3B2u    0.387452     2B3u    1.189568     2B1u    1.189568  
       4B2u    1.262455     2B1g    1.324295     2B3g    1.324295  
       4Ag     1.407617     5Ag     1.537085     5B2u    1.904484  
       6Ag     2.691864     3B3u    2.812530     3B1u    2.812530  
       7Ag     2.910978     1B2g    2.910985     6B2u    2.949268  
       1Au     2.949275     3B1g    3.141955     3B3g    3.141955  
       7B2u    3.783242  

    Final Occupation by Irrep:
             Ag   B1g   B2g   B3g    Au   B1u   B2u   B3u 
    DOCC [     2,    0,    0,    0,    0,    1,    2,    1 ]
    SOCC [     1,    1,    0,    1,    0,    0,    2,    0 ]
    NA   [     3,    1,    0,    1,    0,    1,    4,    1 ]
    NB   [     2,    0,    0,    0,    0,    1,    2,    1 ]

  @DF-UKS Final Energy:  -149.17294934789430

   => Energetics <=

    Nuclear Repulsion Energy =             20.4063074065267926
    One-Electron Energy =                -251.9506070225310737
    Two-Electron Energy =                  96.4367955887749275
    DFT Exchange-Correlation Energy =     -14.0654453206649706
    Empirical Dispersion Energy =           0.0000000000000000
    VV10 Nonlocal Energy =                  0.0000000000000000
    Total Energy =                       -149.1729493478943311

  UHF NO Occupations:
  HONO-2 :    1B1g 1.0000000
  HONO-1 :    1B3g 1.0000000
  HONO-0 :    3 Ag 1.0000000
  LUNO+0 :    2B3u 0.0025155
  LUNO+1 :    2B1u 0.0025155
  LUNO+2 :    4 Ag 0.0007898
  LUNO+3 :    5B2u 0.0004812


Computation Completed


Properties will be evaluated at   0.000000,   0.000000,   0.000000 [a0]

Properties computed using the SCF density matrix


 Multipole Moments:

 ------------------------------------------------------------------------------------
     Multipole            Electronic (a.u.)      Nuclear  (a.u.)        Total (a.u.)
 ------------------------------------------------------------------------------------

 L = 1.  Multiply by 2.5417464519 to convert [e a0] to [Debye]
 Dipole X            :          0.0000000            0.0000000            0.0000000
 Dipole Y            :          0.0000000            0.0000000            0.0000000
 Dipole Z            :          0.0000000            0.0000000            0.0000000
 Magnitude           :                                                    0.0000000

 ------------------------------------------------------------------------------------

*** tstop() called on cics-quant-001 at Tue Dec 23 11:07:37 2025
Module time:
	user time   =       0.54 seconds =       0.01 minutes
	system time =       0.02 seconds =       0.00 minutes
	total time  =          0 seconds =       0.00 minutes
Total time:
	user time   =       4.95 seconds =       0.08 minutes
	system time =       0.48 seconds =       0.01 minutes
	total time  =          2 seconds =       0.03 minutes

*** tstart() called on cics-quant-001
*** at Tue Dec 23 11:07:37 2025


         ------------------------------------------------------------
                                   SCF GRAD                          
                          Rob Parrish, Justin Turney,                
                       Andy Simmonett, and Alex Sokolov              
         ------------------------------------------------------------

  ==> Geometry <==

    Molecular point group: d2h
    Full point group: D_inf_h

    Geometry (in Angstrom), charge = -1, multiplicity = 6:

       Center              X                  Y                   Z               Mass       
    ------------   -----------------  -----------------  -----------------  -----------------
         O           -0.000000000000     0.829825328223     0.000000000000    15.994914619570
         O            0.000000000000    -0.829825328223     0.000000000000    15.994914619570

  Nuclear repulsion =   20.406307406526793

  ==> Basis Set <==

  Basis Set: CC-PVDZ
    Blend: CC-PVDZ
    Number of shells: 12
    Number of basis functions: 28
    Number of Cartesian functions: 30
    Spherical Harmonics?: true
    Max angular momentum: 2

  ==> DFJKGrad: Density-Fitted SCF Gradients <==

    Gradient:                    1
    J tasked:                  Yes
    K tasked:                  Yes
    wK tasked:                  No
    OpenMP threads:              6
    Integrals threads:           6
    Memory [MiB]:             5722
    Schwarz Cutoff:          1E-12
    Fitting Condition:       1E-10

   => Auxiliary Basis Set <=

  Basis Set: (CC-PVDZ AUX)
    Blend: CC-PVDZ-JKFIT
    Number of shells: 48
    Number of basis functions: 140
    Number of Cartesian functions: 162
    Spherical Harmonics?: true
    Max angular momentum: 3

  ==> DFT Potential <==

   => LibXC <=

    Version 7.0.0
    S. Lehtola, C. Steigemann, M. J.T. Oliveira, and M. A.L. Marques.,  SoftwareX 7, 1–5 (2018) (10.1016/j.softx.2017.11.002)

   => Composite Functional: B3LYP <= 

    B3LYP Hyb-GGA Exchange-Correlation Functional

    P. J. Stephens, F. J. Devlin, C. F. Chabalowski, and M. J. Frisch.,  J. Phys. Chem. 98, 11623 (1994) (10.1021/j100096a001)

    Deriv               =              1
    GGA                 =           TRUE
    Meta                =          FALSE

    Exchange Hybrid     =           TRUE
    MP2 Hybrid          =          FALSE

   => Exchange Functionals <=

    0.0800   Slater exchange
    0.7200         Becke 88

   => Exact (HF) Exchange <=

    0.2000               HF 

   => Correlation Functionals <=

    0.1900   Vosko, Wilk & Nusair (VWN5_RPA)
    0.8100   Lee, Yang & Parr

   => LibXC Density Thresholds  <==

    XC_HYB_GGA_XC_B3LYP:  1.00E-15 

   => Molecular Quadrature <=

    Radial Scheme          =       TREUTLER
    Pruning Scheme         =           NONE
    Nuclear Scheme         =       TREUTLER

    Blocking Scheme        =         OCTREE
    BS radius alpha        =              1
    Pruning alpha          =              1
    Radial Points          =             75
    Spherical Points       =            302
    Total Points           =          41516
    Total Blocks           =            384
    Max Points             =            252
    Max Functions          =             28
    Weights Tolerance      =       1.00E-15


  -Total Gradient:
     Atom            X                  Y                   Z
    ------   -----------------  -----------------  -----------------
       1        0.000000000000    -0.001773923170     0.000000000000
       2       -0.000000000000     0.001773923170     0.000000000000


*** tstop() called on cics-quant-001 at Tue Dec 23 11:07:37 2025
Module time:
	user time   =       0.12 seconds =       0.00 minutes
	system time =       0.05 seconds =       0.00 minutes
	total time  =          0 seconds =       0.00 minutes
Total time:
	user time   =       5.07 seconds =       0.08 minutes
	system time =       0.53 seconds =       0.01 minutes
	total time  =          2 seconds =       0.03 minutes

    			-----------------------------------------

    			 OPTKING 3.0: for geometry optimizations 

    			     By R.A. King, Bethel University     

    			        with contributions from          

    			    A.V. Copan, J. Cayton, A. Heide      

    			-----------------------------------------

    
	                            ===> Fragment 1 <== 

	 Z (Atomic Numbers)          Masses                          Geom                  
	       8.000000            15.994915         -0.00000000  1.56814260  0.00000000   
	       8.000000            15.994915          0.00000000 -1.56814260  0.00000000   

	 - Coordinate -           - BOHR/RAD -       - ANG/DEG -
	 R(1,2)           =         3.136285           1.659651


	        --- Internal Coordinate Step in ANG or DEG, aJ/ANG or AJ/DEG ---
	-------------------------------------------------------------------------------
	           Coordinate      Previous         Force          Change          New 
	           ----------      --------        ------          ------        ------
	               R(1,2)       1.65965        0.01461        0.00242       1.66207
	-------------------------------------------------------------------------------

	                                 ==> Convergence Check <==                                  
    
	Measures of convergence in internal coordinates in au.
    
	Criteria marked as inactive (o), active & met (*), and active & unmet ( ).

	----------------------------------------------------------------------------------------------
	   Step    Total Energy     Delta E     Max Force     RMS Force      Max Disp      RMS Disp   
	----------------------------------------------------------------------------------------------
	  Convergence Criteria     1.00e-06 *    3.00e-04 *             o    1.20e-03 *             o
	----------------------------------------------------------------------------------------------
	     7    -149.17294935   -2.85e-05      1.77e-03      1.77e-03 o    4.58e-03      4.58e-03 o  ~
	----------------------------------------------------------------------------------------------

Next Geometry in Ang 
	Fragment 1 (Ang)

	    O  -0.0000000000   0.8310373131   0.0000000000
	    O   0.0000000000  -0.8310373131   0.0000000000


    Structure for next step:
    Molecular point group: d2h
    Full point group: D_inf_h

    Geometry (in Angstrom), charge = -1, multiplicity = 6:

    O           -0.000000000000     0.831037313114     0.000000000000
    O            0.000000000000    -0.831037313114     0.000000000000


Scratch directory: /tmp/
gradient() will perform analytic gradient computation.
   => Libint2 <=

    Primary   basis highest AM E, G, H:  6, 6, 3
    Auxiliary basis highest AM E, G, H:  7, 7, 4
    Onebody   basis highest AM E, G, H:  -, -, -
    Solid Harmonics ordering:            Gaussian

*** tstart() called on cics-quant-001
*** at Tue Dec 23 11:07:38 2025

   => Loading Basis Set <=

    Name: CC-PVDZ
    Role: ORBITAL
    Keyword: BASIS
    atoms 1-2 entry O          line   198 file /home/jrodriguesro/psi4conda/share/psi4/basis/cc-pvdz.gbs 


         ---------------------------------------------------------
                                   SCF
               by Justin Turney, Rob Parrish, Andy Simmonett
                          and Daniel G. A. Smith
                              UKS Reference
                        6 Threads,   7629 MiB Core
         ---------------------------------------------------------

  ==> Geometry <==

    Molecular point group: d2h
    Full point group: D_inf_h

    Geometry (in Angstrom), charge = -1, multiplicity = 6:

       Center              X                  Y                   Z               Mass       
    ------------   -----------------  -----------------  -----------------  -----------------
         O           -0.000000000000     0.831037313114     0.000000000000    15.994914619570
         O            0.000000000000    -0.831037313114     0.000000000000    15.994914619570

  Running in d2h symmetry.

  Rotational constants: A = ************  B =      0.76303  C =      0.76303 [cm^-1]
  Rotational constants: A = ************  B =  22875.16471  C =  22875.16471 [MHz]
  Nuclear repulsion =   20.376546846006327

  Charge       = -1
  Multiplicity = 6
  Electrons    = 17
  Nalpha       = 11
  Nbeta        = 6

  ==> Algorithm <==

  SCF Algorithm Type is DF.
  DIIS enabled.
  MOM disabled.
  Fractional occupation disabled.
  Guess Type is READ.
  Energy threshold   = 1.00e-08
  Density threshold  = 1.00e-08
  Integral threshold = 1.00e-12

  ==> Primary Basis <==

  Basis Set: CC-PVDZ
    Blend: CC-PVDZ
    Number of shells: 12
    Number of basis functions: 28
    Number of Cartesian functions: 30
    Spherical Harmonics?: true
    Max angular momentum: 2

  ==> DFT Potential <==

   => LibXC <=

    Version 7.0.0
    S. Lehtola, C. Steigemann, M. J.T. Oliveira, and M. A.L. Marques.,  SoftwareX 7, 1–5 (2018) (10.1016/j.softx.2017.11.002)

   => Composite Functional: B3LYP <= 

    B3LYP Hyb-GGA Exchange-Correlation Functional

    P. J. Stephens, F. J. Devlin, C. F. Chabalowski, and M. J. Frisch.,  J. Phys. Chem. 98, 11623 (1994) (10.1021/j100096a001)

    Deriv               =              1
    GGA                 =           TRUE
    Meta                =          FALSE

    Exchange Hybrid     =           TRUE
    MP2 Hybrid          =          FALSE

   => Exchange Functionals <=

    0.0800   Slater exchange
    0.7200         Becke 88

   => Exact (HF) Exchange <=

    0.2000               HF 

   => Correlation Functionals <=

    0.1900   Vosko, Wilk & Nusair (VWN5_RPA)
    0.8100   Lee, Yang & Parr

   => LibXC Density Thresholds  <==

    XC_HYB_GGA_XC_B3LYP:  1.00E-15 

   => Molecular Quadrature <=

    Radial Scheme          =       TREUTLER
    Pruning Scheme         =           NONE
    Nuclear Scheme         =       TREUTLER

    Blocking Scheme        =         OCTREE
    BS radius alpha        =              1
    Pruning alpha          =              1
    Radial Points          =             75
    Spherical Points       =            302
    Total Points           =          41516
    Total Blocks           =            382
    Max Points             =            252
    Max Functions          =             28
    Weights Tolerance      =       1.00E-15

   => Loading Basis Set <=

    Name: (CC-PVDZ AUX)
    Role: JKFIT
    Keyword: DF_BASIS_SCF
    atoms 1-2 entry O          line   221 file /home/jrodriguesro/psi4conda/share/psi4/basis/cc-pvdz-jkfit.gbs 

   => Loading Basis Set <=

    Name: CC-PVDZ
    Role: ORBITAL
    Keyword: BASIS
    atoms 1-2 entry O          line   198 file /home/jrodriguesro/psi4conda/share/psi4/basis/cc-pvdz.gbs 

  Reading orbitals from file /tmp/sextet_OO.default.382757.180.npy, no projection.

  ==> Integral Setup <==

  DFHelper Memory: AOs need 0.001 GiB; user supplied 5.555 GiB. 
  SCF_SUBTYPE=INCORE selected. In-core MEM_DF algorithm will be used.
  Using in-core AOs.

  ==> MemDFJK: Density-Fitted J/K Matrices <==

    J tasked:                   Yes
    K tasked:                   Yes
    wK tasked:                   No
    OpenMP threads:               6
    Memory [MiB]:              5688
    Algorithm:                 Core
    Schwarz Cutoff:           1E-12
    Mask sparsity (%):       0.0000
    Fitting Condition:        1E-10

   => Auxiliary Basis Set <=

  Basis Set: (CC-PVDZ AUX)
    Blend: CC-PVDZ-JKFIT
    Number of shells: 48
    Number of basis functions: 140
    Number of Cartesian functions: 162
    Spherical Harmonics?: true
    Max angular momentum: 3

  Cached 100.0% of DFT collocation blocks in 0.033 [GiB].

  Minimum eigenvalue in the overlap matrix is 8.6130558218E-02.
  Reciprocal condition number of the overlap matrix is 3.9234296025E-02.
    Using symmetric orthogonalization.

  ==> Pre-Iterations <==

  SCF Guess: Orbitals guess was supplied from a previous computation.

   -------------------------------------------------------
    Irrep   Nso     Nmo     Nalpha   Nbeta   Ndocc  Nsocc
   -------------------------------------------------------
     Ag         7       7       3       2       2       1
     B1g        3       3       1       0       0       1
     B2g        1       1       0       0       0       0
     B3g        3       3       1       0       0       1
     Au         1       1       0       0       0       0
     B1u        3       3       1       1       1       0
     B2u        7       7       4       2       2       2
     B3u        3       3       1       1       1       0
   -------------------------------------------------------
    Total      28      28      11       6       6       5
   -------------------------------------------------------

  ==> Iterations <==

                           Total Energy        Delta E     RMS |[F,P]|

   @DF-UKS iter   0:  -149.17228517694107   -1.49172e+02   8.58738e-04 
   @DF-UKS iter   1:  -149.17295442056098   -6.69244e-04   5.45071e-05 DIIS
   @DF-UKS iter   2:  -149.17295452359645   -1.03035e-07   3.76917e-05 DIIS/DAMP=1%
   @DF-UKS iter   3:  -149.17296792690527   -1.34033e-05   1.26239e-06 DIIS/DAMP=1%
   @DF-UKS iter   4:  -149.17295449048916    1.34364e-05   3.11454e-07 DIIS/DAMP=1%
   @DF-UKS iter   5:  -149.17295469880614   -2.08317e-07   7.07828e-08 DIIS/DAMP=1%
   @DF-UKS iter   6:  -149.17295459662975    1.02176e-07   1.44990e-08 DIIS/DAMP=1%
   @DF-UKS iter   7:  -149.17295459587507    7.54682e-10   1.38569e-09 DIIS/DAMP=1%
  Energy and wave function converged.


  ==> Post-Iterations <==

   Electrons on quadrature grid:
      Nalpha   =   11.0000016185 ; deviation = 1.618e-06
      Nbeta    =    6.0000006973 ; deviation = 6.973e-07
      Ntotal   =   17.0000023158 ; deviation = 2.316e-06 

   @Spin Contamination Metric:   1.258752416E-02
   @S^2 Expected:                8.750000000E+00
   @S^2 Observed:                8.762587524E+00
   @S   Expected:                2.500000000E+00
   @S   Observed:                2.500000000E+00

    Orbital Energies [Eh]
    ---------------------

    Alpha Occupied:                                                       

       1B2u  -18.874793     1Ag   -18.874700     2Ag    -0.748682  
       2B2u   -0.608084     3Ag    -0.202544     1B3u   -0.116760  
       1B1u   -0.116760     1B1g   -0.030416     1B3g   -0.030416  
       3B2u    0.056617     4B2u    1.021312  

    Alpha Virtual:                                                        

       2B1u    1.097461     2B3u    1.097461     4Ag     1.213397  
       2B3g    1.235700     2B1g    1.235700     5Ag     1.433721  
       5B2u    1.809896     6Ag     2.541397     3B1u    2.680207  
       3B3u    2.680207     7Ag     2.811281     1B2g    2.811286  
       6B2u    2.846377     1Au     2.846383     3B3g    3.002743  
       3B1g    3.002743     7B2u    3.635294  

    Beta Occupied:                                                        

       1Ag   -18.807187     1B2u  -18.807181     2Ag    -0.590260  
       2B2u   -0.420162     1B3u    0.019925     1B1u    0.019925  

    Beta Virtual:                                                         

       3Ag     0.107105     1B1g    0.181192     1B3g    0.181192  
       3B2u    0.386441     2B1u    1.189291     2B3u    1.189291  
       4B2u    1.262814     2B3g    1.324211     2B1g    1.324211  
       4Ag     1.407767     5Ag     1.536020     5B2u    1.903953  
       6Ag     2.692677     3B1u    2.813932     3B3u    2.813932  
       7Ag     2.911191     1B2g    2.911198     6B2u    2.948973  
       1Au     2.948981     3B3g    3.140013     3B1g    3.140013  
       7B2u    3.778906  

    Final Occupation by Irrep:
             Ag   B1g   B2g   B3g    Au   B1u   B2u   B3u 
    DOCC [     2,    0,    0,    0,    0,    1,    2,    1 ]
    SOCC [     1,    1,    0,    1,    0,    0,    2,    0 ]
    NA   [     3,    1,    0,    1,    0,    1,    4,    1 ]
    NB   [     2,    0,    0,    0,    0,    1,    2,    1 ]

  @DF-UKS Final Energy:  -149.17295459587507

   => Energetics <=

    Nuclear Repulsion Energy =             20.3765468460063275
    One-Electron Energy =                -251.8908607832104849
    Two-Electron Energy =                  96.4063201457269940
    DFT Exchange-Correlation Energy =     -14.0649608043978880
    Empirical Dispersion Energy =           0.0000000000000000
    VV10 Nonlocal Energy =                  0.0000000000000000
    Total Energy =                       -149.1729545958750407

  UHF NO Occupations:
  HONO-2 :    1B1g 1.0000000
  HONO-1 :    3 Ag 1.0000000
  HONO-0 :    1B3g 1.0000000
  LUNO+0 :    2B3u 0.0025152
  LUNO+1 :    2B1u 0.0025152
  LUNO+2 :    4 Ag 0.0007890
  LUNO+3 :    5B2u 0.0004810


Computation Completed


Properties will be evaluated at   0.000000,   0.000000,   0.000000 [a0]

Properties computed using the SCF density matrix


 Multipole Moments:

 ------------------------------------------------------------------------------------
     Multipole            Electronic (a.u.)      Nuclear  (a.u.)        Total (a.u.)
 ------------------------------------------------------------------------------------

 L = 1.  Multiply by 2.5417464519 to convert [e a0] to [Debye]
 Dipole X            :          0.0000000            0.0000000            0.0000000
 Dipole Y            :          0.0000000            0.0000000            0.0000000
 Dipole Z            :          0.0000000            0.0000000            0.0000000
 Magnitude           :                                                    0.0000000

 ------------------------------------------------------------------------------------

*** tstop() called on cics-quant-001 at Tue Dec 23 11:07:38 2025
Module time:
	user time   =       0.48 seconds =       0.01 minutes
	system time =       0.02 seconds =       0.00 minutes
	total time  =          0 seconds =       0.00 minutes
Total time:
	user time   =       5.57 seconds =       0.09 minutes
	system time =       0.55 seconds =       0.01 minutes
	total time  =          3 seconds =       0.05 minutes

*** tstart() called on cics-quant-001
*** at Tue Dec 23 11:07:38 2025


         ------------------------------------------------------------
                                   SCF GRAD                          
                          Rob Parrish, Justin Turney,                
                       Andy Simmonett, and Alex Sokolov              
         ------------------------------------------------------------

  ==> Geometry <==

    Molecular point group: d2h
    Full point group: D_inf_h

    Geometry (in Angstrom), charge = -1, multiplicity = 6:

       Center              X                  Y                   Z               Mass       
    ------------   -----------------  -----------------  -----------------  -----------------
         O           -0.000000000000     0.831037313114     0.000000000000    15.994914619570
         O            0.000000000000    -0.831037313114     0.000000000000    15.994914619570

  Nuclear repulsion =   20.376546846006327

  ==> Basis Set <==

  Basis Set: CC-PVDZ
    Blend: CC-PVDZ
    Number of shells: 12
    Number of basis functions: 28
    Number of Cartesian functions: 30
    Spherical Harmonics?: true
    Max angular momentum: 2

  ==> DFJKGrad: Density-Fitted SCF Gradients <==

    Gradient:                    1
    J tasked:                  Yes
    K tasked:                  Yes
    wK tasked:                  No
    OpenMP threads:              6
    Integrals threads:           6
    Memory [MiB]:             5722
    Schwarz Cutoff:          1E-12
    Fitting Condition:       1E-10

   => Auxiliary Basis Set <=

  Basis Set: (CC-PVDZ AUX)
    Blend: CC-PVDZ-JKFIT
    Number of shells: 48
    Number of basis functions: 140
    Number of Cartesian functions: 162
    Spherical Harmonics?: true
    Max angular momentum: 3

  ==> DFT Potential <==

   => LibXC <=

    Version 7.0.0
    S. Lehtola, C. Steigemann, M. J.T. Oliveira, and M. A.L. Marques.,  SoftwareX 7, 1–5 (2018) (10.1016/j.softx.2017.11.002)

   => Composite Functional: B3LYP <= 

    B3LYP Hyb-GGA Exchange-Correlation Functional

    P. J. Stephens, F. J. Devlin, C. F. Chabalowski, and M. J. Frisch.,  J. Phys. Chem. 98, 11623 (1994) (10.1021/j100096a001)

    Deriv               =              1
    GGA                 =           TRUE
    Meta                =          FALSE

    Exchange Hybrid     =           TRUE
    MP2 Hybrid          =          FALSE

   => Exchange Functionals <=

    0.0800   Slater exchange
    0.7200         Becke 88

   => Exact (HF) Exchange <=

    0.2000               HF 

   => Correlation Functionals <=

    0.1900   Vosko, Wilk & Nusair (VWN5_RPA)
    0.8100   Lee, Yang & Parr

   => LibXC Density Thresholds  <==

    XC_HYB_GGA_XC_B3LYP:  1.00E-15 

   => Molecular Quadrature <=

    Radial Scheme          =       TREUTLER
    Pruning Scheme         =           NONE
    Nuclear Scheme         =       TREUTLER

    Blocking Scheme        =         OCTREE
    BS radius alpha        =              1
    Pruning alpha          =              1
    Radial Points          =             75
    Spherical Points       =            302
    Total Points           =          41516
    Total Blocks           =            382
    Max Points             =            252
    Max Functions          =             28
    Weights Tolerance      =       1.00E-15


  -Total Gradient:
     Atom            X                  Y                   Z
    ------   -----------------  -----------------  -----------------
       1        0.000000000000    -0.000523535653     0.000000000000
       2       -0.000000000000     0.000523535653     0.000000000000


*** tstop() called on cics-quant-001 at Tue Dec 23 11:07:38 2025
Module time:
	user time   =       0.12 seconds =       0.00 minutes
	system time =       0.04 seconds =       0.00 minutes
	total time  =          0 seconds =       0.00 minutes
Total time:
	user time   =       5.69 seconds =       0.09 minutes
	system time =       0.59 seconds =       0.01 minutes
	total time  =          3 seconds =       0.05 minutes

    			-----------------------------------------

    			 OPTKING 3.0: for geometry optimizations 

    			     By R.A. King, Bethel University     

    			        with contributions from          

    			    A.V. Copan, J. Cayton, A. Heide      

    			-----------------------------------------

    
	                            ===> Fragment 1 <== 

	 Z (Atomic Numbers)          Masses                          Geom                  
	       8.000000            15.994915         -0.00000000  1.57043292  0.00000000   
	       8.000000            15.994915          0.00000000 -1.57043292  0.00000000   

	 - Coordinate -           - BOHR/RAD -       - ANG/DEG -
	 R(1,2)           =         3.140866           1.662075


	        --- Internal Coordinate Step in ANG or DEG, aJ/ANG or AJ/DEG ---
	-------------------------------------------------------------------------------
	           Coordinate      Previous         Force          Change          New 
	           ----------      --------        ------          ------        ------
	               R(1,2)       1.66207        0.00431        0.00089       1.66297
	-------------------------------------------------------------------------------

	                                 ==> Convergence Check <==                                  
    
	Measures of convergence in internal coordinates in au.
    
	Criteria marked as inactive (o), active & met (*), and active & unmet ( ).

	----------------------------------------------------------------------------------------------
	   Step    Total Energy     Delta E     Max Force     RMS Force      Max Disp      RMS Disp   
	----------------------------------------------------------------------------------------------
	  Convergence Criteria     1.00e-06 *    3.00e-04 *             o    1.20e-03 *             o
	----------------------------------------------------------------------------------------------
	     8    -149.17295460   -5.25e-06      5.24e-04      5.24e-04 o    1.69e-03      1.69e-03 o  ~
	----------------------------------------------------------------------------------------------

Next Geometry in Ang 
	Fragment 1 (Ang)

	    O  -0.0000000000   0.8314845491   0.0000000000
	    O   0.0000000000  -0.8314845491   0.0000000000


    Structure for next step:
    Molecular point group: d2h
    Full point group: D_inf_h

    Geometry (in Angstrom), charge = -1, multiplicity = 6:

    O           -0.000000000000     0.831484549138     0.000000000000
    O            0.000000000000    -0.831484549138     0.000000000000


Scratch directory: /tmp/
gradient() will perform analytic gradient computation.
   => Libint2 <=

    Primary   basis highest AM E, G, H:  6, 6, 3
    Auxiliary basis highest AM E, G, H:  7, 7, 4
    Onebody   basis highest AM E, G, H:  -, -, -
    Solid Harmonics ordering:            Gaussian

*** tstart() called on cics-quant-001
*** at Tue Dec 23 11:07:38 2025

   => Loading Basis Set <=

    Name: CC-PVDZ
    Role: ORBITAL
    Keyword: BASIS
    atoms 1-2 entry O          line   198 file /home/jrodriguesro/psi4conda/share/psi4/basis/cc-pvdz.gbs 


         ---------------------------------------------------------
                                   SCF
               by Justin Turney, Rob Parrish, Andy Simmonett
                          and Daniel G. A. Smith
                              UKS Reference
                        6 Threads,   7629 MiB Core
         ---------------------------------------------------------

  ==> Geometry <==

    Molecular point group: d2h
    Full point group: D_inf_h

    Geometry (in Angstrom), charge = -1, multiplicity = 6:

       Center              X                  Y                   Z               Mass       
    ------------   -----------------  -----------------  -----------------  -----------------
         O           -0.000000000000     0.831484549138     0.000000000000    15.994914619570
         O            0.000000000000    -0.831484549138     0.000000000000    15.994914619570

  Running in d2h symmetry.

  Rotational constants: A = ************  B =      0.76221  C =      0.76221 [cm^-1]
  Rotational constants: A = ************  B =  22850.56330  C =  22850.56330 [MHz]
  Nuclear repulsion =   20.365586779679226

  Charge       = -1
  Multiplicity = 6
  Electrons    = 17
  Nalpha       = 11
  Nbeta        = 6

  ==> Algorithm <==

  SCF Algorithm Type is DF.
  DIIS enabled.
  MOM disabled.
  Fractional occupation disabled.
  Guess Type is READ.
  Energy threshold   = 1.00e-08
  Density threshold  = 1.00e-08
  Integral threshold = 1.00e-12

  ==> Primary Basis <==

  Basis Set: CC-PVDZ
    Blend: CC-PVDZ
    Number of shells: 12
    Number of basis functions: 28
    Number of Cartesian functions: 30
    Spherical Harmonics?: true
    Max angular momentum: 2

  ==> DFT Potential <==

   => LibXC <=

    Version 7.0.0
    S. Lehtola, C. Steigemann, M. J.T. Oliveira, and M. A.L. Marques.,  SoftwareX 7, 1–5 (2018) (10.1016/j.softx.2017.11.002)

   => Composite Functional: B3LYP <= 

    B3LYP Hyb-GGA Exchange-Correlation Functional

    P. J. Stephens, F. J. Devlin, C. F. Chabalowski, and M. J. Frisch.,  J. Phys. Chem. 98, 11623 (1994) (10.1021/j100096a001)

    Deriv               =              1
    GGA                 =           TRUE
    Meta                =          FALSE

    Exchange Hybrid     =           TRUE
    MP2 Hybrid          =          FALSE

   => Exchange Functionals <=

    0.0800   Slater exchange
    0.7200         Becke 88

   => Exact (HF) Exchange <=

    0.2000               HF 

   => Correlation Functionals <=

    0.1900   Vosko, Wilk & Nusair (VWN5_RPA)
    0.8100   Lee, Yang & Parr

   => LibXC Density Thresholds  <==

    XC_HYB_GGA_XC_B3LYP:  1.00E-15 

   => Molecular Quadrature <=

    Radial Scheme          =       TREUTLER
    Pruning Scheme         =           NONE
    Nuclear Scheme         =       TREUTLER

    Blocking Scheme        =         OCTREE
    BS radius alpha        =              1
    Pruning alpha          =              1
    Radial Points          =             75
    Spherical Points       =            302
    Total Points           =          41516
    Total Blocks           =            382
    Max Points             =            252
    Max Functions          =             28
    Weights Tolerance      =       1.00E-15

   => Loading Basis Set <=

    Name: (CC-PVDZ AUX)
    Role: JKFIT
    Keyword: DF_BASIS_SCF
    atoms 1-2 entry O          line   221 file /home/jrodriguesro/psi4conda/share/psi4/basis/cc-pvdz-jkfit.gbs 

   => Loading Basis Set <=

    Name: CC-PVDZ
    Role: ORBITAL
    Keyword: BASIS
    atoms 1-2 entry O          line   198 file /home/jrodriguesro/psi4conda/share/psi4/basis/cc-pvdz.gbs 

  Reading orbitals from file /tmp/sextet_OO.default.382757.180.npy, no projection.

  ==> Integral Setup <==

  DFHelper Memory: AOs need 0.001 GiB; user supplied 5.555 GiB. 
  SCF_SUBTYPE=INCORE selected. In-core MEM_DF algorithm will be used.
  Using in-core AOs.

  ==> MemDFJK: Density-Fitted J/K Matrices <==

    J tasked:                   Yes
    K tasked:                   Yes
    wK tasked:                   No
    OpenMP threads:               6
    Memory [MiB]:              5688
    Algorithm:                 Core
    Schwarz Cutoff:           1E-12
    Mask sparsity (%):       0.0000
    Fitting Condition:        1E-10

   => Auxiliary Basis Set <=

  Basis Set: (CC-PVDZ AUX)
    Blend: CC-PVDZ-JKFIT
    Number of shells: 48
    Number of basis functions: 140
    Number of Cartesian functions: 162
    Spherical Harmonics?: true
    Max angular momentum: 3

  Cached 100.0% of DFT collocation blocks in 0.033 [GiB].

  Minimum eigenvalue in the overlap matrix is 8.6259356318E-02.
  Reciprocal condition number of the overlap matrix is 3.9306375724E-02.
    Using symmetric orthogonalization.

  ==> Pre-Iterations <==

  SCF Guess: Orbitals guess was supplied from a previous computation.

   -------------------------------------------------------
    Irrep   Nso     Nmo     Nalpha   Nbeta   Ndocc  Nsocc
   -------------------------------------------------------
     Ag         7       7       3       2       2       1
     B1g        3       3       1       0       0       1
     B2g        1       1       0       0       0       0
     B3g        3       3       1       0       0       1
     Au         1       1       0       0       0       0
     B1u        3       3       1       1       1       0
     B2u        7       7       4       2       2       2
     B3u        3       3       1       1       1       0
   -------------------------------------------------------
    Total      28      28      11       6       6       5
   -------------------------------------------------------

  ==> Iterations <==

                           Total Energy        Delta E     RMS |[F,P]|

   @DF-UKS iter   0:  -149.17270819035249   -1.49173e+02   3.15106e-04 
   @DF-UKS iter   1:  -149.17295507026873   -2.46880e-04   1.98563e-05 DIIS
   @DF-UKS iter   2:  -149.17295508399016   -1.37214e-08   1.37230e-05 DIIS/DAMP=1%
   @DF-UKS iter   3:  -149.17295994806136   -4.86407e-06   4.63559e-07 DIIS/DAMP=1%
   @DF-UKS iter   4:  -149.17295505256649    4.89549e-06   1.13471e-07 DIIS/DAMP=1%
   @DF-UKS iter   5:  -149.17295512981227   -7.72458e-08   2.52788e-08 DIIS/DAMP=1%
   @DF-UKS iter   6:  -149.17295509241617    3.73961e-08   5.27580e-09 DIIS/DAMP=1%
   @DF-UKS iter   7:  -149.17295509228666    1.29518e-10   5.05842e-10 DIIS/DAMP=1%
  Energy and wave function converged.


  ==> Post-Iterations <==

   Electrons on quadrature grid:
      Nalpha   =   11.0000016185 ; deviation = 1.618e-06
      Nbeta    =    6.0000006982 ; deviation = 6.982e-07
      Ntotal   =   17.0000023167 ; deviation = 2.317e-06 

   @Spin Contamination Metric:   1.258627358E-02
   @S^2 Expected:                8.750000000E+00
   @S^2 Observed:                8.762586274E+00
   @S   Expected:                2.500000000E+00
   @S   Observed:                2.500000000E+00

    Orbital Energies [Eh]
    ---------------------

    Alpha Occupied:                                                       

       1B2u  -18.874851     1Ag   -18.874758     2Ag    -0.748502  
       2B2u   -0.608222     3Ag    -0.202452     1B3u   -0.116689  
       1B1u   -0.116689     1B3g   -0.030520     1B1g   -0.030520  
       3B2u    0.056253     4B2u    1.021470  

    Alpha Virtual:                                                        

       2B3u    1.097362     2B1u    1.097362     4Ag     1.213430  
       2B1g    1.235676     2B3g    1.235676     5Ag     1.433312  
       5B2u    1.809704     6Ag     2.541685     3B3u    2.680710  
       3B1u    2.680710     7Ag     2.811366     1B2g    2.811372  
       6B2u    2.846282     1Au     2.846288     3B1g    3.002031  
       3B3g    3.002031     7B2u    3.633704  

    Beta Occupied:                                                        

       1Ag   -18.807253     1B2u  -18.807247     2Ag    -0.590074  
       2B2u   -0.420333     1B1u    0.020009     1B3u    0.020009  

    Beta Virtual:                                                         

       3Ag     0.107170     1B3g    0.181057     1B1g    0.181057  
       3B2u    0.386069     2B3u    1.189189     2B1u    1.189189  
       4B2u    1.262946     2B1g    1.324179     2B3g    1.324179  
       4Ag     1.407822     5Ag     1.535623     5B2u    1.903758  
       6Ag     2.692984     3B3u    2.814447     3B1u    2.814447  
       7Ag     2.911269     1B2g    2.911276     6B2u    2.948865  
       1Au     2.948873     3B1g    3.139299     3B3g    3.139299  
       7B2u    3.777306  

    Final Occupation by Irrep:
             Ag   B1g   B2g   B3g    Au   B1u   B2u   B3u 
    DOCC [     2,    0,    0,    0,    0,    1,    2,    1 ]
    SOCC [     1,    1,    0,    1,    0,    0,    2,    0 ]
    NA   [     3,    1,    0,    1,    0,    1,    4,    1 ]
    NB   [     2,    0,    0,    0,    0,    1,    2,    1 ]

  @DF-UKS Final Energy:  -149.17295509228666

   => Energetics <=

    Nuclear Repulsion Energy =             20.3655867796792265
    One-Electron Energy =                -251.8688551490751024
    Two-Electron Energy =                  96.3950961930097208
    DFT Exchange-Correlation Energy =     -14.0647829159005191
    Empirical Dispersion Energy =           0.0000000000000000
    VV10 Nonlocal Energy =                  0.0000000000000000
    Total Energy =                       -149.1729550922866565

  UHF NO Occupations:
  HONO-2 :    1B1g 1.0000000
  HONO-1 :    1B3g 1.0000000
  HONO-0 :    3 Ag 1.0000000
  LUNO+0 :    2B3u 0.0025151
  LUNO+1 :    2B1u 0.0025151
  LUNO+2 :    4 Ag 0.0007886
  LUNO+3 :    5B2u 0.0004809


Computation Completed


Properties will be evaluated at   0.000000,   0.000000,   0.000000 [a0]

Properties computed using the SCF density matrix


 Multipole Moments:

 ------------------------------------------------------------------------------------
     Multipole            Electronic (a.u.)      Nuclear  (a.u.)        Total (a.u.)
 ------------------------------------------------------------------------------------

 L = 1.  Multiply by 2.5417464519 to convert [e a0] to [Debye]
 Dipole X            :          0.0000000            0.0000000            0.0000000
 Dipole Y            :          0.0000000            0.0000000            0.0000000
 Dipole Z            :          0.0000000            0.0000000            0.0000000
 Magnitude           :                                                    0.0000000

 ------------------------------------------------------------------------------------

*** tstop() called on cics-quant-001 at Tue Dec 23 11:07:38 2025
Module time:
	user time   =       0.48 seconds =       0.01 minutes
	system time =       0.02 seconds =       0.00 minutes
	total time  =          0 seconds =       0.00 minutes
Total time:
	user time   =       6.19 seconds =       0.10 minutes
	system time =       0.61 seconds =       0.01 minutes
	total time  =          3 seconds =       0.05 minutes

*** tstart() called on cics-quant-001
*** at Tue Dec 23 11:07:38 2025


         ------------------------------------------------------------
                                   SCF GRAD                          
                          Rob Parrish, Justin Turney,                
                       Andy Simmonett, and Alex Sokolov              
         ------------------------------------------------------------

  ==> Geometry <==

    Molecular point group: d2h
    Full point group: D_inf_h

    Geometry (in Angstrom), charge = -1, multiplicity = 6:

       Center              X                  Y                   Z               Mass       
    ------------   -----------------  -----------------  -----------------  -----------------
         O           -0.000000000000     0.831484549138     0.000000000000    15.994914619570
         O            0.000000000000    -0.831484549138     0.000000000000    15.994914619570

  Nuclear repulsion =   20.365586779679226

  ==> Basis Set <==

  Basis Set: CC-PVDZ
    Blend: CC-PVDZ
    Number of shells: 12
    Number of basis functions: 28
    Number of Cartesian functions: 30
    Spherical Harmonics?: true
    Max angular momentum: 2

  ==> DFJKGrad: Density-Fitted SCF Gradients <==

    Gradient:                    1
    J tasked:                  Yes
    K tasked:                  Yes
    wK tasked:                  No
    OpenMP threads:              6
    Integrals threads:           6
    Memory [MiB]:             5722
    Schwarz Cutoff:          1E-12
    Fitting Condition:       1E-10

   => Auxiliary Basis Set <=

  Basis Set: (CC-PVDZ AUX)
    Blend: CC-PVDZ-JKFIT
    Number of shells: 48
    Number of basis functions: 140
    Number of Cartesian functions: 162
    Spherical Harmonics?: true
    Max angular momentum: 3

  ==> DFT Potential <==

   => LibXC <=

    Version 7.0.0
    S. Lehtola, C. Steigemann, M. J.T. Oliveira, and M. A.L. Marques.,  SoftwareX 7, 1–5 (2018) (10.1016/j.softx.2017.11.002)

   => Composite Functional: B3LYP <= 

    B3LYP Hyb-GGA Exchange-Correlation Functional

    P. J. Stephens, F. J. Devlin, C. F. Chabalowski, and M. J. Frisch.,  J. Phys. Chem. 98, 11623 (1994) (10.1021/j100096a001)

    Deriv               =              1
    GGA                 =           TRUE
    Meta                =          FALSE

    Exchange Hybrid     =           TRUE
    MP2 Hybrid          =          FALSE

   => Exchange Functionals <=

    0.0800   Slater exchange
    0.7200         Becke 88

   => Exact (HF) Exchange <=

    0.2000               HF 

   => Correlation Functionals <=

    0.1900   Vosko, Wilk & Nusair (VWN5_RPA)
    0.8100   Lee, Yang & Parr

   => LibXC Density Thresholds  <==

    XC_HYB_GGA_XC_B3LYP:  1.00E-15 

   => Molecular Quadrature <=

    Radial Scheme          =       TREUTLER
    Pruning Scheme         =           NONE
    Nuclear Scheme         =       TREUTLER

    Blocking Scheme        =         OCTREE
    BS radius alpha        =              1
    Pruning alpha          =              1
    Radial Points          =             75
    Spherical Points       =            302
    Total Points           =          41516
    Total Blocks           =            382
    Max Points             =            252
    Max Functions          =             28
    Weights Tolerance      =       1.00E-15


  -Total Gradient:
     Atom            X                  Y                   Z
    ------   -----------------  -----------------  -----------------
       1        0.000000000000    -0.000066118022     0.000000000000
       2       -0.000000000000     0.000066118022     0.000000000000


*** tstop() called on cics-quant-001 at Tue Dec 23 11:07:38 2025
Module time:
	user time   =       0.13 seconds =       0.00 minutes
	system time =       0.04 seconds =       0.00 minutes
	total time  =          0 seconds =       0.00 minutes
Total time:
	user time   =       6.32 seconds =       0.11 minutes
	system time =       0.65 seconds =       0.01 minutes
	total time  =          3 seconds =       0.05 minutes

    			-----------------------------------------

    			 OPTKING 3.0: for geometry optimizations 

    			     By R.A. King, Bethel University     

    			        with contributions from          

    			    A.V. Copan, J. Cayton, A. Heide      

    			-----------------------------------------

    
	                            ===> Fragment 1 <== 

	 Z (Atomic Numbers)          Masses                          Geom                  
	       8.000000            15.994915         -0.00000000  1.57127808  0.00000000   
	       8.000000            15.994915          0.00000000 -1.57127808  0.00000000   

	 - Coordinate -           - BOHR/RAD -       - ANG/DEG -
	 R(1,2)           =         3.142556           1.662969


	        --- Internal Coordinate Step in ANG or DEG, aJ/ANG or AJ/DEG ---
	-------------------------------------------------------------------------------
	           Coordinate      Previous         Force          Change          New 
	           ----------      --------        ------          ------        ------
	               R(1,2)       1.66297        0.00054        0.00012       1.66309
	-------------------------------------------------------------------------------

	                                 ==> Convergence Check <==                                  
    
	Measures of convergence in internal coordinates in au.
    
	Criteria marked as inactive (o), active & met (*), and active & unmet ( ).

	----------------------------------------------------------------------------------------------
	   Step    Total Energy     Delta E     Max Force     RMS Force      Max Disp      RMS Disp   
	----------------------------------------------------------------------------------------------
	  Convergence Criteria     1.00e-06 *    3.00e-04 *             o    1.20e-03 *             o
	----------------------------------------------------------------------------------------------
	     9    -149.17295509   -4.96e-07 *    6.61e-05 *    6.61e-05 o    2.32e-04 *    2.32e-04 o  ~
	----------------------------------------------------------------------------------------------

Next Geometry in Ang 
	Fragment 1 (Ang)

	    O  -0.0000000000   0.8315459661   0.0000000000
	    O   0.0000000000  -0.8315459661   0.0000000000


    Final optimized geometry and variables:
    Molecular point group: d2h
    Full point group: D_inf_h

    Geometry (in Angstrom), charge = -1, multiplicity = 6:

    O           -0.000000000000     0.831484549138     0.000000000000
    O            0.000000000000    -0.831484549138     0.000000000000


    Psi4 stopped on: Tuesday, 23 December 2025 11:07AM
    Psi4 wall time for execution: 0:00:03.25

*** Psi4 exiting successfully. Buy a developer a beer!
