
    -----------------------------------------------------------------------
          Psi4: An Open-Source Ab Initio Electronic Structure Package
                               Psi4 1.10 release

                         Git: Rev {} zzzzzzz 


    D. G. A. Smith, L. A. Burns, A. C. Simmonett, R. M. Parrish,
    M. C. Schieber, R. Galvelis, P. Kraus, H. Kruse, R. Di Remigio,
    A. Alenaizan, A. M. James, S. Lehtola, J. P. Misiewicz, M. Scheurer,
    R. A. Shaw, J. B. Schriber, Y. Xie, Z. L. Glick, D. A. Sirianni,
    J. S. O'Brien, J. M. Waldrop, A. Kumar, E. G. Hohenstein,
    B. P. Pritchard, B. R. Brooks, H. F. Schaefer III, A. Yu. Sokolov,
    K. Patkowski, A. E. DePrince III, U. Bozkaya, R. A. King,
    F. A. Evangelista, J. M. Turney, T. D. Crawford, C. D. Sherrill,
    J. Chem. Phys. 152(18) 184108 (2020). https://doi.org/10.1063/5.0006002

                            Additional Code Authors
    E. T. Seidl, C. L. Janssen, E. F. Valeev, M. L. Leininger,
    J. F. Gonthier, R. M. Richard, H. R. McAlexander, M. Saitow, X. Wang,
    P. Verma, M. H. Lechner, A. Jiang, S. Behnle, A. G. Heide,
    M. F. Herbst, D. L. Poole, T. Győri, E. C. Mitchell, J. P. Pederson,
    and A. M. Wallace

             Previous Authors, Complete List of Code Contributors,
                       and Citations for Specific Modules
    https://github.com/psi4/psi4/blob/master/codemeta.json
    https://github.com/psi4/psi4/graphs/contributors
    https://psicode.org/psi4manual/master/introduction.html#citing-psifour

    -----------------------------------------------------------------------


    Psi4 started on: Tuesday, 23 December 2025 10:46AM

    Process ID: 348453
    Host:       cics-quant-001
    PSIDATADIR: /home/jrodriguesro/psi4conda/share/psi4
    Memory:     500.0 MiB
    Threads:    6
    Addons:     adcc, a̶m̶b̶i̶t̶, b̶s̶e̶, c̶c̶t̶3̶, c̶f̶o̶u̶r̶, c̶h̶e̶m̶p̶s̶2̶, c̶p̶p̶e̶, ddx, dftd3, dftd4,
                dkh, ecpint, einsums, f̶o̶r̶t̶e̶, g̶a̶u̶x̶c̶, gcp, g̶d̶m̶a̶, geometric,
                g̶p̶u̶_̶d̶f̶c̶c̶, i̶n̶t̶e̶g̶r̶a̶t̶o̶r̶x̶x̶, i̶p̶i̶, libefp, m̶d̶i̶, m̶p̶2̶d̶,
                m̶r̶c̶c̶, ooo, o̶p̶e̶n̶f̶e̶r̶m̶i̶o̶n̶p̶s̶i̶4̶, pcmsolver, p̶s̶i̶4̶f̶o̶c̶k̶c̶i̶,
                p̶s̶i̶x̶a̶s̶, r̶e̶s̶p̶, s̶i̶m̶i̶n̶t̶, s̶n̶s̶m̶p̶2̶, v̶2̶r̶d̶m̶_̶c̶a̶s̶s̶c̶f̶

  ==> Input File <==

--------------------------------------------------------------------------
memory 8 Gb

molecule { 
-1 6
Be   0.00000        0.60000        0.00000
Ne   0.00000       -0.60000        0.00000
}

set { 
basis              cc-pvdz
reference          uks
maxiter            500
geom_maxiter       500
DAMPING_PERCENTAGE 1
guess              SAP
}

optimize('b3lyp')
--------------------------------------------------------------------------

  Memory set to   7.451 GiB by Python driver.

Scratch directory: /tmp/
gradient() will perform analytic gradient computation.
   => Libint2 <=

    Primary   basis highest AM E, G, H:  6, 6, 3
    Auxiliary basis highest AM E, G, H:  7, 7, 4
    Onebody   basis highest AM E, G, H:  -, -, -
    Solid Harmonics ordering:            Gaussian

*** tstart() called on cics-quant-001
*** at Tue Dec 23 10:46:38 2025

   => Loading Basis Set <=

    Name: CC-PVDZ
    Role: ORBITAL
    Keyword: BASIS
    atoms 1 entry BE         line    75 file /home/jrodriguesro/psi4conda/share/psi4/basis/cc-pvdz.gbs 
    atoms 2 entry NE         line   258 file /home/jrodriguesro/psi4conda/share/psi4/basis/cc-pvdz.gbs 


         ---------------------------------------------------------
                                   SCF
               by Justin Turney, Rob Parrish, Andy Simmonett
                          and Daniel G. A. Smith
                              UKS Reference
                        6 Threads,   7629 MiB Core
         ---------------------------------------------------------

  ==> Geometry <==

    Molecular point group: c2v
    Full point group: C_inf_v

    Geometry (in Angstrom), charge = -1, multiplicity = 6:

       Center              X                  Y                   Z               Mass       
    ------------   -----------------  -----------------  -----------------  -----------------
         BE           0.000000000000     0.000000000000     0.827141521954     9.012183065000
         NE           0.000000000000     0.000000000000    -0.372858478046    19.992440176200

  Running in c2v symmetry.

  Rotational constants: A = ************  B =      1.88454  C =      1.88454 [cm^-1]
  Rotational constants: A = ************  B =  56497.09605  C =  56497.09605 [MHz]
  Nuclear repulsion =   17.639240355666669

  Charge       = -1
  Multiplicity = 6
  Electrons    = 15
  Nalpha       = 10
  Nbeta        = 5

  ==> Algorithm <==

  SCF Algorithm Type is DF.
  DIIS enabled.
  MOM disabled.
  Fractional occupation disabled.
  Guess Type is SAP.
  Energy threshold   = 1.00e-08
  Density threshold  = 1.00e-08
  Integral threshold = 1.00e-12

  ==> Primary Basis <==

  Basis Set: CC-PVDZ
    Blend: CC-PVDZ
    Number of shells: 12
    Number of basis functions: 28
    Number of Cartesian functions: 30
    Spherical Harmonics?: true
    Max angular momentum: 2

  ==> DFT Potential <==

   => LibXC <=

    Version 7.0.0
    S. Lehtola, C. Steigemann, M. J.T. Oliveira, and M. A.L. Marques.,  SoftwareX 7, 1–5 (2018) (10.1016/j.softx.2017.11.002)

   => Composite Functional: B3LYP <= 

    B3LYP Hyb-GGA Exchange-Correlation Functional

    P. J. Stephens, F. J. Devlin, C. F. Chabalowski, and M. J. Frisch.,  J. Phys. Chem. 98, 11623 (1994) (10.1021/j100096a001)

    Deriv               =              1
    GGA                 =           TRUE
    Meta                =          FALSE

    Exchange Hybrid     =           TRUE
    MP2 Hybrid          =          FALSE

   => Exchange Functionals <=

    0.0800   Slater exchange
    0.7200         Becke 88

   => Exact (HF) Exchange <=

    0.2000               HF 

   => Correlation Functionals <=

    0.1900   Vosko, Wilk & Nusair (VWN5_RPA)
    0.8100   Lee, Yang & Parr

   => LibXC Density Thresholds  <==

    XC_HYB_GGA_XC_B3LYP:  1.00E-15 

   => Molecular Quadrature <=

    Radial Scheme          =       TREUTLER
    Pruning Scheme         =           NONE
    Nuclear Scheme         =       TREUTLER

    Blocking Scheme        =         OCTREE
    BS radius alpha        =              1
    Pruning alpha          =              1
    Radial Points          =             75
    Spherical Points       =            302
    Total Points           =          43487
    Total Blocks           =            400
    Max Points             =            256
    Max Functions          =             28
    Weights Tolerance      =       1.00E-15

   => Loading Basis Set <=

    Name: (CC-PVDZ AUX)
    Role: JKFIT
    Keyword: DF_BASIS_SCF
    atoms 1 entry BE         line    96 file /home/jrodriguesro/psi4conda/share/psi4/basis/def2-universal-jkfit.gbs 
    atoms 2 entry NE         line   321 file /home/jrodriguesro/psi4conda/share/psi4/basis/cc-pvdz-jkfit.gbs 

  ==> Integral Setup <==

  DFHelper Memory: AOs need 0.001 GiB; user supplied 5.555 GiB. 
  SCF_SUBTYPE=INCORE selected. In-core MEM_DF algorithm will be used.
  Using in-core AOs.

  ==> MemDFJK: Density-Fitted J/K Matrices <==

    J tasked:                   Yes
    K tasked:                   Yes
    wK tasked:                   No
    OpenMP threads:               6
    Memory [MiB]:              5687
    Algorithm:                 Core
    Schwarz Cutoff:           1E-12
    Mask sparsity (%):       0.0000
    Fitting Condition:        1E-10

   => Auxiliary Basis Set <=

  Basis Set: (CC-PVDZ AUX)
    Blend: CC-PVDZ-JKFIT + DEF2-UNIVERSAL-JKFIT
    Number of shells: 41
    Number of basis functions: 121
    Number of Cartesian functions: 141
    Spherical Harmonics?: true
    Max angular momentum: 3

  Cached 100.0% of DFT collocation blocks in 0.033 [GiB].

  Minimum eigenvalue in the overlap matrix is 9.4876494405E-03.
  Reciprocal condition number of the overlap matrix is 3.3342896167E-03.
    Using symmetric orthogonalization.

  ==> Pre-Iterations <==

  SCF Guess: Superposition of Atomic Potentials (doi:10.1021/acs.jctc.8b01089).

  ==> SAP guess <==

   => Molecular Quadrature <=

    Radial Scheme          =       TREUTLER
    Pruning Scheme         =           NONE
    Nuclear Scheme         =       TREUTLER

    Blocking Scheme        =         OCTREE
    BS radius alpha        =              1
    Pruning alpha          =              1
    Radial Points          =             75
    Spherical Points       =            302
    Total Points           =          43487
    Total Blocks           =            400
    Max Points             =            256
    Max Functions          =             28
    Weights Tolerance      =       1.00E-15

   -------------------------------------------------------
    Irrep   Nso     Nmo     Nalpha   Nbeta   Ndocc  Nsocc
   -------------------------------------------------------
     A1        14      14       6       4       4       2
     A2         2       2       0       0       0       0
     B1         6       6       2       0       0       2
     B2         6       6       2       1       1       1
   -------------------------------------------------------
    Total      28      28      10       5       5       5
   -------------------------------------------------------

  ==> Iterations <==

                           Total Energy        Delta E     RMS |[F,P]|

   @DF-UKS iter   1:  -142.41140997171595   -1.42411e+02   3.84475e-02 DIIS/ADIIS
   @DF-UKS iter   2:  -142.50595520409928   -9.45452e-02   2.42360e-02 DIIS/ADIIS/DAMP=1%
   @DF-UKS iter   3:  -142.56259745833563   -5.66423e-02   2.68477e-03 DIIS/ADIIS/DAMP=1%
   @DF-UKS iter   4:  -142.55586536845135    6.73209e-03   5.48721e-04 DIIS/ADIIS/DAMP=1%
   @DF-UKS iter   5:  -142.55767103708882   -1.80567e-03   2.59703e-05 DIIS/DAMP=1%
   @DF-UKS iter   6:  -142.55732115936851    3.49878e-04   4.72586e-06 DIIS/DAMP=1%
   @DF-UKS iter   7:  -142.55733286172011   -1.17024e-05   6.80084e-07 DIIS/DAMP=1%
   @DF-UKS iter   8:  -142.55732917746397    3.68426e-06   6.18026e-08 DIIS/DAMP=1%
   @DF-UKS iter   9:  -142.55732957997986   -4.02516e-07   1.39965e-08 DIIS/DAMP=1%
   @DF-UKS iter  10:  -142.55732954250070    3.74792e-08   2.44488e-09 DIIS/DAMP=1%
   @DF-UKS iter  11:  -142.55732954993795   -7.43725e-09   2.83972e-10 DIIS/DAMP=1%
  Energy and wave function converged.


  ==> Post-Iterations <==

   Electrons on quadrature grid:
      Nalpha   =   10.0000069764 ; deviation = 6.976e-06
      Nbeta    =    5.0000024073 ; deviation = 2.407e-06
      Ntotal   =   15.0000093837 ; deviation = 9.384e-06 

   @Spin Contamination Metric:   7.854796141E-04
   @S^2 Expected:                8.750000000E+00
   @S^2 Observed:                8.750785480E+00
   @S   Expected:                2.500000000E+00
   @S   Observed:                2.500000000E+00

    Orbital Energies [Eh]
    ---------------------

    Alpha Occupied:                                                       

       1A1   -31.487747     2A1    -3.941057     3A1    -1.905783  
       1B1    -1.052668     4A1    -0.989110     1B2    -0.944020  
       5A1    -0.048523     2B1     0.051031     2B2     0.060644  
       6A1     0.099705  

    Alpha Virtual:                                                        

       3B1     0.321361     3B2     0.326591     7A1     0.367242  
       8A1     0.482479     1A2     0.609805     9A1     0.609910  
       4B1     0.664921     4B2     0.678180    10A1     0.842694  
      11A1     1.412141     5B1     1.420451     5B2     1.470927  
      12A1     3.038365    13A1     4.258404     2A2     4.274366  
       6B1     4.318902     6B2     4.400184    14A1     4.404002  

    Beta Occupied:                                                        

       1A1   -31.440729     2A1    -3.923009     3A1    -1.789215  
       4A1    -0.940891     1B2    -0.891070  

    Beta Virtual:                                                         

       1B1    -0.681265     5A1     0.115204     2B2     0.204655  
       2B1     0.209592     6A1     0.211615     3B2     0.401114  
       3B1     0.401884     7A1     0.445777     8A1     0.563065  
       1A2     0.728850     9A1     0.731475     4B2     0.773061  
       4B1     0.776692    10A1     0.921297    11A1     1.452572  
       5B2     1.510440     5B1     1.533918    12A1     3.100407  
       2A2     4.395964    13A1     4.404254     6B2     4.427294  
       6B1     4.438900    14A1     4.460611  

    Final Occupation by Irrep:
             A1    A2    B1    B2 
    DOCC [     4,    0,    0,    1 ]
    SOCC [     2,    0,    2,    1 ]
    NA   [     6,    0,    2,    2 ]
    NB   [     4,    0,    0,    1 ]

  @DF-UKS Final Energy:  -142.55732954993795

   => Energetics <=

    Nuclear Repulsion Energy =             17.6392403556666686
    One-Electron Energy =                -232.4065287401999171
    Two-Electron Energy =                  84.5430087584445857
    DFT Exchange-Correlation Energy =     -12.3330499238492806
    Empirical Dispersion Energy =           0.0000000000000000
    VV10 Nonlocal Energy =                  0.0000000000000000
    Total Energy =                       -142.5573295499379469

  UHF NO Occupations:
  HONO-2 :    1 B1 1.0000000
  HONO-1 :    6 A1 1.0000000
  HONO-0 :    2 B1 1.0000000
  LUNO+0 :    7 A1 0.0002871
  LUNO+1 :    3 B2 0.0000693
  LUNO+2 :    8 A1 0.0000357
  LUNO+3 :    9 A1 0.0000006


Computation Completed


Properties will be evaluated at   0.000000,   0.000000,   0.000000 [a0]

Properties computed using the SCF density matrix


 Multipole Moments:

 ------------------------------------------------------------------------------------
     Multipole            Electronic (a.u.)      Nuclear  (a.u.)        Total (a.u.)
 ------------------------------------------------------------------------------------

 L = 1.  Multiply by 2.5417464519 to convert [e a0] to [Debye]
 Dipole X            :          0.0000000            0.0000000            0.0000000
 Dipole Y            :          0.0000000            0.0000000            0.0000000
 Dipole Z            :         -2.1749103           -0.7937203           -2.9686306
 Magnitude           :                                                    2.9686306

 ------------------------------------------------------------------------------------

*** tstop() called on cics-quant-001 at Tue Dec 23 10:46:38 2025
Module time:
	user time   =       0.70 seconds =       0.01 minutes
	system time =       0.07 seconds =       0.00 minutes
	total time  =          0 seconds =       0.00 minutes
Total time:
	user time   =       0.70 seconds =       0.01 minutes
	system time =       0.07 seconds =       0.00 minutes
	total time  =          0 seconds =       0.00 minutes

*** tstart() called on cics-quant-001
*** at Tue Dec 23 10:46:38 2025


         ------------------------------------------------------------
                                   SCF GRAD                          
                          Rob Parrish, Justin Turney,                
                       Andy Simmonett, and Alex Sokolov              
         ------------------------------------------------------------

  ==> Geometry <==

    Molecular point group: c2v
    Full point group: C_inf_v

    Geometry (in Angstrom), charge = -1, multiplicity = 6:

       Center              X                  Y                   Z               Mass       
    ------------   -----------------  -----------------  -----------------  -----------------
         BE           0.000000000000     0.000000000000     0.827141521954     9.012183065000
         NE           0.000000000000     0.000000000000    -0.372858478046    19.992440176200

  Nuclear repulsion =   17.639240355666669

  ==> Basis Set <==

  Basis Set: CC-PVDZ
    Blend: CC-PVDZ
    Number of shells: 12
    Number of basis functions: 28
    Number of Cartesian functions: 30
    Spherical Harmonics?: true
    Max angular momentum: 2

  ==> DFJKGrad: Density-Fitted SCF Gradients <==

    Gradient:                    1
    J tasked:                  Yes
    K tasked:                  Yes
    wK tasked:                  No
    OpenMP threads:              6
    Integrals threads:           6
    Memory [MiB]:             5722
    Schwarz Cutoff:          1E-12
    Fitting Condition:       1E-10

   => Auxiliary Basis Set <=

  Basis Set: (CC-PVDZ AUX)
    Blend: CC-PVDZ-JKFIT + DEF2-UNIVERSAL-JKFIT
    Number of shells: 41
    Number of basis functions: 121
    Number of Cartesian functions: 141
    Spherical Harmonics?: true
    Max angular momentum: 3

  ==> DFT Potential <==

   => LibXC <=

    Version 7.0.0
    S. Lehtola, C. Steigemann, M. J.T. Oliveira, and M. A.L. Marques.,  SoftwareX 7, 1–5 (2018) (10.1016/j.softx.2017.11.002)

   => Composite Functional: B3LYP <= 

    B3LYP Hyb-GGA Exchange-Correlation Functional

    P. J. Stephens, F. J. Devlin, C. F. Chabalowski, and M. J. Frisch.,  J. Phys. Chem. 98, 11623 (1994) (10.1021/j100096a001)

    Deriv               =              1
    GGA                 =           TRUE
    Meta                =          FALSE

    Exchange Hybrid     =           TRUE
    MP2 Hybrid          =          FALSE

   => Exchange Functionals <=

    0.0800   Slater exchange
    0.7200         Becke 88

   => Exact (HF) Exchange <=

    0.2000               HF 

   => Correlation Functionals <=

    0.1900   Vosko, Wilk & Nusair (VWN5_RPA)
    0.8100   Lee, Yang & Parr

   => LibXC Density Thresholds  <==

    XC_HYB_GGA_XC_B3LYP:  1.00E-15 

   => Molecular Quadrature <=

    Radial Scheme          =       TREUTLER
    Pruning Scheme         =           NONE
    Nuclear Scheme         =       TREUTLER

    Blocking Scheme        =         OCTREE
    BS radius alpha        =              1
    Pruning alpha          =              1
    Radial Points          =             75
    Spherical Points       =            302
    Total Points           =          43487
    Total Blocks           =            400
    Max Points             =            256
    Max Functions          =             28
    Weights Tolerance      =       1.00E-15


  -Total Gradient:
     Atom            X                  Y                   Z
    ------   -----------------  -----------------  -----------------
       1        0.000000000000    -0.000000000000    -0.521755233051
       2        0.000000000000     0.000000000000     0.521874263936


*** tstop() called on cics-quant-001 at Tue Dec 23 10:46:38 2025
Module time:
	user time   =       0.11 seconds =       0.00 minutes
	system time =       0.06 seconds =       0.00 minutes
	total time  =          0 seconds =       0.00 minutes
Total time:
	user time   =       0.81 seconds =       0.01 minutes
	system time =       0.13 seconds =       0.00 minutes
	total time  =          0 seconds =       0.00 minutes

    			-----------------------------------------

    			 OPTKING 3.0: for geometry optimizations 

    			     By R.A. King, Bethel University     

    			        with contributions from          

    			    A.V. Copan, J. Cayton, A. Heide      

    			-----------------------------------------

    
	                            ===> Fragment 1 <== 

	 Z (Atomic Numbers)          Masses                          Geom                  
	       4.000000             9.012183          0.00000000  0.00000000  1.56307094   
	      10.000000            19.992440          0.00000000  0.00000000 -0.70460041   

	 - Coordinate -           - BOHR/RAD -       - ANG/DEG -
	 R(1,2)           =         2.267671           1.200000


	        --- Internal Coordinate Step in ANG or DEG, aJ/ANG or AJ/DEG ---
	-------------------------------------------------------------------------------
	           Coordinate      Previous         Force          Change          New 
	           ----------      --------        ------          ------        ------
	               R(1,2)       1.20000        4.29909        0.21851       1.41851
	-------------------------------------------------------------------------------

	                                 ==> Convergence Check <==                                  
    
	Measures of convergence in internal coordinates in au.
    
	Criteria marked as inactive (o), active & met (*), and active & unmet ( ).

	----------------------------------------------------------------------------------------------~
	   Step    Total Energy     Delta E     Max Force     RMS Force      Max Disp      RMS Disp   ~
	----------------------------------------------------------------------------------------------~
	  Convergence Criteria     1.00e-06 *    3.00e-04 *             o    1.20e-03 *             o~
	----------------------------------------------------------------------------------------------~
	     1    -142.55732955   -1.43e+02      5.22e-01      5.22e-01 o    4.13e-01      4.13e-01 o  ~
	----------------------------------------------------------------------------------------------

Next Geometry in Ang 
	Fragment 1 (Ang)

	   Be   0.0000000000   0.0000000000   0.9363969509
	   Ne   0.0000000000   0.0000000000  -0.4821139070


    Structure for next step:
    Molecular point group: c2v
    Full point group: C_inf_v

    Geometry (in Angstrom), charge = -1, multiplicity = 6:

    BE           0.000000000000     0.000000000000     0.977757691642
    NE           0.000000000000     0.000000000000    -0.440753166328


Scratch directory: /tmp/
gradient() will perform analytic gradient computation.
   => Libint2 <=

    Primary   basis highest AM E, G, H:  6, 6, 3
    Auxiliary basis highest AM E, G, H:  7, 7, 4
    Onebody   basis highest AM E, G, H:  -, -, -
    Solid Harmonics ordering:            Gaussian

*** tstart() called on cics-quant-001
*** at Tue Dec 23 10:46:38 2025

   => Loading Basis Set <=

    Name: CC-PVDZ
    Role: ORBITAL
    Keyword: BASIS
    atoms 1 entry BE         line    75 file /home/jrodriguesro/psi4conda/share/psi4/basis/cc-pvdz.gbs 
    atoms 2 entry NE         line   258 file /home/jrodriguesro/psi4conda/share/psi4/basis/cc-pvdz.gbs 


         ---------------------------------------------------------
                                   SCF
               by Justin Turney, Rob Parrish, Andy Simmonett
                          and Daniel G. A. Smith
                              UKS Reference
                        6 Threads,   7629 MiB Core
         ---------------------------------------------------------

  ==> Geometry <==

    Molecular point group: c2v
    Full point group: C_inf_v

    Geometry (in Angstrom), charge = -1, multiplicity = 6:

       Center              X                  Y                   Z               Mass       
    ------------   -----------------  -----------------  -----------------  -----------------
         BE           0.000000000000     0.000000000000     0.977757691642     9.012183065000
         NE           0.000000000000     0.000000000000    -0.440753166328    19.992440176200

  Running in c2v symmetry.

  Rotational constants: A = ************  B =      1.34866  C =      1.34866 [cm^-1]
  Rotational constants: A = ************  B =  40431.81979  C =  40431.81979 [MHz]
  Nuclear repulsion =   14.922048927480262

  Charge       = -1
  Multiplicity = 6
  Electrons    = 15
  Nalpha       = 10
  Nbeta        = 5

  ==> Algorithm <==

  SCF Algorithm Type is DF.
  DIIS enabled.
  MOM disabled.
  Fractional occupation disabled.
  Guess Type is READ.
  Energy threshold   = 1.00e-08
  Density threshold  = 1.00e-08
  Integral threshold = 1.00e-12

  ==> Primary Basis <==

  Basis Set: CC-PVDZ
    Blend: CC-PVDZ
    Number of shells: 12
    Number of basis functions: 28
    Number of Cartesian functions: 30
    Spherical Harmonics?: true
    Max angular momentum: 2

  ==> DFT Potential <==

   => LibXC <=

    Version 7.0.0
    S. Lehtola, C. Steigemann, M. J.T. Oliveira, and M. A.L. Marques.,  SoftwareX 7, 1–5 (2018) (10.1016/j.softx.2017.11.002)

   => Composite Functional: B3LYP <= 

    B3LYP Hyb-GGA Exchange-Correlation Functional

    P. J. Stephens, F. J. Devlin, C. F. Chabalowski, and M. J. Frisch.,  J. Phys. Chem. 98, 11623 (1994) (10.1021/j100096a001)

    Deriv               =              1
    GGA                 =           TRUE
    Meta                =          FALSE

    Exchange Hybrid     =           TRUE
    MP2 Hybrid          =          FALSE

   => Exchange Functionals <=

    0.0800   Slater exchange
    0.7200         Becke 88

   => Exact (HF) Exchange <=

    0.2000               HF 

   => Correlation Functionals <=

    0.1900   Vosko, Wilk & Nusair (VWN5_RPA)
    0.8100   Lee, Yang & Parr

   => LibXC Density Thresholds  <==

    XC_HYB_GGA_XC_B3LYP:  1.00E-15 

   => Molecular Quadrature <=

    Radial Scheme          =       TREUTLER
    Pruning Scheme         =           NONE
    Nuclear Scheme         =       TREUTLER

    Blocking Scheme        =         OCTREE
    BS radius alpha        =              1
    Pruning alpha          =              1
    Radial Points          =             75
    Spherical Points       =            302
    Total Points           =          43515
    Total Blocks           =            404
    Max Points             =            253
    Max Functions          =             28
    Weights Tolerance      =       1.00E-15

   => Loading Basis Set <=

    Name: (CC-PVDZ AUX)
    Role: JKFIT
    Keyword: DF_BASIS_SCF
    atoms 1 entry BE         line    96 file /home/jrodriguesro/psi4conda/share/psi4/basis/def2-universal-jkfit.gbs 
    atoms 2 entry NE         line   321 file /home/jrodriguesro/psi4conda/share/psi4/basis/cc-pvdz-jkfit.gbs 

   => Loading Basis Set <=

    Name: CC-PVDZ
    Role: ORBITAL
    Keyword: BASIS
    atoms 1 entry BE         line    75 file /home/jrodriguesro/psi4conda/share/psi4/basis/cc-pvdz.gbs 
    atoms 2 entry NE         line   258 file /home/jrodriguesro/psi4conda/share/psi4/basis/cc-pvdz.gbs 

  Reading orbitals from file /tmp/sextet_BeNe.default.348453.180.npy, no projection.

  ==> Integral Setup <==

  DFHelper Memory: AOs need 0.001 GiB; user supplied 5.555 GiB. 
  SCF_SUBTYPE=INCORE selected. In-core MEM_DF algorithm will be used.
  Using in-core AOs.

  ==> MemDFJK: Density-Fitted J/K Matrices <==

    J tasked:                   Yes
    K tasked:                   Yes
    wK tasked:                   No
    OpenMP threads:               6
    Memory [MiB]:              5688
    Algorithm:                 Core
    Schwarz Cutoff:           1E-12
    Mask sparsity (%):       0.0000
    Fitting Condition:        1E-10

   => Auxiliary Basis Set <=

  Basis Set: (CC-PVDZ AUX)
    Blend: CC-PVDZ-JKFIT + DEF2-UNIVERSAL-JKFIT
    Number of shells: 41
    Number of basis functions: 121
    Number of Cartesian functions: 141
    Spherical Harmonics?: true
    Max angular momentum: 3

  Cached 100.0% of DFT collocation blocks in 0.033 [GiB].

  Minimum eigenvalue in the overlap matrix is 1.7535667199E-02.
  Reciprocal condition number of the overlap matrix is 6.2834557575E-03.
    Using symmetric orthogonalization.

  ==> Pre-Iterations <==

  SCF Guess: Orbitals guess was supplied from a previous computation.

   -------------------------------------------------------
    Irrep   Nso     Nmo     Nalpha   Nbeta   Ndocc  Nsocc
   -------------------------------------------------------
     A1        14      14       6       4       4       2
     A2         2       2       0       0       0       0
     B1         6       6       2       0       0       2
     B2         6       6       2       1       1       1
   -------------------------------------------------------
    Total      28      28      10       5       5       5
   -------------------------------------------------------

  ==> Iterations <==

                           Total Energy        Delta E     RMS |[F,P]|

   @DF-UKS iter   0:  -142.74752358858356   -1.42748e+02   1.97412e-02 
   @DF-UKS iter   1:  -142.69800138880638    4.95222e-02   4.97892e-03 DIIS/ADIIS
   @DF-UKS iter   2:  -142.70036300565607   -2.36162e-03   3.80287e-03 DIIS/ADIIS/DAMP=1%
   @DF-UKS iter   3:  -142.70413311667730   -3.77011e-03   1.64134e-04 DIIS/ADIIS/DAMP=1%
   @DF-UKS iter   4:  -142.70218914020904    1.94398e-03   5.41347e-05 DIIS/DAMP=1%
   @DF-UKS iter   5:  -142.70208358428076    1.05556e-04   6.89285e-06 DIIS/DAMP=1%
   @DF-UKS iter   6:  -142.70208320846851    3.75812e-07   4.65612e-07 DIIS/DAMP=1%
   @DF-UKS iter   7:  -142.70208074758784    2.46088e-06   5.41392e-08 DIIS/DAMP=1%
   @DF-UKS iter   8:  -142.70208088666624   -1.39078e-07   8.59206e-09 DIIS/DAMP=1%
   @DF-UKS iter   9:  -142.70208089317350   -6.50726e-09   1.41386e-09 DIIS/DAMP=1%
  Energy and wave function converged.


  ==> Post-Iterations <==

   Electrons on quadrature grid:
      Nalpha   =    9.9999954556 ; deviation = -4.544e-06
      Nbeta    =    4.9999974284 ; deviation = -2.572e-06
      Ntotal   =   14.9999928840 ; deviation = -7.116e-06 

   @Spin Contamination Metric:   7.889962809E-04
   @S^2 Expected:                8.750000000E+00
   @S^2 Observed:                8.750788996E+00
   @S   Expected:                2.500000000E+00
   @S   Observed:                2.500000000E+00

    Orbital Energies [Eh]
    ---------------------

    Alpha Occupied:                                                       

       1A1   -31.461496     2A1    -3.886292     3A1    -1.852708  
       1B1    -1.009422     4A1    -0.939084     1B2    -0.900324  
       5A1    -0.044199     2B1     0.059847     2B2     0.066888  
       6A1     0.103125  

    Alpha Virtual:                                                        

       3B1     0.339347     3B2     0.342841     7A1     0.366140  
       8A1     0.419371     1A2     0.637329     9A1     0.637364  
       4B1     0.654615     4B2     0.666316    10A1     0.799122  
       5B1     1.351714    11A1     1.394107     5B2     1.403393  
      12A1     2.723126    13A1     4.291294     2A2     4.304864  
       6B1     4.342611     6B2     4.424459    14A1     4.456771  

    Beta Occupied:                                                        

       1A1   -31.415223     2A1    -3.867810     3A1    -1.736017  
       4A1    -0.892045     1B2    -0.850010  

    Beta Virtual:                                                         

       1B1    -0.639741     5A1     0.117145     2B2     0.211041  
       2B1     0.215439     6A1     0.219370     3B1     0.417851  
       3B2     0.418132     7A1     0.449422     8A1     0.483563  
       1A2     0.760431     9A1     0.762137     4B2     0.762989  
       4B1     0.766716    10A1     0.891280    11A1     1.431243  
       5B2     1.442113     5B1     1.467128    12A1     2.785623  
       2A2     4.425197    13A1     4.435895     6B2     4.450317  
       6B1     4.462319    14A1     4.510777  

    Final Occupation by Irrep:
             A1    A2    B1    B2 
    DOCC [     4,    0,    0,    1 ]
    SOCC [     2,    0,    2,    1 ]
    NA   [     6,    0,    2,    2 ]
    NB   [     4,    0,    0,    1 ]

  @DF-UKS Final Energy:  -142.70208089317350

   => Energetics <=

    Nuclear Repulsion Energy =             14.9220489274802617
    One-Electron Energy =                -227.8152327676029358
    Two-Electron Energy =                  82.4726650248396425
    DFT Exchange-Correlation Energy =     -12.2815620778904737
    Empirical Dispersion Energy =           0.0000000000000000
    VV10 Nonlocal Energy =                  0.0000000000000000
    Total Energy =                       -142.7020808931735019

  UHF NO Occupations:
  HONO-2 :    6 A1 1.0000000
  HONO-1 :    2 B1 1.0000000
  HONO-0 :    2 B2 1.0000000
  LUNO+0 :    7 A1 0.0002846
  LUNO+1 :    3 B2 0.0000637
  LUNO+2 :    8 A1 0.0000458
  LUNO+3 :    9 A1 0.0000004


Computation Completed


Properties will be evaluated at   0.000000,   0.000000,   0.000000 [a0]

Properties computed using the SCF density matrix


 Multipole Moments:

 ------------------------------------------------------------------------------------
     Multipole            Electronic (a.u.)      Nuclear  (a.u.)        Total (a.u.)
 ------------------------------------------------------------------------------------

 L = 1.  Multiply by 2.5417464519 to convert [e a0] to [Debye]
 Dipole X            :          0.0000000            0.0000000            0.0000000
 Dipole Y            :          0.0000000            0.0000000            0.0000000
 Dipole Z            :         -2.8057405           -0.9382507           -3.7439912
 Magnitude           :                                                    3.7439912

 ------------------------------------------------------------------------------------

*** tstop() called on cics-quant-001 at Tue Dec 23 10:46:39 2025
Module time:
	user time   =       0.51 seconds =       0.01 minutes
	system time =       0.04 seconds =       0.00 minutes
	total time  =          1 seconds =       0.02 minutes
Total time:
	user time   =       1.34 seconds =       0.02 minutes
	system time =       0.17 seconds =       0.00 minutes
	total time  =          1 seconds =       0.02 minutes

*** tstart() called on cics-quant-001
*** at Tue Dec 23 10:46:39 2025


         ------------------------------------------------------------
                                   SCF GRAD                          
                          Rob Parrish, Justin Turney,                
                       Andy Simmonett, and Alex Sokolov              
         ------------------------------------------------------------

  ==> Geometry <==

    Molecular point group: c2v
    Full point group: C_inf_v

    Geometry (in Angstrom), charge = -1, multiplicity = 6:

       Center              X                  Y                   Z               Mass       
    ------------   -----------------  -----------------  -----------------  -----------------
         BE           0.000000000000     0.000000000000     0.977757691642     9.012183065000
         NE           0.000000000000     0.000000000000    -0.440753166328    19.992440176200

  Nuclear repulsion =   14.922048927480262

  ==> Basis Set <==

  Basis Set: CC-PVDZ
    Blend: CC-PVDZ
    Number of shells: 12
    Number of basis functions: 28
    Number of Cartesian functions: 30
    Spherical Harmonics?: true
    Max angular momentum: 2

  ==> DFJKGrad: Density-Fitted SCF Gradients <==

    Gradient:                    1
    J tasked:                  Yes
    K tasked:                  Yes
    wK tasked:                  No
    OpenMP threads:              6
    Integrals threads:           6
    Memory [MiB]:             5722
    Schwarz Cutoff:          1E-12
    Fitting Condition:       1E-10

   => Auxiliary Basis Set <=

  Basis Set: (CC-PVDZ AUX)
    Blend: CC-PVDZ-JKFIT + DEF2-UNIVERSAL-JKFIT
    Number of shells: 41
    Number of basis functions: 121
    Number of Cartesian functions: 141
    Spherical Harmonics?: true
    Max angular momentum: 3

  ==> DFT Potential <==

   => LibXC <=

    Version 7.0.0
    S. Lehtola, C. Steigemann, M. J.T. Oliveira, and M. A.L. Marques.,  SoftwareX 7, 1–5 (2018) (10.1016/j.softx.2017.11.002)

   => Composite Functional: B3LYP <= 

    B3LYP Hyb-GGA Exchange-Correlation Functional

    P. J. Stephens, F. J. Devlin, C. F. Chabalowski, and M. J. Frisch.,  J. Phys. Chem. 98, 11623 (1994) (10.1021/j100096a001)

    Deriv               =              1
    GGA                 =           TRUE
    Meta                =          FALSE

    Exchange Hybrid     =           TRUE
    MP2 Hybrid          =          FALSE

   => Exchange Functionals <=

    0.0800   Slater exchange
    0.7200         Becke 88

   => Exact (HF) Exchange <=

    0.2000               HF 

   => Correlation Functionals <=

    0.1900   Vosko, Wilk & Nusair (VWN5_RPA)
    0.8100   Lee, Yang & Parr

   => LibXC Density Thresholds  <==

    XC_HYB_GGA_XC_B3LYP:  1.00E-15 

   => Molecular Quadrature <=

    Radial Scheme          =       TREUTLER
    Pruning Scheme         =           NONE
    Nuclear Scheme         =       TREUTLER

    Blocking Scheme        =         OCTREE
    BS radius alpha        =              1
    Pruning alpha          =              1
    Radial Points          =             75
    Spherical Points       =            302
    Total Points           =          43515
    Total Blocks           =            404
    Max Points             =            253
    Max Functions          =             28
    Weights Tolerance      =       1.00E-15


  -Total Gradient:
     Atom            X                  Y                   Z
    ------   -----------------  -----------------  -----------------
       1        0.000000000000    -0.000000000000    -0.229427579822
       2        0.000000000000     0.000000000000     0.229530843438


*** tstop() called on cics-quant-001 at Tue Dec 23 10:46:39 2025
Module time:
	user time   =       0.14 seconds =       0.00 minutes
	system time =       0.07 seconds =       0.00 minutes
	total time  =          0 seconds =       0.00 minutes
Total time:
	user time   =       1.48 seconds =       0.02 minutes
	system time =       0.24 seconds =       0.00 minutes
	total time  =          1 seconds =       0.02 minutes

    			-----------------------------------------

    			 OPTKING 3.0: for geometry optimizations 

    			     By R.A. King, Bethel University     

    			        with contributions from          

    			    A.V. Copan, J. Cayton, A. Heide      

    			-----------------------------------------

    
	                            ===> Fragment 1 <== 

	 Z (Atomic Numbers)          Masses                          Geom                  
	       4.000000             9.012183          0.00000000  0.00000000  1.84769425   
	      10.000000            19.992440          0.00000000  0.00000000 -0.83290277   

	 - Coordinate -           - BOHR/RAD -       - ANG/DEG -
	 R(1,2)           =         2.680597           1.418511


	        --- Internal Coordinate Step in ANG or DEG, aJ/ANG or AJ/DEG ---
	-------------------------------------------------------------------------------
	           Coordinate      Previous         Force          Change          New 
	           ----------      --------        ------          ------        ------
	               R(1,2)       1.41851        1.89062        0.15652       1.57503
	-------------------------------------------------------------------------------

	                                 ==> Convergence Check <==                                  
    
	Measures of convergence in internal coordinates in au.
    
	Criteria marked as inactive (o), active & met (*), and active & unmet ( ).

	----------------------------------------------------------------------------------------------
	   Step    Total Energy     Delta E     Max Force     RMS Force      Max Disp      RMS Disp   
	----------------------------------------------------------------------------------------------
	  Convergence Criteria     1.00e-06 *    3.00e-04 *             o    1.20e-03 *             o
	----------------------------------------------------------------------------------------------
	     2    -142.70208089   -1.45e-01      2.29e-01      2.29e-01 o    2.96e-01      2.96e-01 o  ~
	----------------------------------------------------------------------------------------------

Next Geometry in Ang 
	Fragment 1 (Ang)

	   Be   0.0000000000   0.0000000000   1.0560183821
	   Ne   0.0000000000   0.0000000000  -0.5190138568


    Structure for next step:
    Molecular point group: c2v
    Full point group: C_inf_v

    Geometry (in Angstrom), charge = -1, multiplicity = 6:

    BE           0.000000000000     0.000000000000     1.085645469322
    NE           0.000000000000     0.000000000000    -0.489386769548


Scratch directory: /tmp/
gradient() will perform analytic gradient computation.
   => Libint2 <=

    Primary   basis highest AM E, G, H:  6, 6, 3
    Auxiliary basis highest AM E, G, H:  7, 7, 4
    Onebody   basis highest AM E, G, H:  -, -, -
    Solid Harmonics ordering:            Gaussian

*** tstart() called on cics-quant-001
*** at Tue Dec 23 10:46:39 2025

   => Loading Basis Set <=

    Name: CC-PVDZ
    Role: ORBITAL
    Keyword: BASIS
    atoms 1 entry BE         line    75 file /home/jrodriguesro/psi4conda/share/psi4/basis/cc-pvdz.gbs 
    atoms 2 entry NE         line   258 file /home/jrodriguesro/psi4conda/share/psi4/basis/cc-pvdz.gbs 


         ---------------------------------------------------------
                                   SCF
               by Justin Turney, Rob Parrish, Andy Simmonett
                          and Daniel G. A. Smith
                              UKS Reference
                        6 Threads,   7629 MiB Core
         ---------------------------------------------------------

  ==> Geometry <==

    Molecular point group: c2v
    Full point group: C_inf_v

    Geometry (in Angstrom), charge = -1, multiplicity = 6:

       Center              X                  Y                   Z               Mass       
    ------------   -----------------  -----------------  -----------------  -----------------
         BE           0.000000000000     0.000000000000     1.085645469322     9.012183065000
         NE           0.000000000000     0.000000000000    -0.489386769548    19.992440176200

  Running in c2v symmetry.

  Rotational constants: A = ************  B =      1.09393  C =      1.09393 [cm^-1]
  Rotational constants: A = ************  B =  32795.15761  C =  32795.15761 [MHz]
  Nuclear repulsion =   13.439146135817232

  Charge       = -1
  Multiplicity = 6
  Electrons    = 15
  Nalpha       = 10
  Nbeta        = 5

  ==> Algorithm <==

  SCF Algorithm Type is DF.
  DIIS enabled.
  MOM disabled.
  Fractional occupation disabled.
  Guess Type is READ.
  Energy threshold   = 1.00e-08
  Density threshold  = 1.00e-08
  Integral threshold = 1.00e-12

  ==> Primary Basis <==

  Basis Set: CC-PVDZ
    Blend: CC-PVDZ
    Number of shells: 12
    Number of basis functions: 28
    Number of Cartesian functions: 30
    Spherical Harmonics?: true
    Max angular momentum: 2

  ==> DFT Potential <==

   => LibXC <=

    Version 7.0.0
    S. Lehtola, C. Steigemann, M. J.T. Oliveira, and M. A.L. Marques.,  SoftwareX 7, 1–5 (2018) (10.1016/j.softx.2017.11.002)

   => Composite Functional: B3LYP <= 

    B3LYP Hyb-GGA Exchange-Correlation Functional

    P. J. Stephens, F. J. Devlin, C. F. Chabalowski, and M. J. Frisch.,  J. Phys. Chem. 98, 11623 (1994) (10.1021/j100096a001)

    Deriv               =              1
    GGA                 =           TRUE
    Meta                =          FALSE

    Exchange Hybrid     =           TRUE
    MP2 Hybrid          =          FALSE

   => Exchange Functionals <=

    0.0800   Slater exchange
    0.7200         Becke 88

   => Exact (HF) Exchange <=

    0.2000               HF 

   => Correlation Functionals <=

    0.1900   Vosko, Wilk & Nusair (VWN5_RPA)
    0.8100   Lee, Yang & Parr

   => LibXC Density Thresholds  <==

    XC_HYB_GGA_XC_B3LYP:  1.00E-15 

   => Molecular Quadrature <=

    Radial Scheme          =       TREUTLER
    Pruning Scheme         =           NONE
    Nuclear Scheme         =       TREUTLER

    Blocking Scheme        =         OCTREE
    BS radius alpha        =              1
    Pruning alpha          =              1
    Radial Points          =             75
    Spherical Points       =            302
    Total Points           =          43547
    Total Blocks           =            402
    Max Points             =            255
    Max Functions          =             28
    Weights Tolerance      =       1.00E-15

   => Loading Basis Set <=

    Name: (CC-PVDZ AUX)
    Role: JKFIT
    Keyword: DF_BASIS_SCF
    atoms 1 entry BE         line    96 file /home/jrodriguesro/psi4conda/share/psi4/basis/def2-universal-jkfit.gbs 
    atoms 2 entry NE         line   321 file /home/jrodriguesro/psi4conda/share/psi4/basis/cc-pvdz-jkfit.gbs 

   => Loading Basis Set <=

    Name: CC-PVDZ
    Role: ORBITAL
    Keyword: BASIS
    atoms 1 entry BE         line    75 file /home/jrodriguesro/psi4conda/share/psi4/basis/cc-pvdz.gbs 
    atoms 2 entry NE         line   258 file /home/jrodriguesro/psi4conda/share/psi4/basis/cc-pvdz.gbs 

  Reading orbitals from file /tmp/sextet_BeNe.default.348453.180.npy, no projection.

  ==> Integral Setup <==

  DFHelper Memory: AOs need 0.001 GiB; user supplied 5.555 GiB. 
  SCF_SUBTYPE=INCORE selected. In-core MEM_DF algorithm will be used.
  Using in-core AOs.

  ==> MemDFJK: Density-Fitted J/K Matrices <==

    J tasked:                   Yes
    K tasked:                   Yes
    wK tasked:                   No
    OpenMP threads:               6
    Memory [MiB]:              5688
    Algorithm:                 Core
    Schwarz Cutoff:           1E-12
    Mask sparsity (%):       0.0000
    Fitting Condition:        1E-10

   => Auxiliary Basis Set <=

  Basis Set: (CC-PVDZ AUX)
    Blend: CC-PVDZ-JKFIT + DEF2-UNIVERSAL-JKFIT
    Number of shells: 41
    Number of basis functions: 121
    Number of Cartesian functions: 141
    Spherical Harmonics?: true
    Max angular momentum: 3

  Cached 100.0% of DFT collocation blocks in 0.033 [GiB].

  Minimum eigenvalue in the overlap matrix is 2.6080879442E-02.
  Reciprocal condition number of the overlap matrix is 9.5381525158E-03.
    Using symmetric orthogonalization.

  ==> Pre-Iterations <==

  SCF Guess: Orbitals guess was supplied from a previous computation.

   -------------------------------------------------------
    Irrep   Nso     Nmo     Nalpha   Nbeta   Ndocc  Nsocc
   -------------------------------------------------------
     A1        14      14       6       4       4       2
     A2         2       2       0       0       0       0
     B1         6       6       2       0       0       2
     B2         6       6       2       1       1       1
   -------------------------------------------------------
    Total      28      28      10       5       5       5
   -------------------------------------------------------

  ==> Iterations <==

                           Total Energy        Delta E     RMS |[F,P]|

   @DF-UKS iter   0:  -142.75885520659040   -1.42759e+02   1.24583e-02 
   @DF-UKS iter   1:  -142.75484183128793    4.01338e-03   1.57925e-03 DIIS/ADIIS
   @DF-UKS iter   2:  -142.75527468356728   -4.32852e-04   1.21090e-03 DIIS/ADIIS/DAMP=1%
   @DF-UKS iter   3:  -142.75623474252282   -9.60059e-04   7.60923e-05 DIIS/DAMP=1%
   @DF-UKS iter   4:  -142.75557026620601    6.64476e-04   3.35048e-05 DIIS/DAMP=1%
   @DF-UKS iter   5:  -142.75553255080862    3.77154e-05   5.11318e-06 DIIS/DAMP=1%
   @DF-UKS iter   6:  -142.75553262443304   -7.36244e-08   4.44275e-07 DIIS/DAMP=1%
   @DF-UKS iter   7:  -142.75553161230363    1.01213e-06   5.06819e-08 DIIS/DAMP=1%
   @DF-UKS iter   8:  -142.75553171665609   -1.04352e-07   5.02956e-09 DIIS/DAMP=1%
   @DF-UKS iter   9:  -142.75553171072170    5.93440e-09   8.16153e-10 DIIS/DAMP=1%
  Energy and wave function converged.


  ==> Post-Iterations <==

   Electrons on quadrature grid:
      Nalpha   =    9.9999844020 ; deviation = -1.560e-05
      Nbeta    =    4.9999930048 ; deviation = -6.995e-06
      Ntotal   =   14.9999774067 ; deviation = -2.259e-05 

   @Spin Contamination Metric:   7.805741228E-04
   @S^2 Expected:                8.750000000E+00
   @S^2 Observed:                8.750780574E+00
   @S   Expected:                2.500000000E+00
   @S   Observed:                2.500000000E+00

    Orbital Energies [Eh]
    ---------------------

    Alpha Occupied:                                                       

       1A1   -31.443179     2A1    -3.859238     3A1    -1.825971  
       1B1    -0.988019     4A1    -0.908861     1B2    -0.878787  
       5A1    -0.044290     2B1     0.068686     2B2     0.074242  
       6A1     0.105205  

    Alpha Virtual:                                                        

       7A1     0.343643     3B1     0.353614     3B2     0.356215  
       8A1     0.409128     4B1     0.649401     1A2     0.655101  
       9A1     0.655126     4B2     0.659920    10A1     0.779209  
       5B1     1.312879     5B2     1.365260    11A1     1.387698  
      12A1     2.496926    13A1     4.305027     2A2     4.320465  
       6B1     4.350119     6B2     4.432263    14A1     4.456021  

    Beta Occupied:                                                        

       1A1   -31.397462     2A1    -3.840568     3A1    -1.709616  
       4A1    -0.861947     1B2    -0.830139  

    Beta Virtual:                                                         

       1B1    -0.619856     5A1     0.116617     2B2     0.217257  
       2B1     0.221682     6A1     0.225037     7A1     0.419171  
       3B1     0.431761     3B2     0.432006     8A1     0.476610  
       4B2     0.757362     4B1     0.761408     1A2     0.779987  
       9A1     0.781208    10A1     0.877297     5B2     1.402946  
      11A1     1.422806     5B1     1.429058    12A1     2.559745  
       2A2     4.439958    13A1     4.449640     6B2     4.457354  
       6B1     4.469473    14A1     4.507399  

    Final Occupation by Irrep:
             A1    A2    B1    B2 
    DOCC [     4,    0,    0,    1 ]
    SOCC [     2,    0,    2,    1 ]
    NA   [     6,    0,    2,    2 ]
    NB   [     4,    0,    0,    1 ]

  @DF-UKS Final Energy:  -142.75553171072170

   => Energetics <=

    Nuclear Repulsion Energy =             13.4391461358172322
    One-Electron Energy =                -225.2540743148337583
    Two-Electron Energy =                  81.3228209978820473
    DFT Exchange-Correlation Energy =     -12.2634245295872155
    Empirical Dispersion Energy =           0.0000000000000000
    VV10 Nonlocal Energy =                  0.0000000000000000
    Total Energy =                       -142.7555317107216979

  UHF NO Occupations:
  HONO-2 :    2 B2 1.0000000
  HONO-1 :    2 B1 1.0000000
  HONO-0 :    6 A1 1.0000000
  LUNO+0 :    7 A1 0.0002787
  LUNO+1 :    3 B2 0.0000613
  LUNO+2 :    8 A1 0.0000501
  LUNO+3 :    9 A1 0.0000003


Computation Completed


Properties will be evaluated at   0.000000,   0.000000,   0.000000 [a0]

Properties computed using the SCF density matrix


 Multipole Moments:

 ------------------------------------------------------------------------------------
     Multipole            Electronic (a.u.)      Nuclear  (a.u.)        Total (a.u.)
 ------------------------------------------------------------------------------------

 L = 1.  Multiply by 2.5417464519 to convert [e a0] to [Debye]
 Dipole X            :          0.0000000            0.0000000            0.0000000
 Dipole Y            :          0.0000000            0.0000000            0.0000000
 Dipole Z            :         -3.2911986           -1.0417792           -4.3329778
 Magnitude           :                                                    4.3329778

 ------------------------------------------------------------------------------------

*** tstop() called on cics-quant-001 at Tue Dec 23 10:46:39 2025
Module time:
	user time   =       0.59 seconds =       0.01 minutes
	system time =       0.03 seconds =       0.00 minutes
	total time  =          0 seconds =       0.00 minutes
Total time:
	user time   =       2.10 seconds =       0.04 minutes
	system time =       0.27 seconds =       0.00 minutes
	total time  =          1 seconds =       0.02 minutes

*** tstart() called on cics-quant-001
*** at Tue Dec 23 10:46:39 2025


         ------------------------------------------------------------
                                   SCF GRAD                          
                          Rob Parrish, Justin Turney,                
                       Andy Simmonett, and Alex Sokolov              
         ------------------------------------------------------------

  ==> Geometry <==

    Molecular point group: c2v
    Full point group: C_inf_v

    Geometry (in Angstrom), charge = -1, multiplicity = 6:

       Center              X                  Y                   Z               Mass       
    ------------   -----------------  -----------------  -----------------  -----------------
         BE           0.000000000000     0.000000000000     1.085645469322     9.012183065000
         NE           0.000000000000     0.000000000000    -0.489386769548    19.992440176200

  Nuclear repulsion =   13.439146135817232

  ==> Basis Set <==

  Basis Set: CC-PVDZ
    Blend: CC-PVDZ
    Number of shells: 12
    Number of basis functions: 28
    Number of Cartesian functions: 30
    Spherical Harmonics?: true
    Max angular momentum: 2

  ==> DFJKGrad: Density-Fitted SCF Gradients <==

    Gradient:                    1
    J tasked:                  Yes
    K tasked:                  Yes
    wK tasked:                  No
    OpenMP threads:              6
    Integrals threads:           6
    Memory [MiB]:             5722
    Schwarz Cutoff:          1E-12
    Fitting Condition:       1E-10

   => Auxiliary Basis Set <=

  Basis Set: (CC-PVDZ AUX)
    Blend: CC-PVDZ-JKFIT + DEF2-UNIVERSAL-JKFIT
    Number of shells: 41
    Number of basis functions: 121
    Number of Cartesian functions: 141
    Spherical Harmonics?: true
    Max angular momentum: 3

  ==> DFT Potential <==

   => LibXC <=

    Version 7.0.0
    S. Lehtola, C. Steigemann, M. J.T. Oliveira, and M. A.L. Marques.,  SoftwareX 7, 1–5 (2018) (10.1016/j.softx.2017.11.002)

   => Composite Functional: B3LYP <= 

    B3LYP Hyb-GGA Exchange-Correlation Functional

    P. J. Stephens, F. J. Devlin, C. F. Chabalowski, and M. J. Frisch.,  J. Phys. Chem. 98, 11623 (1994) (10.1021/j100096a001)

    Deriv               =              1
    GGA                 =           TRUE
    Meta                =          FALSE

    Exchange Hybrid     =           TRUE
    MP2 Hybrid          =          FALSE

   => Exchange Functionals <=

    0.0800   Slater exchange
    0.7200         Becke 88

   => Exact (HF) Exchange <=

    0.2000               HF 

   => Correlation Functionals <=

    0.1900   Vosko, Wilk & Nusair (VWN5_RPA)
    0.8100   Lee, Yang & Parr

   => LibXC Density Thresholds  <==

    XC_HYB_GGA_XC_B3LYP:  1.00E-15 

   => Molecular Quadrature <=

    Radial Scheme          =       TREUTLER
    Pruning Scheme         =           NONE
    Nuclear Scheme         =       TREUTLER

    Blocking Scheme        =         OCTREE
    BS radius alpha        =              1
    Pruning alpha          =              1
    Radial Points          =             75
    Spherical Points       =            302
    Total Points           =          43547
    Total Blocks           =            402
    Max Points             =            255
    Max Functions          =             28
    Weights Tolerance      =       1.00E-15


  -Total Gradient:
     Atom            X                  Y                   Z
    ------   -----------------  -----------------  -----------------
       1       -0.000000000000     0.000000000000    -0.141357620957
       2        0.000000000000     0.000000000000     0.141457721928


*** tstop() called on cics-quant-001 at Tue Dec 23 10:46:39 2025
Module time:
	user time   =       0.12 seconds =       0.00 minutes
	system time =       0.06 seconds =       0.00 minutes
	total time  =          0 seconds =       0.00 minutes
Total time:
	user time   =       2.22 seconds =       0.04 minutes
	system time =       0.33 seconds =       0.01 minutes
	total time  =          1 seconds =       0.02 minutes

    			-----------------------------------------

    			 OPTKING 3.0: for geometry optimizations 

    			     By R.A. King, Bethel University     

    			        with contributions from          

    			    A.V. Copan, J. Cayton, A. Heide      

    			-----------------------------------------

    
	                            ===> Fragment 1 <== 

	 Z (Atomic Numbers)          Masses                          Geom                  
	       4.000000             9.012183          0.00000000  0.00000000  2.05157261   
	      10.000000            19.992440          0.00000000  0.00000000 -0.92480696   

	 - Coordinate -           - BOHR/RAD -       - ANG/DEG -
	 R(1,2)           =         2.976380           1.575032


	        --- Internal Coordinate Step in ANG or DEG, aJ/ANG or AJ/DEG ---
	-------------------------------------------------------------------------------
	           Coordinate      Previous         Force          Change          New 
	           ----------      --------        ------          ------        ------
	               R(1,2)       1.57503        1.16502        0.21126       1.78629
	-------------------------------------------------------------------------------

	                                 ==> Convergence Check <==                                  
    
	Measures of convergence in internal coordinates in au.
    
	Criteria marked as inactive (o), active & met (*), and active & unmet ( ).

	----------------------------------------------------------------------------------------------
	   Step    Total Energy     Delta E     Max Force     RMS Force      Max Disp      RMS Disp   
	----------------------------------------------------------------------------------------------
	  Convergence Criteria     1.00e-06 *    3.00e-04 *             o    1.20e-03 *             o
	----------------------------------------------------------------------------------------------
	     3    -142.75553171   -5.35e-02      1.41e-01      1.41e-01 o    3.99e-01      3.99e-01 o  ~
	----------------------------------------------------------------------------------------------

Next Geometry in Ang 
	Fragment 1 (Ang)

	   Be   0.0000000000   0.0000000000   1.1912743733
	   Ne   0.0000000000   0.0000000000  -0.5950156735


    Structure for next step:
    Molecular point group: c2v
    Full point group: C_inf_v

    Geometry (in Angstrom), charge = -1, multiplicity = 6:

    BE           0.000000000000     0.000000000000     1.231262223269
    NE           0.000000000000     0.000000000000    -0.555027823483


Scratch directory: /tmp/
gradient() will perform analytic gradient computation.
   => Libint2 <=

    Primary   basis highest AM E, G, H:  6, 6, 3
    Auxiliary basis highest AM E, G, H:  7, 7, 4
    Onebody   basis highest AM E, G, H:  -, -, -
    Solid Harmonics ordering:            Gaussian

*** tstart() called on cics-quant-001
*** at Tue Dec 23 10:46:39 2025

   => Loading Basis Set <=

    Name: CC-PVDZ
    Role: ORBITAL
    Keyword: BASIS
    atoms 1 entry BE         line    75 file /home/jrodriguesro/psi4conda/share/psi4/basis/cc-pvdz.gbs 
    atoms 2 entry NE         line   258 file /home/jrodriguesro/psi4conda/share/psi4/basis/cc-pvdz.gbs 


         ---------------------------------------------------------
                                   SCF
               by Justin Turney, Rob Parrish, Andy Simmonett
                          and Daniel G. A. Smith
                              UKS Reference
                        6 Threads,   7629 MiB Core
         ---------------------------------------------------------

  ==> Geometry <==

    Molecular point group: c2v
    Full point group: C_inf_v

    Geometry (in Angstrom), charge = -1, multiplicity = 6:

       Center              X                  Y                   Z               Mass       
    ------------   -----------------  -----------------  -----------------  -----------------
         BE           0.000000000000     0.000000000000     1.231262223269     9.012183065000
         NE           0.000000000000     0.000000000000    -0.555027823483    19.992440176200

  Running in c2v symmetry.

  Rotational constants: A = ************  B =      0.85048  C =      0.85048 [cm^-1]
  Rotational constants: A = ************  B =  25496.74034  C =  25496.74034 [MHz]
  Nuclear repulsion =   11.849748849739422

  Charge       = -1
  Multiplicity = 6
  Electrons    = 15
  Nalpha       = 10
  Nbeta        = 5

  ==> Algorithm <==

  SCF Algorithm Type is DF.
  DIIS enabled.
  MOM disabled.
  Fractional occupation disabled.
  Guess Type is READ.
  Energy threshold   = 1.00e-08
  Density threshold  = 1.00e-08
  Integral threshold = 1.00e-12

  ==> Primary Basis <==

  Basis Set: CC-PVDZ
    Blend: CC-PVDZ
    Number of shells: 12
    Number of basis functions: 28
    Number of Cartesian functions: 30
    Spherical Harmonics?: true
    Max angular momentum: 2

  ==> DFT Potential <==

   => LibXC <=

    Version 7.0.0
    S. Lehtola, C. Steigemann, M. J.T. Oliveira, and M. A.L. Marques.,  SoftwareX 7, 1–5 (2018) (10.1016/j.softx.2017.11.002)

   => Composite Functional: B3LYP <= 

    B3LYP Hyb-GGA Exchange-Correlation Functional

    P. J. Stephens, F. J. Devlin, C. F. Chabalowski, and M. J. Frisch.,  J. Phys. Chem. 98, 11623 (1994) (10.1021/j100096a001)

    Deriv               =              1
    GGA                 =           TRUE
    Meta                =          FALSE

    Exchange Hybrid     =           TRUE
    MP2 Hybrid          =          FALSE

   => Exchange Functionals <=

    0.0800   Slater exchange
    0.7200         Becke 88

   => Exact (HF) Exchange <=

    0.2000               HF 

   => Correlation Functionals <=

    0.1900   Vosko, Wilk & Nusair (VWN5_RPA)
    0.8100   Lee, Yang & Parr

   => LibXC Density Thresholds  <==

    XC_HYB_GGA_XC_B3LYP:  1.00E-15 

   => Molecular Quadrature <=

    Radial Scheme          =       TREUTLER
    Pruning Scheme         =           NONE
    Nuclear Scheme         =       TREUTLER

    Blocking Scheme        =         OCTREE
    BS radius alpha        =              1
    Pruning alpha          =              1
    Radial Points          =             75
    Spherical Points       =            302
    Total Points           =          43570
    Total Blocks           =            400
    Max Points             =            256
    Max Functions          =             28
    Weights Tolerance      =       1.00E-15

   => Loading Basis Set <=

    Name: (CC-PVDZ AUX)
    Role: JKFIT
    Keyword: DF_BASIS_SCF
    atoms 1 entry BE         line    96 file /home/jrodriguesro/psi4conda/share/psi4/basis/def2-universal-jkfit.gbs 
    atoms 2 entry NE         line   321 file /home/jrodriguesro/psi4conda/share/psi4/basis/cc-pvdz-jkfit.gbs 

   => Loading Basis Set <=

    Name: CC-PVDZ
    Role: ORBITAL
    Keyword: BASIS
    atoms 1 entry BE         line    75 file /home/jrodriguesro/psi4conda/share/psi4/basis/cc-pvdz.gbs 
    atoms 2 entry NE         line   258 file /home/jrodriguesro/psi4conda/share/psi4/basis/cc-pvdz.gbs 

  Reading orbitals from file /tmp/sextet_BeNe.default.348453.180.npy, no projection.

  ==> Integral Setup <==

  DFHelper Memory: AOs need 0.001 GiB; user supplied 5.555 GiB. 
  SCF_SUBTYPE=INCORE selected. In-core MEM_DF algorithm will be used.
  Using in-core AOs.

  ==> MemDFJK: Density-Fitted J/K Matrices <==

    J tasked:                   Yes
    K tasked:                   Yes
    wK tasked:                   No
    OpenMP threads:               6
    Memory [MiB]:              5688
    Algorithm:                 Core
    Schwarz Cutoff:           1E-12
    Mask sparsity (%):       0.0000
    Fitting Condition:        1E-10

   => Auxiliary Basis Set <=

  Basis Set: (CC-PVDZ AUX)
    Blend: CC-PVDZ-JKFIT + DEF2-UNIVERSAL-JKFIT
    Number of shells: 41
    Number of basis functions: 121
    Number of Cartesian functions: 141
    Spherical Harmonics?: true
    Max angular momentum: 3

  Cached 100.0% of DFT collocation blocks in 0.033 [GiB].

  Minimum eigenvalue in the overlap matrix is 3.4310730145E-02.
  Reciprocal condition number of the overlap matrix is 1.2996166755E-02.
    Using symmetric orthogonalization.

  ==> Pre-Iterations <==

  SCF Guess: Orbitals guess was supplied from a previous computation.

   -------------------------------------------------------
    Irrep   Nso     Nmo     Nalpha   Nbeta   Ndocc  Nsocc
   -------------------------------------------------------
     A1        14      14       6       4       4       2
     A2         2       2       0       0       0       0
     B1         6       6       2       0       0       2
     B2         6       6       2       1       1       1
   -------------------------------------------------------
    Total      28      28      10       5       5       5
   -------------------------------------------------------

  ==> Iterations <==

                           Total Energy        Delta E     RMS |[F,P]|

   @DF-UKS iter   0:  -142.79343921165625   -1.42793e+02   1.64944e-02 
   @DF-UKS iter   1:  -142.79725767540253   -3.81846e-03   1.44568e-03 DIIS/ADIIS
   @DF-UKS iter   2:  -142.79778698651637   -5.29311e-04   1.08736e-03 DIIS/ADIIS/DAMP=1%
   @DF-UKS iter   3:  -142.79870450562515   -9.17519e-04   8.55965e-05 DIIS/DAMP=1%
   @DF-UKS iter   4:  -142.79810525773314    5.99248e-04   3.39631e-05 DIIS/DAMP=1%
   @DF-UKS iter   5:  -142.79808124843953    2.40093e-05   6.90048e-06 DIIS/DAMP=1%
   @DF-UKS iter   6:  -142.79807703377588    4.21466e-06   6.52246e-07 DIIS/DAMP=1%
   @DF-UKS iter   7:  -142.79807687820028    1.55576e-07   7.82394e-08 DIIS/DAMP=1%
   @DF-UKS iter   8:  -142.79807683225073    4.59495e-08   7.53914e-09 DIIS/DAMP=1%
   @DF-UKS iter   9:  -142.79807685533518   -2.30845e-08   1.41201e-09 DIIS/DAMP=1%
   @DF-UKS iter  10:  -142.79807685150840    3.82678e-09   1.95317e-10 DIIS/DAMP=1%
  Energy and wave function converged.


  ==> Post-Iterations <==

   Electrons on quadrature grid:
      Nalpha   =    9.9999977777 ; deviation = -2.222e-06
      Nbeta    =    4.9999999025 ; deviation = -9.751e-08
      Ntotal   =   14.9999976802 ; deviation = -2.320e-06 

   @Spin Contamination Metric:   7.633981210E-04
   @S^2 Expected:                8.750000000E+00
   @S^2 Observed:                8.750763398E+00
   @S   Expected:                2.500000000E+00
   @S   Observed:                2.500000000E+00

    Orbital Energies [Eh]
    ---------------------

    Alpha Occupied:                                                       

       1A1   -31.428158     2A1    -3.831176     3A1    -1.806149  
       1B1    -0.972738     4A1    -0.882230     1B2    -0.863414  
       5A1    -0.045152     2B1     0.081749     2B2     0.085751  
       6A1     0.107418  

    Alpha Virtual:                                                        

       7A1     0.320587     3B1     0.372793     3B2     0.374520  
       8A1     0.413599     4B1     0.648294     4B2     0.657101  
       1A2     0.676375     9A1     0.676386    10A1     0.760689  
       5B1     1.265691     5B2     1.318856    11A1     1.360279  
      12A1     2.263404    13A1     4.312938     2A2     4.330990  
       6B1     4.349290     6B2     4.431731    14A1     4.449635  

    Beta Occupied:                                                        

       1A1   -31.383337     2A1    -3.812655     3A1    -1.690937  
       4A1    -0.835509     1B2    -0.816849  

    Beta Virtual:                                                         

       1B1    -0.606627     5A1     0.116101     2B2     0.226824  
       2B1     0.230368     6A1     0.232944     7A1     0.393223  
       3B2     0.450395     3B1     0.450563     8A1     0.484107  
       4B2     0.757016     4B1     0.760650     1A2     0.801523  
       9A1     0.801951    10A1     0.863905     5B2     1.354487  
       5B1     1.381895    11A1     1.392145    12A1     2.326841  
       2A2     4.449367     6B2     4.455733    13A1     4.456682  
       6B1     4.467866    14A1     4.499177  

    Final Occupation by Irrep:
             A1    A2    B1    B2 
    DOCC [     4,    0,    0,    1 ]
    SOCC [     2,    0,    2,    1 ]
    NA   [     6,    0,    2,    2 ]
    NB   [     4,    0,    0,    1 ]

  @DF-UKS Final Energy:  -142.79807685150840

   => Energetics <=

    Nuclear Repulsion Energy =             11.8497488497394219
    One-Electron Energy =                -222.4175443076982219
    Two-Electron Energy =                  80.0186036590011867
    DFT Exchange-Correlation Energy =     -12.2488850525508113
    Empirical Dispersion Energy =           0.0000000000000000
    VV10 Nonlocal Energy =                  0.0000000000000000
    Total Energy =                       -142.7980768515084264

  UHF NO Occupations:
  HONO-2 :    5 A1 1.0000000
  HONO-1 :    6 A1 1.0000000
  HONO-0 :    2 B2 1.0000000
  LUNO+0 :    7 A1 0.0002708
  LUNO+1 :    3 B2 0.0000592
  LUNO+2 :    8 A1 0.0000516
  LUNO+3 :    9 A1 0.0000002


Computation Completed


Properties will be evaluated at   0.000000,   0.000000,   0.000000 [a0]

Properties computed using the SCF density matrix


 Multipole Moments:

 ------------------------------------------------------------------------------------
     Multipole            Electronic (a.u.)      Nuclear  (a.u.)        Total (a.u.)
 ------------------------------------------------------------------------------------

 L = 1.  Multiply by 2.5417464519 to convert [e a0] to [Debye]
 Dipole X            :          0.0000000            0.0000000            0.0000000
 Dipole Y            :          0.0000000            0.0000000            0.0000000
 Dipole Z            :         -3.9581832           -1.1815122           -5.1396954
 Magnitude           :                                                    5.1396954

 ------------------------------------------------------------------------------------

*** tstop() called on cics-quant-001 at Tue Dec 23 10:46:39 2025
Module time:
	user time   =       0.71 seconds =       0.01 minutes
	system time =       0.02 seconds =       0.00 minutes
	total time  =          0 seconds =       0.00 minutes
Total time:
	user time   =       2.95 seconds =       0.05 minutes
	system time =       0.35 seconds =       0.01 minutes
	total time  =          1 seconds =       0.02 minutes

*** tstart() called on cics-quant-001
*** at Tue Dec 23 10:46:39 2025


         ------------------------------------------------------------
                                   SCF GRAD                          
                          Rob Parrish, Justin Turney,                
                       Andy Simmonett, and Alex Sokolov              
         ------------------------------------------------------------

  ==> Geometry <==

    Molecular point group: c2v
    Full point group: C_inf_v

    Geometry (in Angstrom), charge = -1, multiplicity = 6:

       Center              X                  Y                   Z               Mass       
    ------------   -----------------  -----------------  -----------------  -----------------
         BE           0.000000000000     0.000000000000     1.231262223269     9.012183065000
         NE           0.000000000000     0.000000000000    -0.555027823483    19.992440176200

  Nuclear repulsion =   11.849748849739422

  ==> Basis Set <==

  Basis Set: CC-PVDZ
    Blend: CC-PVDZ
    Number of shells: 12
    Number of basis functions: 28
    Number of Cartesian functions: 30
    Spherical Harmonics?: true
    Max angular momentum: 2

  ==> DFJKGrad: Density-Fitted SCF Gradients <==

    Gradient:                    1
    J tasked:                  Yes
    K tasked:                  Yes
    wK tasked:                  No
    OpenMP threads:              6
    Integrals threads:           6
    Memory [MiB]:             5722
    Schwarz Cutoff:          1E-12
    Fitting Condition:       1E-10

   => Auxiliary Basis Set <=

  Basis Set: (CC-PVDZ AUX)
    Blend: CC-PVDZ-JKFIT + DEF2-UNIVERSAL-JKFIT
    Number of shells: 41
    Number of basis functions: 121
    Number of Cartesian functions: 141
    Spherical Harmonics?: true
    Max angular momentum: 3

  ==> DFT Potential <==

   => LibXC <=

    Version 7.0.0
    S. Lehtola, C. Steigemann, M. J.T. Oliveira, and M. A.L. Marques.,  SoftwareX 7, 1–5 (2018) (10.1016/j.softx.2017.11.002)

   => Composite Functional: B3LYP <= 

    B3LYP Hyb-GGA Exchange-Correlation Functional

    P. J. Stephens, F. J. Devlin, C. F. Chabalowski, and M. J. Frisch.,  J. Phys. Chem. 98, 11623 (1994) (10.1021/j100096a001)

    Deriv               =              1
    GGA                 =           TRUE
    Meta                =          FALSE

    Exchange Hybrid     =           TRUE
    MP2 Hybrid          =          FALSE

   => Exchange Functionals <=

    0.0800   Slater exchange
    0.7200         Becke 88

   => Exact (HF) Exchange <=

    0.2000               HF 

   => Correlation Functionals <=

    0.1900   Vosko, Wilk & Nusair (VWN5_RPA)
    0.8100   Lee, Yang & Parr

   => LibXC Density Thresholds  <==

    XC_HYB_GGA_XC_B3LYP:  1.00E-15 

   => Molecular Quadrature <=

    Radial Scheme          =       TREUTLER
    Pruning Scheme         =           NONE
    Nuclear Scheme         =       TREUTLER

    Blocking Scheme        =         OCTREE
    BS radius alpha        =              1
    Pruning alpha          =              1
    Radial Points          =             75
    Spherical Points       =            302
    Total Points           =          43570
    Total Blocks           =            400
    Max Points             =            256
    Max Functions          =             28
    Weights Tolerance      =       1.00E-15


  -Total Gradient:
     Atom            X                  Y                   Z
    ------   -----------------  -----------------  -----------------
       1        0.000000000000     0.000000000000    -0.077917342026
       2        0.000000000000     0.000000000000     0.077932616632


*** tstop() called on cics-quant-001 at Tue Dec 23 10:46:40 2025
Module time:
	user time   =       0.13 seconds =       0.00 minutes
	system time =       0.06 seconds =       0.00 minutes
	total time  =          1 seconds =       0.02 minutes
Total time:
	user time   =       3.08 seconds =       0.05 minutes
	system time =       0.41 seconds =       0.01 minutes
	total time  =          2 seconds =       0.03 minutes

    			-----------------------------------------

    			 OPTKING 3.0: for geometry optimizations 

    			     By R.A. King, Bethel University     

    			        with contributions from          

    			    A.V. Copan, J. Cayton, A. Heide      

    			-----------------------------------------

    
	                            ===> Fragment 1 <== 

	 Z (Atomic Numbers)          Masses                          Geom                  
	       4.000000             9.012183          0.00000000  0.00000000  2.32674839   
	      10.000000            19.992440          0.00000000  0.00000000 -1.04885058   

	 - Coordinate -           - BOHR/RAD -       - ANG/DEG -
	 R(1,2)           =         3.375599           1.786290


	        --- Internal Coordinate Step in ANG or DEG, aJ/ANG or AJ/DEG ---
	-------------------------------------------------------------------------------
	           Coordinate      Previous         Force          Change          New 
	           ----------      --------        ------          ------        ------
	               R(1,2)       1.78629        0.64200        0.21608       2.00237
	-------------------------------------------------------------------------------

	                                 ==> Convergence Check <==                                  
    
	Measures of convergence in internal coordinates in au.
    
	Criteria marked as inactive (o), active & met (*), and active & unmet ( ).

	----------------------------------------------------------------------------------------------
	   Step    Total Energy     Delta E     Max Force     RMS Force      Max Disp      RMS Disp   
	----------------------------------------------------------------------------------------------
	  Convergence Criteria     1.00e-06 *    3.00e-04 *             o    1.20e-03 *             o
	----------------------------------------------------------------------------------------------
	     4    -142.79807685   -4.25e-02      7.79e-02      7.79e-02 o    4.08e-01      4.08e-01 o  ~
	----------------------------------------------------------------------------------------------

Next Geometry in Ang 
	Fragment 1 (Ang)

	   Be   0.0000000000   0.0000000000   1.3393026990
	   Ne   0.0000000000   0.0000000000  -0.6630682992


    Structure for next step:
    Molecular point group: c2v
    Full point group: C_inf_v

    Geometry (in Angstrom), charge = -1, multiplicity = 6:

    BE           0.000000000000     0.000000000000     1.380203495836
    NE           0.000000000000     0.000000000000    -0.622167502406


Scratch directory: /tmp/
gradient() will perform analytic gradient computation.
   => Libint2 <=

    Primary   basis highest AM E, G, H:  6, 6, 3
    Auxiliary basis highest AM E, G, H:  7, 7, 4
    Onebody   basis highest AM E, G, H:  -, -, -
    Solid Harmonics ordering:            Gaussian

*** tstart() called on cics-quant-001
*** at Tue Dec 23 10:46:40 2025

   => Loading Basis Set <=

    Name: CC-PVDZ
    Role: ORBITAL
    Keyword: BASIS
    atoms 1 entry BE         line    75 file /home/jrodriguesro/psi4conda/share/psi4/basis/cc-pvdz.gbs 
    atoms 2 entry NE         line   258 file /home/jrodriguesro/psi4conda/share/psi4/basis/cc-pvdz.gbs 


         ---------------------------------------------------------
                                   SCF
               by Justin Turney, Rob Parrish, Andy Simmonett
                          and Daniel G. A. Smith
                              UKS Reference
                        6 Threads,   7629 MiB Core
         ---------------------------------------------------------

  ==> Geometry <==

    Molecular point group: c2v
    Full point group: C_inf_v

    Geometry (in Angstrom), charge = -1, multiplicity = 6:

       Center              X                  Y                   Z               Mass       
    ------------   -----------------  -----------------  -----------------  -----------------
         BE           0.000000000000     0.000000000000     1.380203495836     9.012183065000
         NE           0.000000000000     0.000000000000    -0.622167502406    19.992440176200

  Running in c2v symmetry.

  Rotational constants: A = ************  B =      0.67683  C =      0.67683 [cm^-1]
  Rotational constants: A = ************  B =  20290.81657  C =  20290.81657 [MHz]
  Nuclear repulsion =   10.571012287624939

  Charge       = -1
  Multiplicity = 6
  Electrons    = 15
  Nalpha       = 10
  Nbeta        = 5

  ==> Algorithm <==

  SCF Algorithm Type is DF.
  DIIS enabled.
  MOM disabled.
  Fractional occupation disabled.
  Guess Type is READ.
  Energy threshold   = 1.00e-08
  Density threshold  = 1.00e-08
  Integral threshold = 1.00e-12

  ==> Primary Basis <==

  Basis Set: CC-PVDZ
    Blend: CC-PVDZ
    Number of shells: 12
    Number of basis functions: 28
    Number of Cartesian functions: 30
    Spherical Harmonics?: true
    Max angular momentum: 2

  ==> DFT Potential <==

   => LibXC <=

    Version 7.0.0
    S. Lehtola, C. Steigemann, M. J.T. Oliveira, and M. A.L. Marques.,  SoftwareX 7, 1–5 (2018) (10.1016/j.softx.2017.11.002)

   => Composite Functional: B3LYP <= 

    B3LYP Hyb-GGA Exchange-Correlation Functional

    P. J. Stephens, F. J. Devlin, C. F. Chabalowski, and M. J. Frisch.,  J. Phys. Chem. 98, 11623 (1994) (10.1021/j100096a001)

    Deriv               =              1
    GGA                 =           TRUE
    Meta                =          FALSE

    Exchange Hybrid     =           TRUE
    MP2 Hybrid          =          FALSE

   => Exchange Functionals <=

    0.0800   Slater exchange
    0.7200         Becke 88

   => Exact (HF) Exchange <=

    0.2000               HF 

   => Correlation Functionals <=

    0.1900   Vosko, Wilk & Nusair (VWN5_RPA)
    0.8100   Lee, Yang & Parr

   => LibXC Density Thresholds  <==

    XC_HYB_GGA_XC_B3LYP:  1.00E-15 

   => Molecular Quadrature <=

    Radial Scheme          =       TREUTLER
    Pruning Scheme         =           NONE
    Nuclear Scheme         =       TREUTLER

    Blocking Scheme        =         OCTREE
    BS radius alpha        =              1
    Pruning alpha          =              1
    Radial Points          =             75
    Spherical Points       =            302
    Total Points           =          43598
    Total Blocks           =            399
    Max Points             =            256
    Max Functions          =             28
    Weights Tolerance      =       1.00E-15

   => Loading Basis Set <=

    Name: (CC-PVDZ AUX)
    Role: JKFIT
    Keyword: DF_BASIS_SCF
    atoms 1 entry BE         line    96 file /home/jrodriguesro/psi4conda/share/psi4/basis/def2-universal-jkfit.gbs 
    atoms 2 entry NE         line   321 file /home/jrodriguesro/psi4conda/share/psi4/basis/cc-pvdz-jkfit.gbs 

   => Loading Basis Set <=

    Name: CC-PVDZ
    Role: ORBITAL
    Keyword: BASIS
    atoms 1 entry BE         line    75 file /home/jrodriguesro/psi4conda/share/psi4/basis/cc-pvdz.gbs 
    atoms 2 entry NE         line   258 file /home/jrodriguesro/psi4conda/share/psi4/basis/cc-pvdz.gbs 

  Reading orbitals from file /tmp/sextet_BeNe.default.348453.180.npy, no projection.

  ==> Integral Setup <==

  DFHelper Memory: AOs need 0.001 GiB; user supplied 5.555 GiB. 
  SCF_SUBTYPE=INCORE selected. In-core MEM_DF algorithm will be used.
  Using in-core AOs.

  ==> MemDFJK: Density-Fitted J/K Matrices <==

    J tasked:                   Yes
    K tasked:                   Yes
    wK tasked:                   No
    OpenMP threads:               6
    Memory [MiB]:              5688
    Algorithm:                 Core
    Schwarz Cutoff:           1E-12
    Mask sparsity (%):       0.0000
    Fitting Condition:        1E-10

   => Auxiliary Basis Set <=

  Basis Set: (CC-PVDZ AUX)
    Blend: CC-PVDZ-JKFIT + DEF2-UNIVERSAL-JKFIT
    Number of shells: 41
    Number of basis functions: 121
    Number of Cartesian functions: 141
    Spherical Harmonics?: true
    Max angular momentum: 3

  Cached 100.0% of DFT collocation blocks in 0.033 [GiB].

  Minimum eigenvalue in the overlap matrix is 3.6751158951E-02.
  Reciprocal condition number of the overlap matrix is 1.4518460900E-02.
    Using symmetric orthogonalization.

  ==> Pre-Iterations <==

  SCF Guess: Orbitals guess was supplied from a previous computation.

   -------------------------------------------------------
    Irrep   Nso     Nmo     Nalpha   Nbeta   Ndocc  Nsocc
   -------------------------------------------------------
     A1        14      14       6       4       4       2
     A2         2       2       0       0       0       0
     B1         6       6       2       0       0       2
     B2         6       6       2       1       1       1
   -------------------------------------------------------
    Total      28      28      10       5       5       5
   -------------------------------------------------------

  ==> Iterations <==

                           Total Energy        Delta E     RMS |[F,P]|

   @DF-UKS iter   0:  -142.81574033150400   -1.42816e+02   1.67002e-02 
   @DF-UKS iter   1:  -142.82048650108706   -4.74617e-03   1.33438e-03 DIIS/ADIIS
   @DF-UKS iter   2:  -142.82092152641951   -4.35025e-04   9.22221e-04 DIIS/ADIIS/DAMP=1%
   @DF-UKS iter   3:  -142.82168040640730   -7.58880e-04   6.22263e-05 DIIS/DAMP=1%
   @DF-UKS iter   4:  -142.82116375932378    5.16647e-04   2.61382e-05 DIIS/DAMP=1%
   @DF-UKS iter   5:  -142.82115867662569    5.08270e-06   4.82745e-06 DIIS/DAMP=1%
   @DF-UKS iter   6:  -142.82115363105544    5.04557e-06   5.69053e-07 DIIS/DAMP=1%
   @DF-UKS iter   7:  -142.82115287749207    7.53563e-07   7.40265e-08 DIIS/DAMP=1%
   @DF-UKS iter   8:  -142.82115299172546   -1.14233e-07   7.86568e-09 DIIS/DAMP=1%
   @DF-UKS iter   9:  -142.82115298656882    5.15664e-09   1.13430e-09 DIIS/DAMP=1%
  Energy and wave function converged.


  ==> Post-Iterations <==

   Electrons on quadrature grid:
      Nalpha   =   10.0000143256 ; deviation = 1.433e-05
      Nbeta    =    5.0000068435 ; deviation = 6.844e-06
      Ntotal   =   15.0000211691 ; deviation = 2.117e-05 

   @Spin Contamination Metric:   7.531374788E-04
   @S^2 Expected:                8.750000000E+00
   @S^2 Observed:                8.750753137E+00
   @S   Expected:                2.500000000E+00
   @S   Observed:                2.500000000E+00

    Orbital Energies [Eh]
    ---------------------

    Alpha Occupied:                                                       

       1A1   -31.426948     2A1    -3.811977     3A1    -1.802574  
       1B1    -0.971790     4A1    -0.872473     1B2    -0.862368  
       5A1    -0.044436     2B1     0.094260     2B2     0.097109  
       6A1     0.109047  

    Alpha Virtual:                                                        

       7A1     0.317374     3B1     0.389796     3B2     0.390956  
       8A1     0.420090     4B1     0.654532     4B2     0.661530  
       1A2     0.694042     9A1     0.694047    10A1     0.742364  
       5B1     1.219058     5B2     1.273010    11A1     1.317760  
      12A1     2.098425    13A1     4.309117     2A2     4.329342  
       6B1     4.338845     6B2     4.421518    14A1     4.436742  

    Beta Occupied:                                                        

       1A1   -31.383117     2A1    -3.794060     3A1    -1.688878  
       4A1    -0.826563     1B2    -0.817649  

    Beta Virtual:                                                         

       1B1    -0.607371     5A1     0.118106     2B2     0.236858  
       2B1     0.239186     6A1     0.239729     7A1     0.391428  
       3B2     0.465732     3B1     0.465918     8A1     0.491805  
       4B2     0.766010     4B1     0.768953     1A2     0.818409  
       9A1     0.818505    10A1     0.846926     5B2     1.305953  
       5B1     1.334618    11A1     1.347223    12A1     2.162295  
       6B2     4.444378     2A2     4.446662    13A1     4.450996  
       6B1     4.456485    14A1     4.485794  

    Final Occupation by Irrep:
             A1    A2    B1    B2 
    DOCC [     4,    0,    0,    1 ]
    SOCC [     2,    0,    2,    1 ]
    NA   [     6,    0,    2,    2 ]
    NB   [     4,    0,    0,    1 ]

  @DF-UKS Final Energy:  -142.82115298656882

   => Energetics <=

    Nuclear Repulsion Energy =             10.5710122876249386
    One-Electron Energy =                -220.0060499277110466
    Two-Electron Energy =                  78.8506379427735169
    DFT Exchange-Correlation Energy =     -12.2367532892562352
    Empirical Dispersion Energy =           0.0000000000000000
    VV10 Nonlocal Energy =                  0.0000000000000000
    Total Energy =                       -142.8211529865688192

  UHF NO Occupations:
  HONO-2 :    2 B2 1.0000000
  HONO-1 :    2 B1 1.0000000
  HONO-0 :    6 A1 1.0000000
  LUNO+0 :    7 A1 0.0002667
  LUNO+1 :    3 B2 0.0000570
  LUNO+2 :    8 A1 0.0000528
  LUNO+3 :    9 A1 0.0000001


Computation Completed


Properties will be evaluated at   0.000000,   0.000000,   0.000000 [a0]

Properties computed using the SCF density matrix


 Multipole Moments:

 ------------------------------------------------------------------------------------
     Multipole            Electronic (a.u.)      Nuclear  (a.u.)        Total (a.u.)
 ------------------------------------------------------------------------------------

 L = 1.  Multiply by 2.5417464519 to convert [e a0] to [Debye]
 Dipole X            :          0.0000000            0.0000000            0.0000000
 Dipole Y            :          0.0000000            0.0000000            0.0000000
 Dipole Z            :         -4.5969479           -1.3244354           -5.9213833
 Magnitude           :                                                    5.9213833

 ------------------------------------------------------------------------------------

*** tstop() called on cics-quant-001 at Tue Dec 23 10:46:40 2025
Module time:
	user time   =       0.60 seconds =       0.01 minutes
	system time =       0.03 seconds =       0.00 minutes
	total time  =          0 seconds =       0.00 minutes
Total time:
	user time   =       3.70 seconds =       0.06 minutes
	system time =       0.44 seconds =       0.01 minutes
	total time  =          2 seconds =       0.03 minutes

*** tstart() called on cics-quant-001
*** at Tue Dec 23 10:46:40 2025


         ------------------------------------------------------------
                                   SCF GRAD                          
                          Rob Parrish, Justin Turney,                
                       Andy Simmonett, and Alex Sokolov              
         ------------------------------------------------------------

  ==> Geometry <==

    Molecular point group: c2v
    Full point group: C_inf_v

    Geometry (in Angstrom), charge = -1, multiplicity = 6:

       Center              X                  Y                   Z               Mass       
    ------------   -----------------  -----------------  -----------------  -----------------
         BE           0.000000000000     0.000000000000     1.380203495836     9.012183065000
         NE           0.000000000000     0.000000000000    -0.622167502406    19.992440176200

  Nuclear repulsion =   10.571012287624939

  ==> Basis Set <==

  Basis Set: CC-PVDZ
    Blend: CC-PVDZ
    Number of shells: 12
    Number of basis functions: 28
    Number of Cartesian functions: 30
    Spherical Harmonics?: true
    Max angular momentum: 2

  ==> DFJKGrad: Density-Fitted SCF Gradients <==

    Gradient:                    1
    J tasked:                  Yes
    K tasked:                  Yes
    wK tasked:                  No
    OpenMP threads:              6
    Integrals threads:           6
    Memory [MiB]:             5722
    Schwarz Cutoff:          1E-12
    Fitting Condition:       1E-10

   => Auxiliary Basis Set <=

  Basis Set: (CC-PVDZ AUX)
    Blend: CC-PVDZ-JKFIT + DEF2-UNIVERSAL-JKFIT
    Number of shells: 41
    Number of basis functions: 121
    Number of Cartesian functions: 141
    Spherical Harmonics?: true
    Max angular momentum: 3

  ==> DFT Potential <==

   => LibXC <=

    Version 7.0.0
    S. Lehtola, C. Steigemann, M. J.T. Oliveira, and M. A.L. Marques.,  SoftwareX 7, 1–5 (2018) (10.1016/j.softx.2017.11.002)

   => Composite Functional: B3LYP <= 

    B3LYP Hyb-GGA Exchange-Correlation Functional

    P. J. Stephens, F. J. Devlin, C. F. Chabalowski, and M. J. Frisch.,  J. Phys. Chem. 98, 11623 (1994) (10.1021/j100096a001)

    Deriv               =              1
    GGA                 =           TRUE
    Meta                =          FALSE

    Exchange Hybrid     =           TRUE
    MP2 Hybrid          =          FALSE

   => Exchange Functionals <=

    0.0800   Slater exchange
    0.7200         Becke 88

   => Exact (HF) Exchange <=

    0.2000               HF 

   => Correlation Functionals <=

    0.1900   Vosko, Wilk & Nusair (VWN5_RPA)
    0.8100   Lee, Yang & Parr

   => LibXC Density Thresholds  <==

    XC_HYB_GGA_XC_B3LYP:  1.00E-15 

   => Molecular Quadrature <=

    Radial Scheme          =       TREUTLER
    Pruning Scheme         =           NONE
    Nuclear Scheme         =       TREUTLER

    Blocking Scheme        =         OCTREE
    BS radius alpha        =              1
    Pruning alpha          =              1
    Radial Points          =             75
    Spherical Points       =            302
    Total Points           =          43598
    Total Blocks           =            399
    Max Points             =            256
    Max Functions          =             28
    Weights Tolerance      =       1.00E-15


  -Total Gradient:
     Atom            X                  Y                   Z
    ------   -----------------  -----------------  -----------------
       1        0.000000000000     0.000000000000    -0.037617015383
       2        0.000000000000     0.000000000000     0.037546353196


*** tstop() called on cics-quant-001 at Tue Dec 23 10:46:40 2025
Module time:
	user time   =       0.16 seconds =       0.00 minutes
	system time =       0.06 seconds =       0.00 minutes
	total time  =          0 seconds =       0.00 minutes
Total time:
	user time   =       3.86 seconds =       0.06 minutes
	system time =       0.50 seconds =       0.01 minutes
	total time  =          2 seconds =       0.03 minutes

    			-----------------------------------------

    			 OPTKING 3.0: for geometry optimizations 

    			     By R.A. King, Bethel University     

    			        with contributions from          

    			    A.V. Copan, J. Cayton, A. Heide      

    			-----------------------------------------

    
	                            ===> Fragment 1 <== 

	 Z (Atomic Numbers)          Masses                          Geom                  
	       4.000000             9.012183          0.00000000  0.00000000  2.60820660   
	      10.000000            19.992440          0.00000000  0.00000000 -1.17572618   

	 - Coordinate -           - BOHR/RAD -       - ANG/DEG -
	 R(1,2)           =         3.783933           2.002371


	        --- Internal Coordinate Step in ANG or DEG, aJ/ANG or AJ/DEG ---
	-------------------------------------------------------------------------------
	           Coordinate      Previous         Force          Change          New 
	           ----------      --------        ------          ------        ------
	               R(1,2)       2.00237        0.30963        0.17841       2.18078
	-------------------------------------------------------------------------------

	                                 ==> Convergence Check <==                                  
    
	Measures of convergence in internal coordinates in au.
    
	Criteria marked as inactive (o), active & met (*), and active & unmet ( ).

	----------------------------------------------------------------------------------------------
	   Step    Total Energy     Delta E     Max Force     RMS Force      Max Disp      RMS Disp   
	----------------------------------------------------------------------------------------------
	  Convergence Criteria     1.00e-06 *    3.00e-04 *             o    1.20e-03 *             o
	----------------------------------------------------------------------------------------------
	     5    -142.82115299   -2.31e-02      3.76e-02      3.76e-02 o    3.37e-01      3.37e-01 o  ~
	----------------------------------------------------------------------------------------------

Next Geometry in Ang 
	Fragment 1 (Ang)

	   Be   0.0000000000   0.0000000000   1.4694083098
	   Ne   0.0000000000   0.0000000000  -0.7113723164


    Structure for next step:
    Molecular point group: c2v
    Full point group: C_inf_v

    Geometry (in Angstrom), charge = -1, multiplicity = 6:

    BE           0.000000000000     0.000000000000     1.503178505196
    NE           0.000000000000     0.000000000000    -0.677602121042


Scratch directory: /tmp/
gradient() will perform analytic gradient computation.
   => Libint2 <=

    Primary   basis highest AM E, G, H:  6, 6, 3
    Auxiliary basis highest AM E, G, H:  7, 7, 4
    Onebody   basis highest AM E, G, H:  -, -, -
    Solid Harmonics ordering:            Gaussian

*** tstart() called on cics-quant-001
*** at Tue Dec 23 10:46:40 2025

   => Loading Basis Set <=

    Name: CC-PVDZ
    Role: ORBITAL
    Keyword: BASIS
    atoms 1 entry BE         line    75 file /home/jrodriguesro/psi4conda/share/psi4/basis/cc-pvdz.gbs 
    atoms 2 entry NE         line   258 file /home/jrodriguesro/psi4conda/share/psi4/basis/cc-pvdz.gbs 


         ---------------------------------------------------------
                                   SCF
               by Justin Turney, Rob Parrish, Andy Simmonett
                          and Daniel G. A. Smith
                              UKS Reference
                        6 Threads,   7629 MiB Core
         ---------------------------------------------------------

  ==> Geometry <==

    Molecular point group: c2v
    Full point group: C_inf_v

    Geometry (in Angstrom), charge = -1, multiplicity = 6:

       Center              X                  Y                   Z               Mass       
    ------------   -----------------  -----------------  -----------------  -----------------
         BE           0.000000000000     0.000000000000     1.503178505196     9.012183065000
         NE           0.000000000000     0.000000000000    -0.677602121042    19.992440176200

  Running in c2v symmetry.

  Rotational constants: A = ************  B =      0.57062  C =      0.57062 [cm^-1]
  Rotational constants: A = ************  B =  17106.63768  C =  17106.63768 [MHz]
  Nuclear repulsion =    9.706197942207158

  Charge       = -1
  Multiplicity = 6
  Electrons    = 15
  Nalpha       = 10
  Nbeta        = 5

  ==> Algorithm <==

  SCF Algorithm Type is DF.
  DIIS enabled.
  MOM disabled.
  Fractional occupation disabled.
  Guess Type is READ.
  Energy threshold   = 1.00e-08
  Density threshold  = 1.00e-08
  Integral threshold = 1.00e-12

  ==> Primary Basis <==

  Basis Set: CC-PVDZ
    Blend: CC-PVDZ
    Number of shells: 12
    Number of basis functions: 28
    Number of Cartesian functions: 30
    Spherical Harmonics?: true
    Max angular momentum: 2

  ==> DFT Potential <==

   => LibXC <=

    Version 7.0.0
    S. Lehtola, C. Steigemann, M. J.T. Oliveira, and M. A.L. Marques.,  SoftwareX 7, 1–5 (2018) (10.1016/j.softx.2017.11.002)

   => Composite Functional: B3LYP <= 

    B3LYP Hyb-GGA Exchange-Correlation Functional

    P. J. Stephens, F. J. Devlin, C. F. Chabalowski, and M. J. Frisch.,  J. Phys. Chem. 98, 11623 (1994) (10.1021/j100096a001)

    Deriv               =              1
    GGA                 =           TRUE
    Meta                =          FALSE

    Exchange Hybrid     =           TRUE
    MP2 Hybrid          =          FALSE

   => Exchange Functionals <=

    0.0800   Slater exchange
    0.7200         Becke 88

   => Exact (HF) Exchange <=

    0.2000               HF 

   => Correlation Functionals <=

    0.1900   Vosko, Wilk & Nusair (VWN5_RPA)
    0.8100   Lee, Yang & Parr

   => LibXC Density Thresholds  <==

    XC_HYB_GGA_XC_B3LYP:  1.00E-15 

   => Molecular Quadrature <=

    Radial Scheme          =       TREUTLER
    Pruning Scheme         =           NONE
    Nuclear Scheme         =       TREUTLER

    Blocking Scheme        =         OCTREE
    BS radius alpha        =              1
    Pruning alpha          =              1
    Radial Points          =             75
    Spherical Points       =            302
    Total Points           =          43616
    Total Blocks           =            401
    Max Points             =            255
    Max Functions          =             28
    Weights Tolerance      =       1.00E-15

   => Loading Basis Set <=

    Name: (CC-PVDZ AUX)
    Role: JKFIT
    Keyword: DF_BASIS_SCF
    atoms 1 entry BE         line    96 file /home/jrodriguesro/psi4conda/share/psi4/basis/def2-universal-jkfit.gbs 
    atoms 2 entry NE         line   321 file /home/jrodriguesro/psi4conda/share/psi4/basis/cc-pvdz-jkfit.gbs 

   => Loading Basis Set <=

    Name: CC-PVDZ
    Role: ORBITAL
    Keyword: BASIS
    atoms 1 entry BE         line    75 file /home/jrodriguesro/psi4conda/share/psi4/basis/cc-pvdz.gbs 
    atoms 2 entry NE         line   258 file /home/jrodriguesro/psi4conda/share/psi4/basis/cc-pvdz.gbs 

  Reading orbitals from file /tmp/sextet_BeNe.default.348453.180.npy, no projection.

  ==> Integral Setup <==

  DFHelper Memory: AOs need 0.001 GiB; user supplied 5.556 GiB. 
  SCF_SUBTYPE=INCORE selected. In-core MEM_DF algorithm will be used.
  Using in-core AOs.

  ==> MemDFJK: Density-Fitted J/K Matrices <==

    J tasked:                   Yes
    K tasked:                   Yes
    wK tasked:                   No
    OpenMP threads:               6
    Memory [MiB]:              5689
    Algorithm:                 Core
    Schwarz Cutoff:           1E-12
    Mask sparsity (%):       0.0000
    Fitting Condition:        1E-10

   => Auxiliary Basis Set <=

  Basis Set: (CC-PVDZ AUX)
    Blend: CC-PVDZ-JKFIT + DEF2-UNIVERSAL-JKFIT
    Number of shells: 41
    Number of basis functions: 121
    Number of Cartesian functions: 141
    Spherical Harmonics?: true
    Max angular momentum: 3

  Cached 100.0% of DFT collocation blocks in 0.032 [GiB].

  Minimum eigenvalue in the overlap matrix is 3.7101330635E-02.
  Reciprocal condition number of the overlap matrix is 1.5200265720E-02.
    Using symmetric orthogonalization.

  ==> Pre-Iterations <==

  SCF Guess: Orbitals guess was supplied from a previous computation.

   -------------------------------------------------------
    Irrep   Nso     Nmo     Nalpha   Nbeta   Ndocc  Nsocc
   -------------------------------------------------------
     A1        14      14       6       4       4       2
     A2         2       2       0       0       0       0
     B1         6       6       2       0       0       2
     B2         6       6       2       1       1       1
   -------------------------------------------------------
    Total      28      28      10       5       5       5
   -------------------------------------------------------

  ==> Iterations <==

                           Total Energy        Delta E     RMS |[F,P]|

   @DF-UKS iter   0:  -142.82638540433373   -1.42826e+02   1.26341e-02 
   @DF-UKS iter   1:  -142.82929978437591   -2.91438e-03   1.00004e-03 DIIS/ADIIS
   @DF-UKS iter   2:  -142.82952399789073   -2.24214e-04   6.29456e-04 DIIS/ADIIS/DAMP=1%
   @DF-UKS iter   3:  -142.82999778471878   -4.73787e-04   3.29813e-05 DIIS/DAMP=1%
   @DF-UKS iter   4:  -142.82963399294434    3.63792e-04   1.63429e-05 DIIS/DAMP=1%
   @DF-UKS iter   5:  -142.82963913965480   -5.14671e-06   3.01923e-06 DIIS/DAMP=1%
   @DF-UKS iter   6:  -142.82963562452932    3.51513e-06   5.51104e-07 DIIS/DAMP=1%
   @DF-UKS iter   7:  -142.82963471758040    9.06949e-07   5.91391e-08 DIIS/DAMP=1%
   @DF-UKS iter   8:  -142.82963487967098   -1.62091e-07   6.94529e-09 DIIS/DAMP=1%
   @DF-UKS iter   9:  -142.82963487672882    2.94216e-09   9.00590e-10 DIIS/DAMP=1%
  Energy and wave function converged.


  ==> Post-Iterations <==

   Electrons on quadrature grid:
      Nalpha   =   10.0000123394 ; deviation = 1.234e-05
      Nbeta    =    5.0000045590 ; deviation = 4.559e-06
      Ntotal   =   15.0000168984 ; deviation = 1.690e-05 

   @Spin Contamination Metric:   7.471483126E-04
   @S^2 Expected:                8.750000000E+00
   @S^2 Observed:                8.750747148E+00
   @S   Expected:                2.500000000E+00
   @S   Observed:                2.500000000E+00

    Orbital Energies [Eh]
    ---------------------

    Alpha Occupied:                                                       

       1A1   -31.434023     2A1    -3.802406     3A1    -1.808195  
       1B1    -0.978695     4A1    -0.874427     1B2    -0.869177  
       5A1    -0.041794     2B1     0.103255     2B2     0.105408  
       6A1     0.110270  

    Alpha Virtual:                                                        

       7A1     0.325568     3B1     0.400766     3B2     0.401657  
       8A1     0.424607     4B1     0.664501     4B2     0.670032  
       1A2     0.705517     9A1     0.705520    10A1     0.724519  
       5B1     1.182111     5B2     1.236748    11A1     1.283249  
      12A1     1.993572    13A1     4.299376     2A2     4.321179  
       6B1     4.326351     6B2     4.409166    14A1     4.421016  

    Beta Occupied:                                                        

       1A1   -31.390930     2A1    -3.785100     3A1    -1.695652  
       4A1    -0.829438     1B2    -0.825680  

    Beta Virtual:                                                         

       1B1    -0.615252     5A1     0.121917     6A1     0.244642  
       2B2     0.244721     2B1     0.246618     7A1     0.400637  
       3B2     0.474824     3B1     0.475062     8A1     0.496849  
       4B2     0.779303     4B1     0.781645     9A1     0.828665  
       1A2     0.829173    10A1     0.829221     5B2     1.267186  
       5B1     1.296945    11A1     1.312276    12A1     2.057009  
       6B2     4.431203     2A2     4.437766    13A1     4.438940  
       6B1     4.443290    14A1     4.470665  

    Final Occupation by Irrep:
             A1    A2    B1    B2 
    DOCC [     4,    0,    0,    1 ]
    SOCC [     2,    0,    2,    1 ]
    NA   [     6,    0,    2,    2 ]
    NB   [     4,    0,    0,    1 ]

  @DF-UKS Final Energy:  -142.82963487672882

   => Energetics <=

    Nuclear Repulsion Energy =              9.7061979422071580
    One-Electron Energy =                -218.2864079859552362
    Two-Electron Energy =                  77.9773317401440522
    DFT Exchange-Correlation Energy =     -12.2267565731247796
    Empirical Dispersion Energy =           0.0000000000000000
    VV10 Nonlocal Energy =                  0.0000000000000000
    Total Energy =                       -142.8296348767288180

  UHF NO Occupations:
  HONO-2 :    2 B1 1.0000000
  HONO-1 :    2 B2 1.0000000
  HONO-0 :    6 A1 1.0000000
  LUNO+0 :    7 A1 0.0002652
  LUNO+1 :    3 B2 0.0000549
  LUNO+2 :    8 A1 0.0000534
  LUNO+3 :    9 A1 0.0000001


Computation Completed


Properties will be evaluated at   0.000000,   0.000000,   0.000000 [a0]

Properties computed using the SCF density matrix


 Multipole Moments:

 ------------------------------------------------------------------------------------
     Multipole            Electronic (a.u.)      Nuclear  (a.u.)        Total (a.u.)
 ------------------------------------------------------------------------------------

 L = 1.  Multiply by 2.5417464519 to convert [e a0] to [Debye]
 Dipole X            :          0.0000000            0.0000000            0.0000000
 Dipole Y            :          0.0000000            0.0000000            0.0000000
 Dipole Z            :         -5.0789800           -1.4424415           -6.5214215
 Magnitude           :                                                    6.5214215

 ------------------------------------------------------------------------------------

*** tstop() called on cics-quant-001 at Tue Dec 23 10:46:40 2025
Module time:
	user time   =       0.66 seconds =       0.01 minutes
	system time =       0.03 seconds =       0.00 minutes
	total time  =          0 seconds =       0.00 minutes
Total time:
	user time   =       4.54 seconds =       0.08 minutes
	system time =       0.53 seconds =       0.01 minutes
	total time  =          2 seconds =       0.03 minutes

*** tstart() called on cics-quant-001
*** at Tue Dec 23 10:46:40 2025


         ------------------------------------------------------------
                                   SCF GRAD                          
                          Rob Parrish, Justin Turney,                
                       Andy Simmonett, and Alex Sokolov              
         ------------------------------------------------------------

  ==> Geometry <==

    Molecular point group: c2v
    Full point group: C_inf_v

    Geometry (in Angstrom), charge = -1, multiplicity = 6:

       Center              X                  Y                   Z               Mass       
    ------------   -----------------  -----------------  -----------------  -----------------
         BE           0.000000000000     0.000000000000     1.503178505196     9.012183065000
         NE           0.000000000000     0.000000000000    -0.677602121042    19.992440176200

  Nuclear repulsion =    9.706197942207158

  ==> Basis Set <==

  Basis Set: CC-PVDZ
    Blend: CC-PVDZ
    Number of shells: 12
    Number of basis functions: 28
    Number of Cartesian functions: 30
    Spherical Harmonics?: true
    Max angular momentum: 2

  ==> DFJKGrad: Density-Fitted SCF Gradients <==

    Gradient:                    1
    J tasked:                  Yes
    K tasked:                  Yes
    wK tasked:                  No
    OpenMP threads:              6
    Integrals threads:           6
    Memory [MiB]:             5722
    Schwarz Cutoff:          1E-12
    Fitting Condition:       1E-10

   => Auxiliary Basis Set <=

  Basis Set: (CC-PVDZ AUX)
    Blend: CC-PVDZ-JKFIT + DEF2-UNIVERSAL-JKFIT
    Number of shells: 41
    Number of basis functions: 121
    Number of Cartesian functions: 141
    Spherical Harmonics?: true
    Max angular momentum: 3

  ==> DFT Potential <==

   => LibXC <=

    Version 7.0.0
    S. Lehtola, C. Steigemann, M. J.T. Oliveira, and M. A.L. Marques.,  SoftwareX 7, 1–5 (2018) (10.1016/j.softx.2017.11.002)

   => Composite Functional: B3LYP <= 

    B3LYP Hyb-GGA Exchange-Correlation Functional

    P. J. Stephens, F. J. Devlin, C. F. Chabalowski, and M. J. Frisch.,  J. Phys. Chem. 98, 11623 (1994) (10.1021/j100096a001)

    Deriv               =              1
    GGA                 =           TRUE
    Meta                =          FALSE

    Exchange Hybrid     =           TRUE
    MP2 Hybrid          =          FALSE

   => Exchange Functionals <=

    0.0800   Slater exchange
    0.7200         Becke 88

   => Exact (HF) Exchange <=

    0.2000               HF 

   => Correlation Functionals <=

    0.1900   Vosko, Wilk & Nusair (VWN5_RPA)
    0.8100   Lee, Yang & Parr

   => LibXC Density Thresholds  <==

    XC_HYB_GGA_XC_B3LYP:  1.00E-15 

   => Molecular Quadrature <=

    Radial Scheme          =       TREUTLER
    Pruning Scheme         =           NONE
    Nuclear Scheme         =       TREUTLER

    Blocking Scheme        =         OCTREE
    BS radius alpha        =              1
    Pruning alpha          =              1
    Radial Points          =             75
    Spherical Points       =            302
    Total Points           =          43616
    Total Blocks           =            401
    Max Points             =            255
    Max Functions          =             28
    Weights Tolerance      =       1.00E-15


  -Total Gradient:
     Atom            X                  Y                   Z
    ------   -----------------  -----------------  -----------------
       1        0.000000000000    -0.000000000000    -0.013988803908
       2        0.000000000000     0.000000000000     0.013953756058


*** tstop() called on cics-quant-001 at Tue Dec 23 10:46:40 2025
Module time:
	user time   =       0.12 seconds =       0.00 minutes
	system time =       0.06 seconds =       0.00 minutes
	total time  =          0 seconds =       0.00 minutes
Total time:
	user time   =       4.66 seconds =       0.08 minutes
	system time =       0.59 seconds =       0.01 minutes
	total time  =          2 seconds =       0.03 minutes

    			-----------------------------------------

    			 OPTKING 3.0: for geometry optimizations 

    			     By R.A. King, Bethel University     

    			        with contributions from          

    			    A.V. Copan, J. Cayton, A. Heide      

    			-----------------------------------------

    
	                            ===> Fragment 1 <== 

	 Z (Atomic Numbers)          Masses                          Geom                  
	       4.000000             9.012183          0.00000000  0.00000000  2.84059569   
	      10.000000            19.992440          0.00000000  0.00000000 -1.28048243   

	 - Coordinate -           - BOHR/RAD -       - ANG/DEG -
	 R(1,2)           =         4.121078           2.180781


	        --- Internal Coordinate Step in ANG or DEG, aJ/ANG or AJ/DEG ---
	-------------------------------------------------------------------------------
	           Coordinate      Previous         Force          Change          New 
	           ----------      --------        ------          ------        ------
	               R(1,2)       2.18078        0.11511        0.10168       2.28246
	-------------------------------------------------------------------------------

	                                 ==> Convergence Check <==                                  
    
	Measures of convergence in internal coordinates in au.
    
	Criteria marked as inactive (o), active & met (*), and active & unmet ( ).

	----------------------------------------------------------------------------------------------
	   Step    Total Energy     Delta E     Max Force     RMS Force      Max Disp      RMS Disp   
	----------------------------------------------------------------------------------------------
	  Convergence Criteria     1.00e-06 *    3.00e-04 *             o    1.20e-03 *             o
	----------------------------------------------------------------------------------------------
	     6    -142.82963488   -8.48e-03      1.40e-02      1.40e-02 o    1.92e-01      1.92e-01 o  ~
	----------------------------------------------------------------------------------------------

Next Geometry in Ang 
	Fragment 1 (Ang)

	   Be   0.0000000000   0.0000000000   1.5540160712
	   Ne   0.0000000000   0.0000000000  -0.7284396871


    Structure for next step:
    Molecular point group: c2v
    Full point group: C_inf_v

    Geometry (in Angstrom), charge = -1, multiplicity = 6:

    BE           0.000000000000     0.000000000000     1.573261608063
    NE           0.000000000000     0.000000000000    -0.709194150191


Scratch directory: /tmp/
gradient() will perform analytic gradient computation.
   => Libint2 <=

    Primary   basis highest AM E, G, H:  6, 6, 3
    Auxiliary basis highest AM E, G, H:  7, 7, 4
    Onebody   basis highest AM E, G, H:  -, -, -
    Solid Harmonics ordering:            Gaussian

*** tstart() called on cics-quant-001
*** at Tue Dec 23 10:46:40 2025

   => Loading Basis Set <=

    Name: CC-PVDZ
    Role: ORBITAL
    Keyword: BASIS
    atoms 1 entry BE         line    75 file /home/jrodriguesro/psi4conda/share/psi4/basis/cc-pvdz.gbs 
    atoms 2 entry NE         line   258 file /home/jrodriguesro/psi4conda/share/psi4/basis/cc-pvdz.gbs 


         ---------------------------------------------------------
                                   SCF
               by Justin Turney, Rob Parrish, Andy Simmonett
                          and Daniel G. A. Smith
                              UKS Reference
                        6 Threads,   7629 MiB Core
         ---------------------------------------------------------

  ==> Geometry <==

    Molecular point group: c2v
    Full point group: C_inf_v

    Geometry (in Angstrom), charge = -1, multiplicity = 6:

       Center              X                  Y                   Z               Mass       
    ------------   -----------------  -----------------  -----------------  -----------------
         BE           0.000000000000     0.000000000000     1.573261608063     9.012183065000
         NE           0.000000000000     0.000000000000    -0.709194150191    19.992440176200

  Running in c2v symmetry.

  Rotational constants: A = ************  B =      0.52091  C =      0.52091 [cm^-1]
  Rotational constants: A = ************  B =  15616.50632  C =  15616.50632 [MHz]
  Nuclear repulsion =    9.273822000820671

  Charge       = -1
  Multiplicity = 6
  Electrons    = 15
  Nalpha       = 10
  Nbeta        = 5

  ==> Algorithm <==

  SCF Algorithm Type is DF.
  DIIS enabled.
  MOM disabled.
  Fractional occupation disabled.
  Guess Type is READ.
  Energy threshold   = 1.00e-08
  Density threshold  = 1.00e-08
  Integral threshold = 1.00e-12

  ==> Primary Basis <==

  Basis Set: CC-PVDZ
    Blend: CC-PVDZ
    Number of shells: 12
    Number of basis functions: 28
    Number of Cartesian functions: 30
    Spherical Harmonics?: true
    Max angular momentum: 2

  ==> DFT Potential <==

   => LibXC <=

    Version 7.0.0
    S. Lehtola, C. Steigemann, M. J.T. Oliveira, and M. A.L. Marques.,  SoftwareX 7, 1–5 (2018) (10.1016/j.softx.2017.11.002)

   => Composite Functional: B3LYP <= 

    B3LYP Hyb-GGA Exchange-Correlation Functional

    P. J. Stephens, F. J. Devlin, C. F. Chabalowski, and M. J. Frisch.,  J. Phys. Chem. 98, 11623 (1994) (10.1021/j100096a001)

    Deriv               =              1
    GGA                 =           TRUE
    Meta                =          FALSE

    Exchange Hybrid     =           TRUE
    MP2 Hybrid          =          FALSE

   => Exchange Functionals <=

    0.0800   Slater exchange
    0.7200         Becke 88

   => Exact (HF) Exchange <=

    0.2000               HF 

   => Correlation Functionals <=

    0.1900   Vosko, Wilk & Nusair (VWN5_RPA)
    0.8100   Lee, Yang & Parr

   => LibXC Density Thresholds  <==

    XC_HYB_GGA_XC_B3LYP:  1.00E-15 

   => Molecular Quadrature <=

    Radial Scheme          =       TREUTLER
    Pruning Scheme         =           NONE
    Nuclear Scheme         =       TREUTLER

    Blocking Scheme        =         OCTREE
    BS radius alpha        =              1
    Pruning alpha          =              1
    Radial Points          =             75
    Spherical Points       =            302
    Total Points           =          43618
    Total Blocks           =            394
    Max Points             =            256
    Max Functions          =             28
    Weights Tolerance      =       1.00E-15

   => Loading Basis Set <=

    Name: (CC-PVDZ AUX)
    Role: JKFIT
    Keyword: DF_BASIS_SCF
    atoms 1 entry BE         line    96 file /home/jrodriguesro/psi4conda/share/psi4/basis/def2-universal-jkfit.gbs 
    atoms 2 entry NE         line   321 file /home/jrodriguesro/psi4conda/share/psi4/basis/cc-pvdz-jkfit.gbs 

   => Loading Basis Set <=

    Name: CC-PVDZ
    Role: ORBITAL
    Keyword: BASIS
    atoms 1 entry BE         line    75 file /home/jrodriguesro/psi4conda/share/psi4/basis/cc-pvdz.gbs 
    atoms 2 entry NE         line   258 file /home/jrodriguesro/psi4conda/share/psi4/basis/cc-pvdz.gbs 

  Reading orbitals from file /tmp/sextet_BeNe.default.348453.180.npy, no projection.

  ==> Integral Setup <==

  DFHelper Memory: AOs need 0.001 GiB; user supplied 5.557 GiB. 
  SCF_SUBTYPE=INCORE selected. In-core MEM_DF algorithm will be used.
  Using in-core AOs.

  ==> MemDFJK: Density-Fitted J/K Matrices <==

    J tasked:                   Yes
    K tasked:                   Yes
    wK tasked:                   No
    OpenMP threads:               6
    Memory [MiB]:              5690
    Algorithm:                 Core
    Schwarz Cutoff:           1E-12
    Mask sparsity (%):       0.0000
    Fitting Condition:        1E-10

   => Auxiliary Basis Set <=

  Basis Set: (CC-PVDZ AUX)
    Blend: CC-PVDZ-JKFIT + DEF2-UNIVERSAL-JKFIT
    Number of shells: 41
    Number of basis functions: 121
    Number of Cartesian functions: 141
    Spherical Harmonics?: true
    Max angular momentum: 3

  Cached 100.0% of DFT collocation blocks in 0.031 [GiB].

  Minimum eigenvalue in the overlap matrix is 3.7118343203E-02.
  Reciprocal condition number of the overlap matrix is 1.5521630627E-02.
    Using symmetric orthogonalization.

  ==> Pre-Iterations <==

  SCF Guess: Orbitals guess was supplied from a previous computation.

   -------------------------------------------------------
    Irrep   Nso     Nmo     Nalpha   Nbeta   Ndocc  Nsocc
   -------------------------------------------------------
     A1        14      14       6       4       4       2
     A2         2       2       0       0       0       0
     B1         6       6       2       0       0       2
     B2         6       6       2       1       1       1
   -------------------------------------------------------
    Total      28      28      10       5       5       5
   -------------------------------------------------------

  ==> Iterations <==

                           Total Energy        Delta E     RMS |[F,P]|

   @DF-UKS iter   0:  -142.82917701511627   -1.42829e+02   6.48420e-03 
   @DF-UKS iter   1:  -142.83120746974163   -2.03045e-03   4.88538e-04 DIIS/ADIIS
   @DF-UKS iter   2:  -142.83126140321420   -5.39335e-05   2.91478e-04 DIIS/ADIIS/DAMP=1%
   @DF-UKS iter   3:  -142.83145486567190   -1.93462e-04   1.41636e-05 DIIS/DAMP=1%
   @DF-UKS iter   4:  -142.83128413640702    1.70729e-04   7.19555e-06 DIIS/DAMP=1%
   @DF-UKS iter   5:  -142.83128826968507   -4.13328e-06   1.24097e-06 DIIS/DAMP=1%
   @DF-UKS iter   6:  -142.83128669894336    1.57074e-06   2.36958e-07 DIIS/DAMP=1%
   @DF-UKS iter   7:  -142.83128631971712    3.79226e-07   2.86052e-08 DIIS/DAMP=1%
   @DF-UKS iter   8:  -142.83128637250923   -5.27921e-08   3.46487e-09 DIIS/DAMP=1%
   @DF-UKS iter   9:  -142.83128637287109   -3.61865e-10   4.12946e-10 DIIS/DAMP=1%
  Energy and wave function converged.


  ==> Post-Iterations <==

   Electrons on quadrature grid:
      Nalpha   =   10.0000077435 ; deviation = 7.744e-06
      Nbeta    =    5.0000020458 ; deviation = 2.046e-06
      Ntotal   =   15.0000097893 ; deviation = 9.789e-06 

   @Spin Contamination Metric:   7.435069101E-04
   @S^2 Expected:                8.750000000E+00
   @S^2 Observed:                8.750743507E+00
   @S   Expected:                2.500000000E+00
   @S   Observed:                2.500000000E+00

    Orbital Energies [Eh]
    ---------------------

    Alpha Occupied:                                                       

       1A1   -31.440104     2A1    -3.798720     3A1    -1.813558  
       1B1    -0.984568     4A1    -0.878248     1B2    -0.874994  
       5A1    -0.039482     2B1     0.107883     2B2     0.109719  
       6A1     0.111051  

    Alpha Virtual:                                                        

       7A1     0.332883     3B1     0.405847     3B2     0.406641  
       8A1     0.426851     4B1     0.671595     4B2     0.676326  
       1A2     0.711039     9A1     0.711041    10A1     0.714118  
       5B1     1.162246     5B2     1.217293    11A1     1.265573  
      12A1     1.940584    13A1     4.292173     2A2     4.314780  
       6B1     4.318504     6B2     4.401380    14A1     4.410978  

    Beta Occupied:                                                        

       1A1   -31.397378     2A1    -3.781750     3A1    -1.701582  
       4A1    -0.833778     1B2    -0.832070  

    Beta Virtual:                                                         

       1B1    -0.621530     5A1     0.124770     6A1     0.247122  
       2B2     0.249017     2B1     0.250809     7A1     0.408170  
       3B2     0.478821     3B1     0.479106     8A1     0.499278  
       4B2     0.788340     4B1     0.790368     9A1     0.817922  
       1A2     0.834361    10A1     0.834403     5B2     1.246228  
       5B1     1.276633    11A1     1.294784    12A1     2.003444  
       6B2     4.423020    13A1     4.430157     2A2     4.431014  
       6B1     4.435095    14A1     4.461344  

    Final Occupation by Irrep:
             A1    A2    B1    B2 
    DOCC [     4,    0,    0,    1 ]
    SOCC [     2,    0,    2,    1 ]
    NA   [     6,    0,    2,    2 ]
    NB   [     4,    0,    0,    1 ]

  @DF-UKS Final Energy:  -142.83128637287109

   => Energetics <=

    Nuclear Repulsion Energy =              9.2738220008206707
    One-Electron Energy =                -217.3979586634723660
    Two-Electron Energy =                  77.5140120189133626
    DFT Exchange-Correlation Energy =     -12.2211617291327510
    Empirical Dispersion Energy =           0.0000000000000000
    VV10 Nonlocal Energy =                  0.0000000000000000
    Total Energy =                       -142.8312863728710909

  UHF NO Occupations:
  HONO-2 :    2 B2 1.0000000
  HONO-1 :    1 B1 1.0000000
  HONO-0 :    2 B1 1.0000000
  LUNO+0 :    7 A1 0.0002645
  LUNO+1 :    3 B2 0.0000538
  LUNO+2 :    8 A1 0.0000535
  LUNO+3 :    9 A1 0.0000000


Computation Completed


Properties will be evaluated at   0.000000,   0.000000,   0.000000 [a0]

Properties computed using the SCF density matrix


 Multipole Moments:

 ------------------------------------------------------------------------------------
     Multipole            Electronic (a.u.)      Nuclear  (a.u.)        Total (a.u.)
 ------------------------------------------------------------------------------------

 L = 1.  Multiply by 2.5417464519 to convert [e a0] to [Debye]
 Dipole X            :          0.0000000            0.0000000            0.0000000
 Dipole Y            :          0.0000000            0.0000000            0.0000000
 Dipole Z            :         -5.3399812           -1.5096929           -6.8496741
 Magnitude           :                                                    6.8496741

 ------------------------------------------------------------------------------------

*** tstop() called on cics-quant-001 at Tue Dec 23 10:46:40 2025
Module time:
	user time   =       0.53 seconds =       0.01 minutes
	system time =       0.02 seconds =       0.00 minutes
	total time  =          0 seconds =       0.00 minutes
Total time:
	user time   =       5.21 seconds =       0.09 minutes
	system time =       0.61 seconds =       0.01 minutes
	total time  =          2 seconds =       0.03 minutes

*** tstart() called on cics-quant-001
*** at Tue Dec 23 10:46:40 2025


         ------------------------------------------------------------
                                   SCF GRAD                          
                          Rob Parrish, Justin Turney,                
                       Andy Simmonett, and Alex Sokolov              
         ------------------------------------------------------------

  ==> Geometry <==

    Molecular point group: c2v
    Full point group: C_inf_v

    Geometry (in Angstrom), charge = -1, multiplicity = 6:

       Center              X                  Y                   Z               Mass       
    ------------   -----------------  -----------------  -----------------  -----------------
         BE           0.000000000000     0.000000000000     1.573261608063     9.012183065000
         NE           0.000000000000     0.000000000000    -0.709194150191    19.992440176200

  Nuclear repulsion =    9.273822000820671

  ==> Basis Set <==

  Basis Set: CC-PVDZ
    Blend: CC-PVDZ
    Number of shells: 12
    Number of basis functions: 28
    Number of Cartesian functions: 30
    Spherical Harmonics?: true
    Max angular momentum: 2

  ==> DFJKGrad: Density-Fitted SCF Gradients <==

    Gradient:                    1
    J tasked:                  Yes
    K tasked:                  Yes
    wK tasked:                  No
    OpenMP threads:              6
    Integrals threads:           6
    Memory [MiB]:             5722
    Schwarz Cutoff:          1E-12
    Fitting Condition:       1E-10

   => Auxiliary Basis Set <=

  Basis Set: (CC-PVDZ AUX)
    Blend: CC-PVDZ-JKFIT + DEF2-UNIVERSAL-JKFIT
    Number of shells: 41
    Number of basis functions: 121
    Number of Cartesian functions: 141
    Spherical Harmonics?: true
    Max angular momentum: 3

  ==> DFT Potential <==

   => LibXC <=

    Version 7.0.0
    S. Lehtola, C. Steigemann, M. J.T. Oliveira, and M. A.L. Marques.,  SoftwareX 7, 1–5 (2018) (10.1016/j.softx.2017.11.002)

   => Composite Functional: B3LYP <= 

    B3LYP Hyb-GGA Exchange-Correlation Functional

    P. J. Stephens, F. J. Devlin, C. F. Chabalowski, and M. J. Frisch.,  J. Phys. Chem. 98, 11623 (1994) (10.1021/j100096a001)

    Deriv               =              1
    GGA                 =           TRUE
    Meta                =          FALSE

    Exchange Hybrid     =           TRUE
    MP2 Hybrid          =          FALSE

   => Exchange Functionals <=

    0.0800   Slater exchange
    0.7200         Becke 88

   => Exact (HF) Exchange <=

    0.2000               HF 

   => Correlation Functionals <=

    0.1900   Vosko, Wilk & Nusair (VWN5_RPA)
    0.8100   Lee, Yang & Parr

   => LibXC Density Thresholds  <==

    XC_HYB_GGA_XC_B3LYP:  1.00E-15 

   => Molecular Quadrature <=

    Radial Scheme          =       TREUTLER
    Pruning Scheme         =           NONE
    Nuclear Scheme         =       TREUTLER

    Blocking Scheme        =         OCTREE
    BS radius alpha        =              1
    Pruning alpha          =              1
    Radial Points          =             75
    Spherical Points       =            302
    Total Points           =          43618
    Total Blocks           =            394
    Max Points             =            256
    Max Functions          =             28
    Weights Tolerance      =       1.00E-15


  -Total Gradient:
     Atom            X                  Y                   Z
    ------   -----------------  -----------------  -----------------
       1        0.000000000000    -0.000000000000    -0.003601114346
       2       -0.000000000000     0.000000000000     0.003600430310


*** tstop() called on cics-quant-001 at Tue Dec 23 10:46:41 2025
Module time:
	user time   =       0.11 seconds =       0.00 minutes
	system time =       0.06 seconds =       0.00 minutes
	total time  =          1 seconds =       0.02 minutes
Total time:
	user time   =       5.32 seconds =       0.09 minutes
	system time =       0.67 seconds =       0.01 minutes
	total time  =          3 seconds =       0.05 minutes

    			-----------------------------------------

    			 OPTKING 3.0: for geometry optimizations 

    			     By R.A. King, Bethel University     

    			        with contributions from          

    			    A.V. Copan, J. Cayton, A. Heide      

    			-----------------------------------------

    
	                            ===> Fragment 1 <== 

	 Z (Atomic Numbers)          Masses                          Geom                  
	       4.000000             9.012183          0.00000000  0.00000000  2.97303356   
	      10.000000            19.992440          0.00000000  0.00000000 -1.34018271   

	 - Coordinate -           - BOHR/RAD -       - ANG/DEG -
	 R(1,2)           =         4.313216           2.282456


	        --- Internal Coordinate Step in ANG or DEG, aJ/ANG or AJ/DEG ---
	-------------------------------------------------------------------------------
	           Coordinate      Previous         Force          Change          New 
	           ----------      --------        ------          ------        ------
	               R(1,2)       2.28246        0.02967        0.03515       2.31760
	-------------------------------------------------------------------------------

	                                 ==> Convergence Check <==                                  
    
	Measures of convergence in internal coordinates in au.
    
	Criteria marked as inactive (o), active & met (*), and active & unmet ( ).

	----------------------------------------------------------------------------------------------
	   Step    Total Energy     Delta E     Max Force     RMS Force      Max Disp      RMS Disp   
	----------------------------------------------------------------------------------------------
	  Convergence Criteria     1.00e-06 *    3.00e-04 *             o    1.20e-03 *             o
	----------------------------------------------------------------------------------------------
	     7    -142.83128637   -1.65e-03      3.60e-03      3.60e-03 o    6.64e-02      6.64e-02 o  ~
	----------------------------------------------------------------------------------------------

Next Geometry in Ang 
	Fragment 1 (Ang)

	   Be   0.0000000000   0.0000000000   1.5908351905
	   Ne   0.0000000000   0.0000000000  -0.7267677326


    Structure for next step:
    Molecular point group: c2v
    Full point group: C_inf_v

    Geometry (in Angstrom), charge = -1, multiplicity = 6:

    BE           0.000000000000     0.000000000000     1.597488007543
    NE           0.000000000000     0.000000000000    -0.720114915500


Scratch directory: /tmp/
gradient() will perform analytic gradient computation.
   => Libint2 <=

    Primary   basis highest AM E, G, H:  6, 6, 3
    Auxiliary basis highest AM E, G, H:  7, 7, 4
    Onebody   basis highest AM E, G, H:  -, -, -
    Solid Harmonics ordering:            Gaussian

*** tstart() called on cics-quant-001
*** at Tue Dec 23 10:46:41 2025

   => Loading Basis Set <=

    Name: CC-PVDZ
    Role: ORBITAL
    Keyword: BASIS
    atoms 1 entry BE         line    75 file /home/jrodriguesro/psi4conda/share/psi4/basis/cc-pvdz.gbs 
    atoms 2 entry NE         line   258 file /home/jrodriguesro/psi4conda/share/psi4/basis/cc-pvdz.gbs 


         ---------------------------------------------------------
                                   SCF
               by Justin Turney, Rob Parrish, Andy Simmonett
                          and Daniel G. A. Smith
                              UKS Reference
                        6 Threads,   7629 MiB Core
         ---------------------------------------------------------

  ==> Geometry <==

    Molecular point group: c2v
    Full point group: C_inf_v

    Geometry (in Angstrom), charge = -1, multiplicity = 6:

       Center              X                  Y                   Z               Mass       
    ------------   -----------------  -----------------  -----------------  -----------------
         BE           0.000000000000     0.000000000000     1.597488007543     9.012183065000
         NE           0.000000000000     0.000000000000    -0.720114915500    19.992440176200

  Running in c2v symmetry.

  Rotational constants: A = ************  B =      0.50523  C =      0.50523 [cm^-1]
  Rotational constants: A = ************  B =  15146.43962  C =  15146.43962 [MHz]
  Nuclear repulsion =    9.133181623283873

  Charge       = -1
  Multiplicity = 6
  Electrons    = 15
  Nalpha       = 10
  Nbeta        = 5

  ==> Algorithm <==

  SCF Algorithm Type is DF.
  DIIS enabled.
  MOM disabled.
  Fractional occupation disabled.
  Guess Type is READ.
  Energy threshold   = 1.00e-08
  Density threshold  = 1.00e-08
  Integral threshold = 1.00e-12

  ==> Primary Basis <==

  Basis Set: CC-PVDZ
    Blend: CC-PVDZ
    Number of shells: 12
    Number of basis functions: 28
    Number of Cartesian functions: 30
    Spherical Harmonics?: true
    Max angular momentum: 2

  ==> DFT Potential <==

   => LibXC <=

    Version 7.0.0
    S. Lehtola, C. Steigemann, M. J.T. Oliveira, and M. A.L. Marques.,  SoftwareX 7, 1–5 (2018) (10.1016/j.softx.2017.11.002)

   => Composite Functional: B3LYP <= 

    B3LYP Hyb-GGA Exchange-Correlation Functional

    P. J. Stephens, F. J. Devlin, C. F. Chabalowski, and M. J. Frisch.,  J. Phys. Chem. 98, 11623 (1994) (10.1021/j100096a001)

    Deriv               =              1
    GGA                 =           TRUE
    Meta                =          FALSE

    Exchange Hybrid     =           TRUE
    MP2 Hybrid          =          FALSE

   => Exchange Functionals <=

    0.0800   Slater exchange
    0.7200         Becke 88

   => Exact (HF) Exchange <=

    0.2000               HF 

   => Correlation Functionals <=

    0.1900   Vosko, Wilk & Nusair (VWN5_RPA)
    0.8100   Lee, Yang & Parr

   => LibXC Density Thresholds  <==

    XC_HYB_GGA_XC_B3LYP:  1.00E-15 

   => Molecular Quadrature <=

    Radial Scheme          =       TREUTLER
    Pruning Scheme         =           NONE
    Nuclear Scheme         =       TREUTLER

    Blocking Scheme        =         OCTREE
    BS radius alpha        =              1
    Pruning alpha          =              1
    Radial Points          =             75
    Spherical Points       =            302
    Total Points           =          43618
    Total Blocks           =            397
    Max Points             =            255
    Max Functions          =             28
    Weights Tolerance      =       1.00E-15

   => Loading Basis Set <=

    Name: (CC-PVDZ AUX)
    Role: JKFIT
    Keyword: DF_BASIS_SCF
    atoms 1 entry BE         line    96 file /home/jrodriguesro/psi4conda/share/psi4/basis/def2-universal-jkfit.gbs 
    atoms 2 entry NE         line   321 file /home/jrodriguesro/psi4conda/share/psi4/basis/cc-pvdz-jkfit.gbs 

   => Loading Basis Set <=

    Name: CC-PVDZ
    Role: ORBITAL
    Keyword: BASIS
    atoms 1 entry BE         line    75 file /home/jrodriguesro/psi4conda/share/psi4/basis/cc-pvdz.gbs 
    atoms 2 entry NE         line   258 file /home/jrodriguesro/psi4conda/share/psi4/basis/cc-pvdz.gbs 

  Reading orbitals from file /tmp/sextet_BeNe.default.348453.180.npy, no projection.

  ==> Integral Setup <==

  DFHelper Memory: AOs need 0.001 GiB; user supplied 5.557 GiB. 
  SCF_SUBTYPE=INCORE selected. In-core MEM_DF algorithm will be used.
  Using in-core AOs.

  ==> MemDFJK: Density-Fitted J/K Matrices <==

    J tasked:                   Yes
    K tasked:                   Yes
    wK tasked:                   No
    OpenMP threads:               6
    Memory [MiB]:              5690
    Algorithm:                 Core
    Schwarz Cutoff:           1E-12
    Mask sparsity (%):       0.0000
    Fitting Condition:        1E-10

   => Auxiliary Basis Set <=

  Basis Set: (CC-PVDZ AUX)
    Blend: CC-PVDZ-JKFIT + DEF2-UNIVERSAL-JKFIT
    Number of shells: 41
    Number of basis functions: 121
    Number of Cartesian functions: 141
    Spherical Harmonics?: true
    Max angular momentum: 3

  Cached 100.0% of DFT collocation blocks in 0.031 [GiB].

  Minimum eigenvalue in the overlap matrix is 3.7114952080E-02.
  Reciprocal condition number of the overlap matrix is 1.5628350451E-02.
    Using symmetric orthogonalization.

  ==> Pre-Iterations <==

  SCF Guess: Orbitals guess was supplied from a previous computation.

   -------------------------------------------------------
    Irrep   Nso     Nmo     Nalpha   Nbeta   Ndocc  Nsocc
   -------------------------------------------------------
     A1        14      14       6       4       4       2
     A2         2       2       0       0       0       0
     B1         6       6       2       0       0       2
     B2         6       6       2       1       1       1
   -------------------------------------------------------
    Total      28      28      10       5       5       5
   -------------------------------------------------------

  ==> Iterations <==

                           Total Energy        Delta E     RMS |[F,P]|

   @DF-UKS iter   0:  -142.83052292851437   -1.42831e+02   2.11170e-03 
   @DF-UKS iter   1:  -142.83141030428376   -8.87376e-04   1.52249e-04 DIIS/ADIIS
   @DF-UKS iter   2:  -142.83141567535142   -5.37107e-06   8.88310e-05 DIIS/DAMP=1%
   @DF-UKS iter   3:  -142.83146946857215   -5.37932e-05   4.22642e-06 DIIS/DAMP=1%
   @DF-UKS iter   4:  -142.83141717516838    5.22934e-05   2.16736e-06 DIIS/DAMP=1%
   @DF-UKS iter   5:  -142.83141868009648   -1.50493e-06   3.50770e-07 DIIS/DAMP=1%
   @DF-UKS iter   6:  -142.83141818784250    4.92254e-07   6.44398e-08 DIIS/DAMP=1%
   @DF-UKS iter   7:  -142.83141808375396    1.04089e-07   8.77744e-09 DIIS/DAMP=1%
   @DF-UKS iter   8:  -142.83141809561266   -1.18587e-08   1.11254e-09 DIIS/DAMP=1%
   @DF-UKS iter   9:  -142.83141809593812   -3.25457e-10   1.31639e-10 DIIS/DAMP=1%
  Energy and wave function converged.


  ==> Post-Iterations <==

   Electrons on quadrature grid:
      Nalpha   =   10.0000055949 ; deviation = 5.595e-06
      Nbeta    =    5.0000008060 ; deviation = 8.060e-07
      Ntotal   =   15.0000064009 ; deviation = 6.401e-06 

   @Spin Contamination Metric:   7.422395057E-04
   @S^2 Expected:                8.750000000E+00
   @S^2 Observed:                8.750742240E+00
   @S   Expected:                2.500000000E+00
   @S   Observed:                2.500000000E+00

    Orbital Energies [Eh]
    ---------------------

    Alpha Occupied:                                                       

       1A1   -31.442451     2A1    -3.797659     3A1    -1.815672  
       1B1    -0.986831     4A1    -0.879909     1B2    -0.877237  
       5A1    -0.038563     2B1     0.109410     2B2     0.111148  
       6A1     0.111347  

    Alpha Virtual:                                                        

       7A1     0.335697     3B1     0.407435     3B2     0.408202  
       8A1     0.427588     4B1     0.674207     4B2     0.678670  
       9A1     0.710689     1A2     0.712807    10A1     0.712809  
       5B1     1.155636     5B2     1.210827    11A1     1.259783  
      12A1     1.923081    13A1     4.289494     2A2     4.312358  
       6B1     4.315717     6B2     4.398612    14A1     4.407434  

    Beta Occupied:                                                        

       1A1   -31.399842     2A1    -3.780797     3A1    -1.703875  
       4A1    -0.835611     1B2    -0.834491  

    Beta Virtual:                                                         

       1B1    -0.623911     5A1     0.125853     6A1     0.247943  
       2B2     0.250478     2B1     0.252272     7A1     0.411028  
       3B2     0.480050     3B1     0.480351     8A1     0.500077  
       4B2     0.791603     4B1     0.793530     9A1     0.814388  
       1A2     0.836037    10A1     0.836086     5B2     1.239239  
       5B1     1.269867    11A1     1.289104    12A1     1.985703  
       6B2     4.420127    13A1     4.426917     2A2     4.428481  
       6B1     4.432199    14A1     4.458086  

    Final Occupation by Irrep:
             A1    A2    B1    B2 
    DOCC [     4,    0,    0,    1 ]
    SOCC [     2,    0,    2,    1 ]
    NA   [     6,    0,    2,    2 ]
    NB   [     4,    0,    0,    1 ]

  @DF-UKS Final Energy:  -142.83141809593812

   => Energetics <=

    Nuclear Repulsion Energy =              9.1331816232838730
    One-Electron Energy =                -217.1048358133398892
    Two-Electron Energy =                  77.3595031918717240
    DFT Exchange-Correlation Energy =     -12.2192670977538160
    Empirical Dispersion Energy =           0.0000000000000000
    VV10 Nonlocal Energy =                  0.0000000000000000
    Total Energy =                       -142.8314180959381190

  UHF NO Occupations:
  HONO-2 :    2 B1 1.0000000
  HONO-1 :    5 A1 1.0000000
  HONO-0 :    6 A1 1.0000000
  LUNO+0 :    7 A1 0.0002643
  LUNO+1 :    8 A1 0.0000534
  LUNO+2 :    3 B2 0.0000534
  LUNO+3 :    9 A1 0.0000000


Computation Completed


Properties will be evaluated at   0.000000,   0.000000,   0.000000 [a0]

Properties computed using the SCF density matrix


 Multipole Moments:

 ------------------------------------------------------------------------------------
     Multipole            Electronic (a.u.)      Nuclear  (a.u.)        Total (a.u.)
 ------------------------------------------------------------------------------------

 L = 1.  Multiply by 2.5417464519 to convert [e a0] to [Debye]
 Dipole X            :          0.0000000            0.0000000            0.0000000
 Dipole Y            :          0.0000000            0.0000000            0.0000000
 Dipole Z            :         -5.4285354           -1.5329404           -6.9614758
 Magnitude           :                                                    6.9614758

 ------------------------------------------------------------------------------------

*** tstop() called on cics-quant-001 at Tue Dec 23 10:46:41 2025
Module time:
	user time   =       0.47 seconds =       0.01 minutes
	system time =       0.03 seconds =       0.00 minutes
	total time  =          0 seconds =       0.00 minutes
Total time:
	user time   =       5.81 seconds =       0.10 minutes
	system time =       0.70 seconds =       0.01 minutes
	total time  =          3 seconds =       0.05 minutes

*** tstart() called on cics-quant-001
*** at Tue Dec 23 10:46:41 2025


         ------------------------------------------------------------
                                   SCF GRAD                          
                          Rob Parrish, Justin Turney,                
                       Andy Simmonett, and Alex Sokolov              
         ------------------------------------------------------------

  ==> Geometry <==

    Molecular point group: c2v
    Full point group: C_inf_v

    Geometry (in Angstrom), charge = -1, multiplicity = 6:

       Center              X                  Y                   Z               Mass       
    ------------   -----------------  -----------------  -----------------  -----------------
         BE           0.000000000000     0.000000000000     1.597488007543     9.012183065000
         NE           0.000000000000     0.000000000000    -0.720114915500    19.992440176200

  Nuclear repulsion =    9.133181623283873

  ==> Basis Set <==

  Basis Set: CC-PVDZ
    Blend: CC-PVDZ
    Number of shells: 12
    Number of basis functions: 28
    Number of Cartesian functions: 30
    Spherical Harmonics?: true
    Max angular momentum: 2

  ==> DFJKGrad: Density-Fitted SCF Gradients <==

    Gradient:                    1
    J tasked:                  Yes
    K tasked:                  Yes
    wK tasked:                  No
    OpenMP threads:              6
    Integrals threads:           6
    Memory [MiB]:             5722
    Schwarz Cutoff:          1E-12
    Fitting Condition:       1E-10

   => Auxiliary Basis Set <=

  Basis Set: (CC-PVDZ AUX)
    Blend: CC-PVDZ-JKFIT + DEF2-UNIVERSAL-JKFIT
    Number of shells: 41
    Number of basis functions: 121
    Number of Cartesian functions: 141
    Spherical Harmonics?: true
    Max angular momentum: 3

  ==> DFT Potential <==

   => LibXC <=

    Version 7.0.0
    S. Lehtola, C. Steigemann, M. J.T. Oliveira, and M. A.L. Marques.,  SoftwareX 7, 1–5 (2018) (10.1016/j.softx.2017.11.002)

   => Composite Functional: B3LYP <= 

    B3LYP Hyb-GGA Exchange-Correlation Functional

    P. J. Stephens, F. J. Devlin, C. F. Chabalowski, and M. J. Frisch.,  J. Phys. Chem. 98, 11623 (1994) (10.1021/j100096a001)

    Deriv               =              1
    GGA                 =           TRUE
    Meta                =          FALSE

    Exchange Hybrid     =           TRUE
    MP2 Hybrid          =          FALSE

   => Exchange Functionals <=

    0.0800   Slater exchange
    0.7200         Becke 88

   => Exact (HF) Exchange <=

    0.2000               HF 

   => Correlation Functionals <=

    0.1900   Vosko, Wilk & Nusair (VWN5_RPA)
    0.8100   Lee, Yang & Parr

   => LibXC Density Thresholds  <==

    XC_HYB_GGA_XC_B3LYP:  1.00E-15 

   => Molecular Quadrature <=

    Radial Scheme          =       TREUTLER
    Pruning Scheme         =           NONE
    Nuclear Scheme         =       TREUTLER

    Blocking Scheme        =         OCTREE
    BS radius alpha        =              1
    Pruning alpha          =              1
    Radial Points          =             75
    Spherical Points       =            302
    Total Points           =          43618
    Total Blocks           =            397
    Max Points             =            255
    Max Functions          =             28
    Weights Tolerance      =       1.00E-15


  -Total Gradient:
     Atom            X                  Y                   Z
    ------   -----------------  -----------------  -----------------
       1        0.000000000000    -0.000000000000    -0.000476502580
       2       -0.000000000000     0.000000000000     0.000487763473


*** tstop() called on cics-quant-001 at Tue Dec 23 10:46:41 2025
Module time:
	user time   =       0.12 seconds =       0.00 minutes
	system time =       0.06 seconds =       0.00 minutes
	total time  =          0 seconds =       0.00 minutes
Total time:
	user time   =       5.93 seconds =       0.10 minutes
	system time =       0.76 seconds =       0.01 minutes
	total time  =          3 seconds =       0.05 minutes

    			-----------------------------------------

    			 OPTKING 3.0: for geometry optimizations 

    			     By R.A. King, Bethel University     

    			        with contributions from          

    			    A.V. Copan, J. Cayton, A. Heide      

    			-----------------------------------------

    
	                            ===> Fragment 1 <== 

	 Z (Atomic Numbers)          Masses                          Geom                  
	       4.000000             9.012183          0.00000000  0.00000000  3.01881482   
	      10.000000            19.992440          0.00000000  0.00000000 -1.36081997   

	 - Coordinate -           - BOHR/RAD -       - ANG/DEG -
	 R(1,2)           =         4.379635           2.317603


	        --- Internal Coordinate Step in ANG or DEG, aJ/ANG or AJ/DEG ---
	-------------------------------------------------------------------------------
	           Coordinate      Previous         Force          Change          New 
	           ----------      --------        ------          ------        ------
	               R(1,2)       2.31760        0.00397        0.00489       2.32249
	-------------------------------------------------------------------------------

	                                 ==> Convergence Check <==                                  
    
	Measures of convergence in internal coordinates in au.
    
	Criteria marked as inactive (o), active & met (*), and active & unmet ( ).

	----------------------------------------------------------------------------------------------
	   Step    Total Energy     Delta E     Max Force     RMS Force      Max Disp      RMS Disp   
	----------------------------------------------------------------------------------------------
	  Convergence Criteria     1.00e-06 *    3.00e-04 *             o    1.20e-03 *             o
	----------------------------------------------------------------------------------------------
	     8    -142.83141810   -1.32e-04      4.82e-04      4.82e-04 o    9.24e-03      9.24e-03 o  ~
	----------------------------------------------------------------------------------------------

Next Geometry in Ang 
	Fragment 1 (Ang)

	   Be   0.0000000000   0.0000000000   1.5999329700
	   Ne   0.0000000000   0.0000000000  -0.7225598779


    Structure for next step:
    Molecular point group: c2v
    Full point group: C_inf_v

    Geometry (in Angstrom), charge = -1, multiplicity = 6:

    BE           0.000000000000     0.000000000000     1.600858557464
    NE           0.000000000000     0.000000000000    -0.721634290456


Scratch directory: /tmp/
gradient() will perform analytic gradient computation.
   => Libint2 <=

    Primary   basis highest AM E, G, H:  6, 6, 3
    Auxiliary basis highest AM E, G, H:  7, 7, 4
    Onebody   basis highest AM E, G, H:  -, -, -
    Solid Harmonics ordering:            Gaussian

*** tstart() called on cics-quant-001
*** at Tue Dec 23 10:46:41 2025

   => Loading Basis Set <=

    Name: CC-PVDZ
    Role: ORBITAL
    Keyword: BASIS
    atoms 1 entry BE         line    75 file /home/jrodriguesro/psi4conda/share/psi4/basis/cc-pvdz.gbs 
    atoms 2 entry NE         line   258 file /home/jrodriguesro/psi4conda/share/psi4/basis/cc-pvdz.gbs 


         ---------------------------------------------------------
                                   SCF
               by Justin Turney, Rob Parrish, Andy Simmonett
                          and Daniel G. A. Smith
                              UKS Reference
                        6 Threads,   7629 MiB Core
         ---------------------------------------------------------

  ==> Geometry <==

    Molecular point group: c2v
    Full point group: C_inf_v

    Geometry (in Angstrom), charge = -1, multiplicity = 6:

       Center              X                  Y                   Z               Mass       
    ------------   -----------------  -----------------  -----------------  -----------------
         BE           0.000000000000     0.000000000000     1.600858557464     9.012183065000
         NE           0.000000000000     0.000000000000    -0.721634290456    19.992440176200

  Running in c2v symmetry.

  Rotational constants: A = ************  B =      0.50311  C =      0.50311 [cm^-1]
  Rotational constants: A = ************  B =  15082.72620  C =  15082.72620 [MHz]
  Nuclear repulsion =    9.113952038975190

  Charge       = -1
  Multiplicity = 6
  Electrons    = 15
  Nalpha       = 10
  Nbeta        = 5

  ==> Algorithm <==

  SCF Algorithm Type is DF.
  DIIS enabled.
  MOM disabled.
  Fractional occupation disabled.
  Guess Type is READ.
  Energy threshold   = 1.00e-08
  Density threshold  = 1.00e-08
  Integral threshold = 1.00e-12

  ==> Primary Basis <==

  Basis Set: CC-PVDZ
    Blend: CC-PVDZ
    Number of shells: 12
    Number of basis functions: 28
    Number of Cartesian functions: 30
    Spherical Harmonics?: true
    Max angular momentum: 2

  ==> DFT Potential <==

   => LibXC <=

    Version 7.0.0
    S. Lehtola, C. Steigemann, M. J.T. Oliveira, and M. A.L. Marques.,  SoftwareX 7, 1–5 (2018) (10.1016/j.softx.2017.11.002)

   => Composite Functional: B3LYP <= 

    B3LYP Hyb-GGA Exchange-Correlation Functional

    P. J. Stephens, F. J. Devlin, C. F. Chabalowski, and M. J. Frisch.,  J. Phys. Chem. 98, 11623 (1994) (10.1021/j100096a001)

    Deriv               =              1
    GGA                 =           TRUE
    Meta                =          FALSE

    Exchange Hybrid     =           TRUE
    MP2 Hybrid          =          FALSE

   => Exchange Functionals <=

    0.0800   Slater exchange
    0.7200         Becke 88

   => Exact (HF) Exchange <=

    0.2000               HF 

   => Correlation Functionals <=

    0.1900   Vosko, Wilk & Nusair (VWN5_RPA)
    0.8100   Lee, Yang & Parr

   => LibXC Density Thresholds  <==

    XC_HYB_GGA_XC_B3LYP:  1.00E-15 

   => Molecular Quadrature <=

    Radial Scheme          =       TREUTLER
    Pruning Scheme         =           NONE
    Nuclear Scheme         =       TREUTLER

    Blocking Scheme        =         OCTREE
    BS radius alpha        =              1
    Pruning alpha          =              1
    Radial Points          =             75
    Spherical Points       =            302
    Total Points           =          43618
    Total Blocks           =            398
    Max Points             =            255
    Max Functions          =             28
    Weights Tolerance      =       1.00E-15

   => Loading Basis Set <=

    Name: (CC-PVDZ AUX)
    Role: JKFIT
    Keyword: DF_BASIS_SCF
    atoms 1 entry BE         line    96 file /home/jrodriguesro/psi4conda/share/psi4/basis/def2-universal-jkfit.gbs 
    atoms 2 entry NE         line   321 file /home/jrodriguesro/psi4conda/share/psi4/basis/cc-pvdz-jkfit.gbs 

   => Loading Basis Set <=

    Name: CC-PVDZ
    Role: ORBITAL
    Keyword: BASIS
    atoms 1 entry BE         line    75 file /home/jrodriguesro/psi4conda/share/psi4/basis/cc-pvdz.gbs 
    atoms 2 entry NE         line   258 file /home/jrodriguesro/psi4conda/share/psi4/basis/cc-pvdz.gbs 

  Reading orbitals from file /tmp/sextet_BeNe.default.348453.180.npy, no projection.

  ==> Integral Setup <==

  DFHelper Memory: AOs need 0.001 GiB; user supplied 5.557 GiB. 
  SCF_SUBTYPE=INCORE selected. In-core MEM_DF algorithm will be used.
  Using in-core AOs.

  ==> MemDFJK: Density-Fitted J/K Matrices <==

    J tasked:                   Yes
    K tasked:                   Yes
    wK tasked:                   No
    OpenMP threads:               6
    Memory [MiB]:              5690
    Algorithm:                 Core
    Schwarz Cutoff:           1E-12
    Mask sparsity (%):       0.0000
    Fitting Condition:        1E-10

   => Auxiliary Basis Set <=

  Basis Set: (CC-PVDZ AUX)
    Blend: CC-PVDZ-JKFIT + DEF2-UNIVERSAL-JKFIT
    Number of shells: 41
    Number of basis functions: 121
    Number of Cartesian functions: 141
    Spherical Harmonics?: true
    Max angular momentum: 3

  Cached 100.0% of DFT collocation blocks in 0.031 [GiB].

  Minimum eigenvalue in the overlap matrix is 3.7114328509E-02.
  Reciprocal condition number of the overlap matrix is 1.5643090936E-02.
    Using symmetric orthogonalization.

  ==> Pre-Iterations <==

  SCF Guess: Orbitals guess was supplied from a previous computation.

   -------------------------------------------------------
    Irrep   Nso     Nmo     Nalpha   Nbeta   Ndocc  Nsocc
   -------------------------------------------------------
     A1        14      14       6       4       4       2
     A2         2       2       0       0       0       0
     B1         6       6       2       0       0       2
     B2         6       6       2       1       1       1
   -------------------------------------------------------
    Total      28      28      10       5       5       5
   -------------------------------------------------------

  ==> Iterations <==

                           Total Energy        Delta E     RMS |[F,P]|

   @DF-UKS iter   0:  -142.83128352108628   -1.42831e+02   2.88318e-04 
   @DF-UKS iter   1:  -142.83142012658064   -1.36605e-04   2.04339e-05 DIIS
   @DF-UKS iter   2:  -142.83142022439250   -9.78119e-08   1.18517e-05 DIIS/DAMP=1%
   @DF-UKS iter   3:  -142.83142712084481   -6.89645e-06   5.58284e-07 DIIS/DAMP=1%
   @DF-UKS iter   4:  -142.83142013704870    6.98380e-06   2.87688e-07 DIIS/DAMP=1%
   @DF-UKS iter   5:  -142.83142034736329   -2.10315e-07   4.57572e-08 DIIS/DAMP=1%
   @DF-UKS iter   6:  -142.83142028017994    6.71834e-08   8.27157e-09 DIIS/DAMP=1%
   @DF-UKS iter   7:  -142.83142026679164    1.33883e-08   1.16321e-09 DIIS/DAMP=1%
   @DF-UKS iter   8:  -142.83142026822165   -1.43001e-09   1.51459e-10 DIIS/DAMP=1%
  Energy and wave function converged.


  ==> Post-Iterations <==

   Electrons on quadrature grid:
      Nalpha   =   10.0000053148 ; deviation = 5.315e-06
      Nbeta    =    5.0000006565 ; deviation = 6.565e-07
      Ntotal   =   15.0000059713 ; deviation = 5.971e-06 

   @Spin Contamination Metric:   7.420609253E-04
   @S^2 Expected:                8.750000000E+00
   @S^2 Observed:                8.750742061E+00
   @S   Expected:                2.500000000E+00
   @S   Observed:                2.500000000E+00

    Orbital Energies [Eh]
    ---------------------

    Alpha Occupied:                                                       

       1A1   -31.442786     2A1    -3.797518     3A1    -1.815975  
       1B1    -0.987154     4A1    -0.880152     1B2    -0.877557  
       5A1    -0.038430     2B1     0.109620     2B2     0.111344  
       6A1     0.111389  

    Alpha Virtual:                                                        

       7A1     0.336098     3B1     0.407650     3B2     0.408413  
       8A1     0.427689     4B1     0.674575     4B2     0.679002  
       9A1     0.710223     1A2     0.713048    10A1     0.713049  
       5B1     1.154727     5B2     1.209939    11A1     1.258989  
      12A1     1.920676    13A1     4.289115     2A2     4.312014  
       6B1     4.315327     6B2     4.398224    14A1     4.406939  

    Beta Occupied:                                                        

       1A1   -31.400193     2A1    -3.780672     3A1    -1.704202  
       4A1    -0.835878     1B2    -0.834835  

    Beta Virtual:                                                         

       1B1    -0.624249     5A1     0.126008     6A1     0.248055  
       2B2     0.250681     2B1     0.252476     7A1     0.411432  
       3B2     0.480215     3B1     0.480518     8A1     0.500185  
       4B2     0.792060     4B1     0.793973     9A1     0.813909  
       1A2     0.836265    10A1     0.836317     5B2     1.238278  
       5B1     1.268938    11A1     1.288325    12A1     1.983263  
       6B2     4.419723    13A1     4.426461     2A2     4.428122  
       6B1     4.431794    14A1     4.457633  

    Final Occupation by Irrep:
             A1    A2    B1    B2 
    DOCC [     4,    0,    0,    1 ]
    SOCC [     2,    0,    2,    1 ]
    NA   [     6,    0,    2,    2 ]
    NB   [     4,    0,    0,    1 ]

  @DF-UKS Final Energy:  -142.83142026822165

   => Energetics <=

    Nuclear Repulsion Energy =              9.1139520389751905
    One-Electron Energy =                -217.0646009523985072
    Two-Electron Energy =                  77.3382342798371383
    DFT Exchange-Correlation Energy =     -12.2190056346354581
    Empirical Dispersion Energy =           0.0000000000000000
    VV10 Nonlocal Energy =                  0.0000000000000000
    Total Energy =                       -142.8314202682216489

  UHF NO Occupations:
  HONO-2 :    6 A1 1.0000000
  HONO-1 :    1 B1 1.0000000
  HONO-0 :    2 B1 1.0000000
  LUNO+0 :    7 A1 0.0002643
  LUNO+1 :    8 A1 0.0000534
  LUNO+2 :    3 B2 0.0000533
  LUNO+3 :    9 A1 0.0000000


Computation Completed


Properties will be evaluated at   0.000000,   0.000000,   0.000000 [a0]

Properties computed using the SCF density matrix


 Multipole Moments:

 ------------------------------------------------------------------------------------
     Multipole            Electronic (a.u.)      Nuclear  (a.u.)        Total (a.u.)
 ------------------------------------------------------------------------------------

 L = 1.  Multiply by 2.5417464519 to convert [e a0] to [Debye]
 Dipole X            :          0.0000000            0.0000000            0.0000000
 Dipole Y            :          0.0000000            0.0000000            0.0000000
 Dipole Z            :         -5.4407982           -1.5361748           -6.9769730
 Magnitude           :                                                    6.9769730

 ------------------------------------------------------------------------------------

*** tstop() called on cics-quant-001 at Tue Dec 23 10:46:41 2025
Module time:
	user time   =       0.50 seconds =       0.01 minutes
	system time =       0.02 seconds =       0.00 minutes
	total time  =          0 seconds =       0.00 minutes
Total time:
	user time   =       6.45 seconds =       0.11 minutes
	system time =       0.78 seconds =       0.01 minutes
	total time  =          3 seconds =       0.05 minutes

*** tstart() called on cics-quant-001
*** at Tue Dec 23 10:46:41 2025


         ------------------------------------------------------------
                                   SCF GRAD                          
                          Rob Parrish, Justin Turney,                
                       Andy Simmonett, and Alex Sokolov              
         ------------------------------------------------------------

  ==> Geometry <==

    Molecular point group: c2v
    Full point group: C_inf_v

    Geometry (in Angstrom), charge = -1, multiplicity = 6:

       Center              X                  Y                   Z               Mass       
    ------------   -----------------  -----------------  -----------------  -----------------
         BE           0.000000000000     0.000000000000     1.600858557464     9.012183065000
         NE           0.000000000000     0.000000000000    -0.721634290456    19.992440176200

  Nuclear repulsion =    9.113952038975190

  ==> Basis Set <==

  Basis Set: CC-PVDZ
    Blend: CC-PVDZ
    Number of shells: 12
    Number of basis functions: 28
    Number of Cartesian functions: 30
    Spherical Harmonics?: true
    Max angular momentum: 2

  ==> DFJKGrad: Density-Fitted SCF Gradients <==

    Gradient:                    1
    J tasked:                  Yes
    K tasked:                  Yes
    wK tasked:                  No
    OpenMP threads:              6
    Integrals threads:           6
    Memory [MiB]:             5722
    Schwarz Cutoff:          1E-12
    Fitting Condition:       1E-10

   => Auxiliary Basis Set <=

  Basis Set: (CC-PVDZ AUX)
    Blend: CC-PVDZ-JKFIT + DEF2-UNIVERSAL-JKFIT
    Number of shells: 41
    Number of basis functions: 121
    Number of Cartesian functions: 141
    Spherical Harmonics?: true
    Max angular momentum: 3

  ==> DFT Potential <==

   => LibXC <=

    Version 7.0.0
    S. Lehtola, C. Steigemann, M. J.T. Oliveira, and M. A.L. Marques.,  SoftwareX 7, 1–5 (2018) (10.1016/j.softx.2017.11.002)

   => Composite Functional: B3LYP <= 

    B3LYP Hyb-GGA Exchange-Correlation Functional

    P. J. Stephens, F. J. Devlin, C. F. Chabalowski, and M. J. Frisch.,  J. Phys. Chem. 98, 11623 (1994) (10.1021/j100096a001)

    Deriv               =              1
    GGA                 =           TRUE
    Meta                =          FALSE

    Exchange Hybrid     =           TRUE
    MP2 Hybrid          =          FALSE

   => Exchange Functionals <=

    0.0800   Slater exchange
    0.7200         Becke 88

   => Exact (HF) Exchange <=

    0.2000               HF 

   => Correlation Functionals <=

    0.1900   Vosko, Wilk & Nusair (VWN5_RPA)
    0.8100   Lee, Yang & Parr

   => LibXC Density Thresholds  <==

    XC_HYB_GGA_XC_B3LYP:  1.00E-15 

   => Molecular Quadrature <=

    Radial Scheme          =       TREUTLER
    Pruning Scheme         =           NONE
    Nuclear Scheme         =       TREUTLER

    Blocking Scheme        =         OCTREE
    BS radius alpha        =              1
    Pruning alpha          =              1
    Radial Points          =             75
    Spherical Points       =            302
    Total Points           =          43618
    Total Blocks           =            398
    Max Points             =            255
    Max Functions          =             28
    Weights Tolerance      =       1.00E-15


  -Total Gradient:
     Atom            X                  Y                   Z
    ------   -----------------  -----------------  -----------------
       1        0.000000000000    -0.000000000000    -0.000059171784
       2       -0.000000000000     0.000000000000     0.000071564805


*** tstop() called on cics-quant-001 at Tue Dec 23 10:46:41 2025
Module time:
	user time   =       0.15 seconds =       0.00 minutes
	system time =       0.06 seconds =       0.00 minutes
	total time  =          0 seconds =       0.00 minutes
Total time:
	user time   =       6.60 seconds =       0.11 minutes
	system time =       0.84 seconds =       0.01 minutes
	total time  =          3 seconds =       0.05 minutes

    			-----------------------------------------

    			 OPTKING 3.0: for geometry optimizations 

    			     By R.A. King, Bethel University     

    			        with contributions from          

    			    A.V. Copan, J. Cayton, A. Heide      

    			-----------------------------------------

    
	                            ===> Fragment 1 <== 

	 Z (Atomic Numbers)          Masses                          Geom                  
	       4.000000             9.012183          0.00000000  0.00000000  3.02518424   
	      10.000000            19.992440          0.00000000  0.00000000 -1.36369117   

	 - Coordinate -           - BOHR/RAD -       - ANG/DEG -
	 R(1,2)           =         4.388875           2.322493


	        --- Internal Coordinate Step in ANG or DEG, aJ/ANG or AJ/DEG ---
	-------------------------------------------------------------------------------
	           Coordinate      Previous         Force          Change          New 
	           ----------      --------        ------          ------        ------
	               R(1,2)       2.32249        0.00054        0.00067       2.32316
	-------------------------------------------------------------------------------

	                                 ==> Convergence Check <==                                  
    
	Measures of convergence in internal coordinates in au.
    
	Criteria marked as inactive (o), active & met (*), and active & unmet ( ).

	----------------------------------------------------------------------------------------------
	   Step    Total Energy     Delta E     Max Force     RMS Force      Max Disp      RMS Disp   
	----------------------------------------------------------------------------------------------
	  Convergence Criteria     1.00e-06 *    3.00e-04 *             o    1.20e-03 *             o
	----------------------------------------------------------------------------------------------
	     9    -142.83142027   -2.17e-06      6.54e-05 *    6.54e-05 o    1.26e-03      1.26e-03 o  ~
	----------------------------------------------------------------------------------------------

Next Geometry in Ang 
	Fragment 1 (Ang)

	   Be   0.0000000000   0.0000000000   1.6011916342
	   Ne   0.0000000000   0.0000000000  -0.7219673672


    Structure for next step:
    Molecular point group: c2v
    Full point group: C_inf_v

    Geometry (in Angstrom), charge = -1, multiplicity = 6:

    BE           0.000000000000     0.000000000000     1.601317726805
    NE           0.000000000000     0.000000000000    -0.721841274602


Scratch directory: /tmp/
gradient() will perform analytic gradient computation.
   => Libint2 <=

    Primary   basis highest AM E, G, H:  6, 6, 3
    Auxiliary basis highest AM E, G, H:  7, 7, 4
    Onebody   basis highest AM E, G, H:  -, -, -
    Solid Harmonics ordering:            Gaussian

*** tstart() called on cics-quant-001
*** at Tue Dec 23 10:46:41 2025

   => Loading Basis Set <=

    Name: CC-PVDZ
    Role: ORBITAL
    Keyword: BASIS
    atoms 1 entry BE         line    75 file /home/jrodriguesro/psi4conda/share/psi4/basis/cc-pvdz.gbs 
    atoms 2 entry NE         line   258 file /home/jrodriguesro/psi4conda/share/psi4/basis/cc-pvdz.gbs 


         ---------------------------------------------------------
                                   SCF
               by Justin Turney, Rob Parrish, Andy Simmonett
                          and Daniel G. A. Smith
                              UKS Reference
                        6 Threads,   7629 MiB Core
         ---------------------------------------------------------

  ==> Geometry <==

    Molecular point group: c2v
    Full point group: C_inf_v

    Geometry (in Angstrom), charge = -1, multiplicity = 6:

       Center              X                  Y                   Z               Mass       
    ------------   -----------------  -----------------  -----------------  -----------------
         BE           0.000000000000     0.000000000000     1.601317726805     9.012183065000
         NE           0.000000000000     0.000000000000    -0.721841274602    19.992440176200

  Running in c2v symmetry.

  Rotational constants: A = ************  B =      0.50282  C =      0.50282 [cm^-1]
  Rotational constants: A = ************  B =  15074.07765  C =  15074.07765 [MHz]
  Nuclear repulsion =    9.111338661703050

  Charge       = -1
  Multiplicity = 6
  Electrons    = 15
  Nalpha       = 10
  Nbeta        = 5

  ==> Algorithm <==

  SCF Algorithm Type is DF.
  DIIS enabled.
  MOM disabled.
  Fractional occupation disabled.
  Guess Type is READ.
  Energy threshold   = 1.00e-08
  Density threshold  = 1.00e-08
  Integral threshold = 1.00e-12

  ==> Primary Basis <==

  Basis Set: CC-PVDZ
    Blend: CC-PVDZ
    Number of shells: 12
    Number of basis functions: 28
    Number of Cartesian functions: 30
    Spherical Harmonics?: true
    Max angular momentum: 2

  ==> DFT Potential <==

   => LibXC <=

    Version 7.0.0
    S. Lehtola, C. Steigemann, M. J.T. Oliveira, and M. A.L. Marques.,  SoftwareX 7, 1–5 (2018) (10.1016/j.softx.2017.11.002)

   => Composite Functional: B3LYP <= 

    B3LYP Hyb-GGA Exchange-Correlation Functional

    P. J. Stephens, F. J. Devlin, C. F. Chabalowski, and M. J. Frisch.,  J. Phys. Chem. 98, 11623 (1994) (10.1021/j100096a001)

    Deriv               =              1
    GGA                 =           TRUE
    Meta                =          FALSE

    Exchange Hybrid     =           TRUE
    MP2 Hybrid          =          FALSE

   => Exchange Functionals <=

    0.0800   Slater exchange
    0.7200         Becke 88

   => Exact (HF) Exchange <=

    0.2000               HF 

   => Correlation Functionals <=

    0.1900   Vosko, Wilk & Nusair (VWN5_RPA)
    0.8100   Lee, Yang & Parr

   => LibXC Density Thresholds  <==

    XC_HYB_GGA_XC_B3LYP:  1.00E-15 

   => Molecular Quadrature <=

    Radial Scheme          =       TREUTLER
    Pruning Scheme         =           NONE
    Nuclear Scheme         =       TREUTLER

    Blocking Scheme        =         OCTREE
    BS radius alpha        =              1
    Pruning alpha          =              1
    Radial Points          =             75
    Spherical Points       =            302
    Total Points           =          43618
    Total Blocks           =            398
    Max Points             =            255
    Max Functions          =             28
    Weights Tolerance      =       1.00E-15

   => Loading Basis Set <=

    Name: (CC-PVDZ AUX)
    Role: JKFIT
    Keyword: DF_BASIS_SCF
    atoms 1 entry BE         line    96 file /home/jrodriguesro/psi4conda/share/psi4/basis/def2-universal-jkfit.gbs 
    atoms 2 entry NE         line   321 file /home/jrodriguesro/psi4conda/share/psi4/basis/cc-pvdz-jkfit.gbs 

   => Loading Basis Set <=

    Name: CC-PVDZ
    Role: ORBITAL
    Keyword: BASIS
    atoms 1 entry BE         line    75 file /home/jrodriguesro/psi4conda/share/psi4/basis/cc-pvdz.gbs 
    atoms 2 entry NE         line   258 file /home/jrodriguesro/psi4conda/share/psi4/basis/cc-pvdz.gbs 

  Reading orbitals from file /tmp/sextet_BeNe.default.348453.180.npy, no projection.

  ==> Integral Setup <==

  DFHelper Memory: AOs need 0.001 GiB; user supplied 5.557 GiB. 
  SCF_SUBTYPE=INCORE selected. In-core MEM_DF algorithm will be used.
  Using in-core AOs.

  ==> MemDFJK: Density-Fitted J/K Matrices <==

    J tasked:                   Yes
    K tasked:                   Yes
    wK tasked:                   No
    OpenMP threads:               6
    Memory [MiB]:              5690
    Algorithm:                 Core
    Schwarz Cutoff:           1E-12
    Mask sparsity (%):       0.0000
    Fitting Condition:        1E-10

   => Auxiliary Basis Set <=

  Basis Set: (CC-PVDZ AUX)
    Blend: CC-PVDZ-JKFIT + DEF2-UNIVERSAL-JKFIT
    Number of shells: 41
    Number of basis functions: 121
    Number of Cartesian functions: 141
    Spherical Harmonics?: true
    Max angular momentum: 3

  Cached 100.0% of DFT collocation blocks in 0.031 [GiB].

  Minimum eigenvalue in the overlap matrix is 3.7114241650E-02.
  Reciprocal condition number of the overlap matrix is 1.5645097301E-02.
    Using symmetric orthogonalization.

  ==> Pre-Iterations <==

  SCF Guess: Orbitals guess was supplied from a previous computation.

   -------------------------------------------------------
    Irrep   Nso     Nmo     Nalpha   Nbeta   Ndocc  Nsocc
   -------------------------------------------------------
     A1        14      14       6       4       4       2
     A2         2       2       0       0       0       0
     B1         6       6       2       0       0       2
     B2         6       6       2       1       1       1
   -------------------------------------------------------
    Total      28      28      10       5       5       5
   -------------------------------------------------------

  ==> Iterations <==

                           Total Energy        Delta E     RMS |[F,P]|

   @DF-UKS iter   0:  -142.83140141085090   -1.42831e+02   3.91753e-05 
   @DF-UKS iter   1:  -142.83142026501667   -1.88542e-05   2.76968e-06 DIIS
   @DF-UKS iter   2:  -142.83142026681656   -1.79989e-09   1.60509e-06 DIIS/DAMP=1%
   @DF-UKS iter   3:  -142.83142119562183   -9.28805e-07   7.55001e-08 DIIS/DAMP=1%
   @DF-UKS iter   4:  -142.83142024969706    9.45925e-07   3.89276e-08 DIIS/DAMP=1%
   @DF-UKS iter   5:  -142.83142027835788   -2.86608e-08   6.17735e-09 DIIS/DAMP=1%
   @DF-UKS iter   6:  -142.83142026922974    9.12814e-09   1.11388e-09 DIIS/DAMP=1%
  Energy and wave function converged.


  ==> Post-Iterations <==

   Electrons on quadrature grid:
      Nalpha   =   10.0000052772 ; deviation = 5.277e-06
      Nbeta    =    5.0000006367 ; deviation = 6.367e-07
      Ntotal   =   15.0000059139 ; deviation = 5.914e-06 

   @Spin Contamination Metric:   7.420365338E-04
   @S^2 Expected:                8.750000000E+00
   @S^2 Observed:                8.750742037E+00
   @S   Expected:                2.500000000E+00
   @S   Observed:                2.500000000E+00

    Orbital Energies [Eh]
    ---------------------

    Alpha Occupied:                                                       

       1A1   -31.442831     2A1    -3.797499     3A1    -1.816016  
       1B1    -0.987198     4A1    -0.880185     1B2    -0.877601  
       5A1    -0.038412     2B1     0.109649     2B2     0.111371  
       6A1     0.111395  

    Alpha Virtual:                                                        

       7A1     0.336153     3B1     0.407679     3B2     0.408442  
       8A1     0.427703     4B1     0.674625     4B2     0.679047  
       9A1     0.710160     1A2     0.713081    10A1     0.713082  
       5B1     1.154604     5B2     1.209818    11A1     1.258881  
      12A1     1.920349    13A1     4.289063     2A2     4.311967  
       6B1     4.315274     6B2     4.398171    14A1     4.406872  

    Beta Occupied:                                                        

       1A1   -31.400241     2A1    -3.780655     3A1    -1.704247  
       4A1    -0.835914     1B2    -0.834882  

    Beta Virtual:                                                         

       1B1    -0.624295     5A1     0.126029     6A1     0.248070  
       2B2     0.250708     2B1     0.252503     7A1     0.411487  
       3B2     0.480237     3B1     0.480541     8A1     0.500200  
       4B2     0.792123     4B1     0.794034     9A1     0.813844  
       1A2     0.836297    10A1     0.836348     5B2     1.238147  
       5B1     1.268811    11A1     1.288220    12A1     1.982932  
       6B2     4.419668    13A1     4.426398     2A2     4.428073  
       6B1     4.431739    14A1     4.457571  

    Final Occupation by Irrep:
             A1    A2    B1    B2 
    DOCC [     4,    0,    0,    1 ]
    SOCC [     2,    0,    2,    1 ]
    NA   [     6,    0,    2,    2 ]
    NB   [     4,    0,    0,    1 ]

  @DF-UKS Final Energy:  -142.83142026922974

   => Energetics <=

    Nuclear Repulsion Energy =              9.1113386617030496
    One-Electron Energy =                -217.0591299374005985
    Two-Electron Energy =                  77.3353410600103075
    DFT Exchange-Correlation Energy =     -12.2189700535424990
    Empirical Dispersion Energy =           0.0000000000000000
    VV10 Nonlocal Energy =                  0.0000000000000000
    Total Energy =                       -142.8314202692297386

  UHF NO Occupations:
  HONO-2 :    5 A1 1.0000000
  HONO-1 :    2 B1 1.0000000
  HONO-0 :    6 A1 1.0000000
  LUNO+0 :    7 A1 0.0002643
  LUNO+1 :    8 A1 0.0000534
  LUNO+2 :    3 B2 0.0000533
  LUNO+3 :    9 A1 0.0000000


Computation Completed


Properties will be evaluated at   0.000000,   0.000000,   0.000000 [a0]

Properties computed using the SCF density matrix


 Multipole Moments:

 ------------------------------------------------------------------------------------
     Multipole            Electronic (a.u.)      Nuclear  (a.u.)        Total (a.u.)
 ------------------------------------------------------------------------------------

 L = 1.  Multiply by 2.5417464519 to convert [e a0] to [Debye]
 Dipole X            :          0.0000000            0.0000000            0.0000000
 Dipole Y            :          0.0000000            0.0000000            0.0000000
 Dipole Z            :         -5.4424678           -1.5366154           -6.9790831
 Magnitude           :                                                    6.9790831

 ------------------------------------------------------------------------------------

*** tstop() called on cics-quant-001 at Tue Dec 23 10:46:41 2025
Module time:
	user time   =       0.46 seconds =       0.01 minutes
	system time =       0.02 seconds =       0.00 minutes
	total time  =          0 seconds =       0.00 minutes
Total time:
	user time   =       7.08 seconds =       0.12 minutes
	system time =       0.86 seconds =       0.01 minutes
	total time  =          3 seconds =       0.05 minutes

*** tstart() called on cics-quant-001
*** at Tue Dec 23 10:46:41 2025


         ------------------------------------------------------------
                                   SCF GRAD                          
                          Rob Parrish, Justin Turney,                
                       Andy Simmonett, and Alex Sokolov              
         ------------------------------------------------------------

  ==> Geometry <==

    Molecular point group: c2v
    Full point group: C_inf_v

    Geometry (in Angstrom), charge = -1, multiplicity = 6:

       Center              X                  Y                   Z               Mass       
    ------------   -----------------  -----------------  -----------------  -----------------
         BE           0.000000000000     0.000000000000     1.601317726805     9.012183065000
         NE           0.000000000000     0.000000000000    -0.721841274602    19.992440176200

  Nuclear repulsion =    9.111338661703050

  ==> Basis Set <==

  Basis Set: CC-PVDZ
    Blend: CC-PVDZ
    Number of shells: 12
    Number of basis functions: 28
    Number of Cartesian functions: 30
    Spherical Harmonics?: true
    Max angular momentum: 2

  ==> DFJKGrad: Density-Fitted SCF Gradients <==

    Gradient:                    1
    J tasked:                  Yes
    K tasked:                  Yes
    wK tasked:                  No
    OpenMP threads:              6
    Integrals threads:           6
    Memory [MiB]:             5722
    Schwarz Cutoff:          1E-12
    Fitting Condition:       1E-10

   => Auxiliary Basis Set <=

  Basis Set: (CC-PVDZ AUX)
    Blend: CC-PVDZ-JKFIT + DEF2-UNIVERSAL-JKFIT
    Number of shells: 41
    Number of basis functions: 121
    Number of Cartesian functions: 141
    Spherical Harmonics?: true
    Max angular momentum: 3

  ==> DFT Potential <==

   => LibXC <=

    Version 7.0.0
    S. Lehtola, C. Steigemann, M. J.T. Oliveira, and M. A.L. Marques.,  SoftwareX 7, 1–5 (2018) (10.1016/j.softx.2017.11.002)

   => Composite Functional: B3LYP <= 

    B3LYP Hyb-GGA Exchange-Correlation Functional

    P. J. Stephens, F. J. Devlin, C. F. Chabalowski, and M. J. Frisch.,  J. Phys. Chem. 98, 11623 (1994) (10.1021/j100096a001)

    Deriv               =              1
    GGA                 =           TRUE
    Meta                =          FALSE

    Exchange Hybrid     =           TRUE
    MP2 Hybrid          =          FALSE

   => Exchange Functionals <=

    0.0800   Slater exchange
    0.7200         Becke 88

   => Exact (HF) Exchange <=

    0.2000               HF 

   => Correlation Functionals <=

    0.1900   Vosko, Wilk & Nusair (VWN5_RPA)
    0.8100   Lee, Yang & Parr

   => LibXC Density Thresholds  <==

    XC_HYB_GGA_XC_B3LYP:  1.00E-15 

   => Molecular Quadrature <=

    Radial Scheme          =       TREUTLER
    Pruning Scheme         =           NONE
    Nuclear Scheme         =       TREUTLER

    Blocking Scheme        =         OCTREE
    BS radius alpha        =              1
    Pruning alpha          =              1
    Radial Points          =             75
    Spherical Points       =            302
    Total Points           =          43618
    Total Blocks           =            398
    Max Points             =            255
    Max Functions          =             28
    Weights Tolerance      =       1.00E-15


  -Total Gradient:
     Atom            X                  Y                   Z
    ------   -----------------  -----------------  -----------------
       1        0.000000000000     0.000000000000    -0.000002638491
       2        0.000000000000    -0.000000000000     0.000015169884


*** tstop() called on cics-quant-001 at Tue Dec 23 10:46:42 2025
Module time:
	user time   =       0.12 seconds =       0.00 minutes
	system time =       0.06 seconds =       0.00 minutes
	total time  =          1 seconds =       0.02 minutes
Total time:
	user time   =       7.21 seconds =       0.12 minutes
	system time =       0.92 seconds =       0.02 minutes
	total time  =          4 seconds =       0.07 minutes

    			-----------------------------------------

    			 OPTKING 3.0: for geometry optimizations 

    			     By R.A. King, Bethel University     

    			        with contributions from          

    			    A.V. Copan, J. Cayton, A. Heide      

    			-----------------------------------------

    
	                            ===> Fragment 1 <== 

	 Z (Atomic Numbers)          Masses                          Geom                  
	       4.000000             9.012183          0.00000000  0.00000000  3.02605194   
	      10.000000            19.992440          0.00000000  0.00000000 -1.36408232   

	 - Coordinate -           - BOHR/RAD -       - ANG/DEG -
	 R(1,2)           =         4.390134           2.323159


	        --- Internal Coordinate Step in ANG or DEG, aJ/ANG or AJ/DEG ---
	-------------------------------------------------------------------------------
	           Coordinate      Previous         Force          Change          New 
	           ----------      --------        ------          ------        ------
	               R(1,2)       2.32316        0.00007        0.00009       2.32325
	-------------------------------------------------------------------------------

	                                 ==> Convergence Check <==                                  
    
	Measures of convergence in internal coordinates in au.
    
	Criteria marked as inactive (o), active & met (*), and active & unmet ( ).

	----------------------------------------------------------------------------------------------
	   Step    Total Energy     Delta E     Max Force     RMS Force      Max Disp      RMS Disp   
	----------------------------------------------------------------------------------------------
	  Convergence Criteria     1.00e-06 *    3.00e-04 *             o    1.20e-03 *             o
	----------------------------------------------------------------------------------------------
	    10    -142.83142027   -1.01e-09 *    8.90e-06 *    8.90e-06 o    1.72e-04 *    1.72e-04 o  ~
	----------------------------------------------------------------------------------------------

Next Geometry in Ang 
	Fragment 1 (Ang)

	   Be   0.0000000000   0.0000000000   1.6013631261
	   Ne   0.0000000000   0.0000000000  -0.7218866739


    Final optimized geometry and variables:
    Molecular point group: c2v
    Full point group: C_inf_v

    Geometry (in Angstrom), charge = -1, multiplicity = 6:

    BE           0.000000000000     0.000000000000     1.601317726805
    NE           0.000000000000     0.000000000000    -0.721841274602


    Psi4 stopped on: Tuesday, 23 December 2025 10:46AM
    Psi4 wall time for execution: 0:00:03.87

*** Psi4 exiting successfully. Buy a developer a beer!
