
    -----------------------------------------------------------------------
          Psi4: An Open-Source Ab Initio Electronic Structure Package
                               Psi4 1.10 release

                         Git: Rev {} zzzzzzz 


    D. G. A. Smith, L. A. Burns, A. C. Simmonett, R. M. Parrish,
    M. C. Schieber, R. Galvelis, P. Kraus, H. Kruse, R. Di Remigio,
    A. Alenaizan, A. M. James, S. Lehtola, J. P. Misiewicz, M. Scheurer,
    R. A. Shaw, J. B. Schriber, Y. Xie, Z. L. Glick, D. A. Sirianni,
    J. S. O'Brien, J. M. Waldrop, A. Kumar, E. G. Hohenstein,
    B. P. Pritchard, B. R. Brooks, H. F. Schaefer III, A. Yu. Sokolov,
    K. Patkowski, A. E. DePrince III, U. Bozkaya, R. A. King,
    F. A. Evangelista, J. M. Turney, T. D. Crawford, C. D. Sherrill,
    J. Chem. Phys. 152(18) 184108 (2020). https://doi.org/10.1063/5.0006002

                            Additional Code Authors
    E. T. Seidl, C. L. Janssen, E. F. Valeev, M. L. Leininger,
    J. F. Gonthier, R. M. Richard, H. R. McAlexander, M. Saitow, X. Wang,
    P. Verma, M. H. Lechner, A. Jiang, S. Behnle, A. G. Heide,
    M. F. Herbst, D. L. Poole, T. Győri, E. C. Mitchell, J. P. Pederson,
    and A. M. Wallace

             Previous Authors, Complete List of Code Contributors,
                       and Citations for Specific Modules
    https://github.com/psi4/psi4/blob/master/codemeta.json
    https://github.com/psi4/psi4/graphs/contributors
    https://psicode.org/psi4manual/master/introduction.html#citing-psifour

    -----------------------------------------------------------------------


    Psi4 started on: Tuesday, 23 December 2025 11:03AM

    Process ID: 378273
    Host:       cics-quant-001
    PSIDATADIR: /home/jrodriguesro/psi4conda/share/psi4
    Memory:     500.0 MiB
    Threads:    6
    Addons:     adcc, a̶m̶b̶i̶t̶, b̶s̶e̶, c̶c̶t̶3̶, c̶f̶o̶u̶r̶, c̶h̶e̶m̶p̶s̶2̶, c̶p̶p̶e̶, ddx, dftd3, dftd4,
                dkh, ecpint, einsums, f̶o̶r̶t̶e̶, g̶a̶u̶x̶c̶, gcp, g̶d̶m̶a̶, geometric,
                g̶p̶u̶_̶d̶f̶c̶c̶, i̶n̶t̶e̶g̶r̶a̶t̶o̶r̶x̶x̶, i̶p̶i̶, libefp, m̶d̶i̶, m̶p̶2̶d̶,
                m̶r̶c̶c̶, ooo, o̶p̶e̶n̶f̶e̶r̶m̶i̶o̶n̶p̶s̶i̶4̶, pcmsolver, p̶s̶i̶4̶f̶o̶c̶k̶c̶i̶,
                p̶s̶i̶x̶a̶s̶, r̶e̶s̶p̶, s̶i̶m̶i̶n̶t̶, s̶n̶s̶m̶p̶2̶, v̶2̶r̶d̶m̶_̶c̶a̶s̶s̶c̶f̶

  ==> Input File <==

--------------------------------------------------------------------------
memory 8 Gb

molecule { 
-1 3
N   0.00000        0.60000        0.00000
Si   0.00000       -0.60000        0.00000
}

set { 
basis              cc-pvdz
reference          uks
maxiter            500
geom_maxiter       500
DAMPING_PERCENTAGE 1
guess              SAP
}

optimize('b3lyp')
--------------------------------------------------------------------------

  Memory set to   7.451 GiB by Python driver.

Scratch directory: /tmp/
gradient() will perform analytic gradient computation.
   => Libint2 <=

    Primary   basis highest AM E, G, H:  6, 6, 3
    Auxiliary basis highest AM E, G, H:  7, 7, 4
    Onebody   basis highest AM E, G, H:  -, -, -
    Solid Harmonics ordering:            Gaussian

*** tstart() called on cics-quant-001
*** at Tue Dec 23 11:03:34 2025

   => Loading Basis Set <=

    Name: CC-PVDZ
    Role: ORBITAL
    Keyword: BASIS
    atoms 1 entry N          line   168 file /home/jrodriguesro/psi4conda/share/psi4/basis/cc-pvdz.gbs 
    atoms 2 entry SI         line   478 file /home/jrodriguesro/psi4conda/share/psi4/basis/cc-pvdz.gbs 


         ---------------------------------------------------------
                                   SCF
               by Justin Turney, Rob Parrish, Andy Simmonett
                          and Daniel G. A. Smith
                              UKS Reference
                        6 Threads,   7629 MiB Core
         ---------------------------------------------------------

  ==> Geometry <==

    Molecular point group: c2v
    Full point group: C_inf_v

    Geometry (in Angstrom), charge = -1, multiplicity = 3:

       Center              X                  Y                   Z               Mass       
    ------------   -----------------  -----------------  -----------------  -----------------
         N            0.000000000000     0.000000000000     0.799721567662    14.003074004430
         SI           0.000000000000     0.000000000000    -0.400278432338    27.976926534650

  Running in c2v symmetry.

  Rotational constants: A = ************  B =      1.25445  C =      1.25445 [cm^-1]
  Rotational constants: A = ************  B =  37607.43908  C =  37607.43908 [MHz]
  Nuclear repulsion =   43.216138871383336

  Charge       = -1
  Multiplicity = 3
  Electrons    = 22
  Nalpha       = 12
  Nbeta        = 10

  ==> Algorithm <==

  SCF Algorithm Type is DF.
  DIIS enabled.
  MOM disabled.
  Fractional occupation disabled.
  Guess Type is SAP.
  Energy threshold   = 1.00e-08
  Density threshold  = 1.00e-08
  Integral threshold = 1.00e-12

  ==> Primary Basis <==

  Basis Set: CC-PVDZ
    Blend: CC-PVDZ
    Number of shells: 14
    Number of basis functions: 32
    Number of Cartesian functions: 34
    Spherical Harmonics?: true
    Max angular momentum: 2

  ==> DFT Potential <==

   => LibXC <=

    Version 7.0.0
    S. Lehtola, C. Steigemann, M. J.T. Oliveira, and M. A.L. Marques.,  SoftwareX 7, 1–5 (2018) (10.1016/j.softx.2017.11.002)

   => Composite Functional: B3LYP <= 

    B3LYP Hyb-GGA Exchange-Correlation Functional

    P. J. Stephens, F. J. Devlin, C. F. Chabalowski, and M. J. Frisch.,  J. Phys. Chem. 98, 11623 (1994) (10.1021/j100096a001)

    Deriv               =              1
    GGA                 =           TRUE
    Meta                =          FALSE

    Exchange Hybrid     =           TRUE
    MP2 Hybrid          =          FALSE

   => Exchange Functionals <=

    0.0800   Slater exchange
    0.7200         Becke 88

   => Exact (HF) Exchange <=

    0.2000               HF 

   => Correlation Functionals <=

    0.1900   Vosko, Wilk & Nusair (VWN5_RPA)
    0.8100   Lee, Yang & Parr

   => LibXC Density Thresholds  <==

    XC_HYB_GGA_XC_B3LYP:  1.00E-15 

   => Molecular Quadrature <=

    Radial Scheme          =       TREUTLER
    Pruning Scheme         =           NONE
    Nuclear Scheme         =       TREUTLER

    Blocking Scheme        =         OCTREE
    BS radius alpha        =              1
    Pruning alpha          =              1
    Radial Points          =             75
    Spherical Points       =            302
    Total Points           =          42546
    Total Blocks           =            391
    Max Points             =            256
    Max Functions          =             32
    Weights Tolerance      =       1.00E-15

   => Loading Basis Set <=

    Name: (CC-PVDZ AUX)
    Role: JKFIT
    Keyword: DF_BASIS_SCF
    atoms 1 entry N          line   171 file /home/jrodriguesro/psi4conda/share/psi4/basis/cc-pvdz-jkfit.gbs 
    atoms 2 entry SI         line   445 file /home/jrodriguesro/psi4conda/share/psi4/basis/cc-pvdz-jkfit.gbs 

  ==> Integral Setup <==

  DFHelper Memory: AOs need 0.002 GiB; user supplied 5.549 GiB. 
  SCF_SUBTYPE=INCORE selected. In-core MEM_DF algorithm will be used.
  Using in-core AOs.

  ==> MemDFJK: Density-Fitted J/K Matrices <==

    J tasked:                   Yes
    K tasked:                   Yes
    wK tasked:                   No
    OpenMP threads:               6
    Memory [MiB]:              5682
    Algorithm:                 Core
    Schwarz Cutoff:           1E-12
    Mask sparsity (%):       0.0000
    Fitting Condition:        1E-10

   => Auxiliary Basis Set <=

  Basis Set: (CC-PVDZ AUX)
    Blend: CC-PVDZ-JKFIT
    Number of shells: 60
    Number of basis functions: 182
    Number of Cartesian functions: 211
    Spherical Harmonics?: true
    Max angular momentum: 3

  Cached 100.0% of DFT collocation blocks in 0.039 [GiB].

  Minimum eigenvalue in the overlap matrix is 8.0385801901E-03.
  Reciprocal condition number of the overlap matrix is 2.5644282839E-03.
    Using symmetric orthogonalization.

  ==> Pre-Iterations <==

  SCF Guess: Superposition of Atomic Potentials (doi:10.1021/acs.jctc.8b01089).

  ==> SAP guess <==

   => Molecular Quadrature <=

    Radial Scheme          =       TREUTLER
    Pruning Scheme         =           NONE
    Nuclear Scheme         =       TREUTLER

    Blocking Scheme        =         OCTREE
    BS radius alpha        =              1
    Pruning alpha          =              1
    Radial Points          =             75
    Spherical Points       =            302
    Total Points           =          42546
    Total Blocks           =            391
    Max Points             =            256
    Max Functions          =             32
    Weights Tolerance      =       1.00E-15

   -------------------------------------------------------
    Irrep   Nso     Nmo     Nalpha   Nbeta   Ndocc  Nsocc
   -------------------------------------------------------
     A1        16      16       7       6       6       1
     A2         2       2       0       0       0       0
     B1         7       7       3       2       2       1
     B2         7       7       2       2       2       0
   -------------------------------------------------------
    Total      32      32      12      10      10       2
   -------------------------------------------------------

  ==> Iterations <==

                           Total Energy        Delta E     RMS |[F,P]|

    Occupation by irrep:
             A1    A2    B1    B2 
    DOCC [     6,    0,    2,    2 ]
    SOCC [     2,    0,    0,    0 ]
    NA   [     8,    0,    2,    2 ]
    NB   [     6,    0,    2,    2 ]

   @DF-UKS iter   1:  -342.55660574152103   -3.42557e+02   7.91380e-02 ADIIS/DIIS
    Occupation by irrep:
             A1    A2    B1    B2 
    DOCC [     6,    0,    2,    2 ]
    SOCC [     1,    0,    1,    0 ]
    NA   [     7,    0,    3,    2 ]
    NB   [     6,    0,    2,    2 ]

   @DF-UKS iter   2:  -337.55419652651295    5.00241e+00   1.15170e-01 ADIIS/DAMP=1%
   @DF-UKS iter   3:  -343.23520610570461   -5.68101e+00   4.96940e-02 ADIIS/DIIS/DAMP=1%
   @DF-UKS iter   4:  -343.75004960416919   -5.14843e-01   5.82924e-03 ADIIS/DIIS/DAMP=1%
   @DF-UKS iter   5:  -343.78711148092810   -3.70619e-02   6.41386e-03 ADIIS/DIIS/DAMP=1%
   @DF-UKS iter   6:  -343.79244564826178   -5.33417e-03   9.74147e-04 ADIIS/DIIS/DAMP=1%
   @DF-UKS iter   7:  -343.79283101739708   -3.85369e-04   2.47514e-04 ADIIS/DIIS/DAMP=1%
   @DF-UKS iter   8:  -343.79348046038177   -6.49443e-04   1.34564e-04 ADIIS/DIIS/DAMP=1%
   @DF-UKS iter   9:  -343.79329805381923    1.82407e-04   8.46983e-06 DIIS/DAMP=1%
   @DF-UKS iter  10:  -343.79333335994596   -3.53061e-05   9.58954e-07 DIIS/DAMP=1%
   @DF-UKS iter  11:  -343.79333608734390   -2.72740e-06   5.15880e-07 DIIS/DAMP=1%
   @DF-UKS iter  12:  -343.79333643845848   -3.51115e-07   8.14633e-08 DIIS/DAMP=1%
   @DF-UKS iter  13:  -343.79333636138676    7.70717e-08   1.03548e-08 DIIS/DAMP=1%
   @DF-UKS iter  14:  -343.79333634071867    2.06681e-08   2.86449e-09 DIIS/DAMP=1%
   @DF-UKS iter  15:  -343.79333634144137   -7.22707e-10   9.78174e-10 DIIS/DAMP=1%
  Energy and wave function converged.


  ==> Post-Iterations <==

   Electrons on quadrature grid:
      Nalpha   =   11.9999998404 ; deviation = -1.596e-07
      Nbeta    =    9.9999998920 ; deviation = -1.080e-07
      Ntotal   =   21.9999997324 ; deviation = -2.676e-07 

   @Spin Contamination Metric:   6.069418057E-03
   @S^2 Expected:                2.000000000E+00
   @S^2 Observed:                2.006069418E+00
   @S   Expected:                1.000000000E+00
   @S   Observed:                1.000000000E+00

    Orbital Energies [Eh]
    ---------------------

    Alpha Occupied:                                                       

       1A1   -65.809063     2A1   -14.013122     3A1    -5.001109  
       4A1    -3.373636     1B2    -3.350262     1B1    -3.347468  
       5A1    -0.582318     6A1    -0.137610     2B1    -0.094202  
       2B2    -0.088035     7A1    -0.036394     3B1     0.167070  

    Alpha Virtual:                                                        

       3B2     0.223253     8A1     0.307337     9A1     0.493753  
       4B1     0.552184     4B2     0.554068     1A2     0.623055  
      10A1     0.624730    11A1     0.632774     5B2     0.821090  
       5B1     0.822016    12A1     0.913579     6B1     1.034561  
       6B2     1.037966    13A1     1.481156    14A1     1.768626  
       2A2     2.066395    15A1     2.066895     7B2     2.316735  
       7B1     2.318423    16A1     2.503706  

    Beta Occupied:                                                        

       1A1   -65.806146     2A1   -13.991023     3A1    -4.997798  
       4A1    -3.363290     1B2    -3.349017     1B1    -3.343757  
       5A1    -0.525903     2B2    -0.070056     6A1    -0.055526  
       2B1    -0.050466  

    Beta Virtual:                                                         

       7A1     0.104269     3B2     0.243281     3B1     0.266480  
       8A1     0.322420     9A1     0.517803     4B2     0.561142  
       4B1     0.580995    10A1     0.643431     1A2     0.646245  
      11A1     0.670599     5B2     0.839843     5B1     0.858215  
      12A1     0.946640     6B2     1.055767     6B1     1.071774  
      13A1     1.523359    14A1     1.812362    15A1     2.095710  
       2A2     2.095714     7B2     2.367337     7B1     2.382962  
      16A1     2.560332  

    Final Occupation by Irrep:
             A1    A2    B1    B2 
    DOCC [     6,    0,    2,    2 ]
    SOCC [     1,    0,    1,    0 ]
    NA   [     7,    0,    3,    2 ]
    NB   [     6,    0,    2,    2 ]

  @DF-UKS Final Energy:  -343.79333634144137

   => Energetics <=

    Nuclear Repulsion Energy =             43.2161388713833361
    One-Electron Energy =                -566.5068597500185206
    Two-Electron Energy =                 202.3178301502113072
    DFT Exchange-Correlation Energy =     -22.8204456130175224
    Empirical Dispersion Energy =           0.0000000000000000
    VV10 Nonlocal Energy =                  0.0000000000000000
    Total Energy =                       -343.7933363414413748

  UHF NO Occupations:
  HONO-2 :    6 A1 1.9987599
  HONO-1 :    7 A1 1.0000000
  HONO-0 :    3 B1 1.0000000
  LUNO+0 :    8 A1 0.0012401
  LUNO+1 :    4 B1 0.0007183
  LUNO+2 :    3 B2 0.0005894
  LUNO+3 :    9 A1 0.0004876


Computation Completed


Properties will be evaluated at   0.000000,   0.000000,   0.000000 [a0]

Properties computed using the SCF density matrix


 Multipole Moments:

 ------------------------------------------------------------------------------------
     Multipole            Electronic (a.u.)      Nuclear  (a.u.)        Total (a.u.)
 ------------------------------------------------------------------------------------

 L = 1.  Multiply by 2.5417464519 to convert [e a0] to [Debye]
 Dipole X            :          0.0000000            0.0000000            0.0000000
 Dipole Y            :          0.0000000            0.0000000            0.0000000
 Dipole Z            :          0.2042728           -0.0110494            0.1932234
 Magnitude           :                                                    0.1932234

 ------------------------------------------------------------------------------------

*** tstop() called on cics-quant-001 at Tue Dec 23 11:03:35 2025
Module time:
	user time   =       0.97 seconds =       0.02 minutes
	system time =       0.10 seconds =       0.00 minutes
	total time  =          1 seconds =       0.02 minutes
Total time:
	user time   =       0.97 seconds =       0.02 minutes
	system time =       0.10 seconds =       0.00 minutes
	total time  =          1 seconds =       0.02 minutes

*** tstart() called on cics-quant-001
*** at Tue Dec 23 11:03:35 2025


         ------------------------------------------------------------
                                   SCF GRAD                          
                          Rob Parrish, Justin Turney,                
                       Andy Simmonett, and Alex Sokolov              
         ------------------------------------------------------------

  ==> Geometry <==

    Molecular point group: c2v
    Full point group: C_inf_v

    Geometry (in Angstrom), charge = -1, multiplicity = 3:

       Center              X                  Y                   Z               Mass       
    ------------   -----------------  -----------------  -----------------  -----------------
         N            0.000000000000     0.000000000000     0.799721567662    14.003074004430
         SI           0.000000000000     0.000000000000    -0.400278432338    27.976926534650

  Nuclear repulsion =   43.216138871383336

  ==> Basis Set <==

  Basis Set: CC-PVDZ
    Blend: CC-PVDZ
    Number of shells: 14
    Number of basis functions: 32
    Number of Cartesian functions: 34
    Spherical Harmonics?: true
    Max angular momentum: 2

  ==> DFJKGrad: Density-Fitted SCF Gradients <==

    Gradient:                    1
    J tasked:                  Yes
    K tasked:                  Yes
    wK tasked:                  No
    OpenMP threads:              6
    Integrals threads:           6
    Memory [MiB]:             5722
    Schwarz Cutoff:          1E-12
    Fitting Condition:       1E-10

   => Auxiliary Basis Set <=

  Basis Set: (CC-PVDZ AUX)
    Blend: CC-PVDZ-JKFIT
    Number of shells: 60
    Number of basis functions: 182
    Number of Cartesian functions: 211
    Spherical Harmonics?: true
    Max angular momentum: 3

  ==> DFT Potential <==

   => LibXC <=

    Version 7.0.0
    S. Lehtola, C. Steigemann, M. J.T. Oliveira, and M. A.L. Marques.,  SoftwareX 7, 1–5 (2018) (10.1016/j.softx.2017.11.002)

   => Composite Functional: B3LYP <= 

    B3LYP Hyb-GGA Exchange-Correlation Functional

    P. J. Stephens, F. J. Devlin, C. F. Chabalowski, and M. J. Frisch.,  J. Phys. Chem. 98, 11623 (1994) (10.1021/j100096a001)

    Deriv               =              1
    GGA                 =           TRUE
    Meta                =          FALSE

    Exchange Hybrid     =           TRUE
    MP2 Hybrid          =          FALSE

   => Exchange Functionals <=

    0.0800   Slater exchange
    0.7200         Becke 88

   => Exact (HF) Exchange <=

    0.2000               HF 

   => Correlation Functionals <=

    0.1900   Vosko, Wilk & Nusair (VWN5_RPA)
    0.8100   Lee, Yang & Parr

   => LibXC Density Thresholds  <==

    XC_HYB_GGA_XC_B3LYP:  1.00E-15 

   => Molecular Quadrature <=

    Radial Scheme          =       TREUTLER
    Pruning Scheme         =           NONE
    Nuclear Scheme         =       TREUTLER

    Blocking Scheme        =         OCTREE
    BS radius alpha        =              1
    Pruning alpha          =              1
    Radial Points          =             75
    Spherical Points       =            302
    Total Points           =          42546
    Total Blocks           =            391
    Max Points             =            256
    Max Functions          =             32
    Weights Tolerance      =       1.00E-15


  -Total Gradient:
     Atom            X                  Y                   Z
    ------   -----------------  -----------------  -----------------
       1        0.000000000000    -0.000000000000    -1.079107789983
       2        0.000000000000    -0.000000000000     1.079075166590


*** tstop() called on cics-quant-001 at Tue Dec 23 11:03:35 2025
Module time:
	user time   =       0.18 seconds =       0.00 minutes
	system time =       0.13 seconds =       0.00 minutes
	total time  =          0 seconds =       0.00 minutes
Total time:
	user time   =       1.15 seconds =       0.02 minutes
	system time =       0.23 seconds =       0.00 minutes
	total time  =          1 seconds =       0.02 minutes

    			-----------------------------------------

    			 OPTKING 3.0: for geometry optimizations 

    			     By R.A. King, Bethel University     

    			        with contributions from          

    			    A.V. Copan, J. Cayton, A. Heide      

    			-----------------------------------------

    
	                            ===> Fragment 1 <== 

	 Z (Atomic Numbers)          Masses                          Geom                  
	       7.000000            14.003074          0.00000000  0.00000000  1.51125474   
	      14.000000            27.976927          0.00000000  0.00000000 -0.75641661   

	 - Coordinate -           - BOHR/RAD -       - ANG/DEG -
	 R(1,2)           =         2.267671           1.200000


	        --- Internal Coordinate Step in ANG or DEG, aJ/ANG or AJ/DEG ---
	-------------------------------------------------------------------------------
	           Coordinate      Previous         Force          Change          New 
	           ----------      --------        ------          ------        ------
	               R(1,2)       1.20000        8.89034        0.12849       1.32849
	-------------------------------------------------------------------------------

	                                 ==> Convergence Check <==                                  
    
	Measures of convergence in internal coordinates in au.
    
	Criteria marked as inactive (o), active & met (*), and active & unmet ( ).

	----------------------------------------------------------------------------------------------~
	   Step    Total Energy     Delta E     Max Force     RMS Force      Max Disp      RMS Disp   ~
	----------------------------------------------------------------------------------------------~
	  Convergence Criteria     1.00e-06 *    3.00e-04 *             o    1.20e-03 *             o~
	----------------------------------------------------------------------------------------------~
	     1    -343.79333634   -3.44e+02      1.08e+00      1.08e+00 o    2.43e-01      2.43e-01 o  ~
	----------------------------------------------------------------------------------------------

Next Geometry in Ang 
	Fragment 1 (Ang)

	    N   0.0000000000   0.0000000000   0.8639656146
	   Si   0.0000000000   0.0000000000  -0.4645224793


    Structure for next step:
    Molecular point group: c2v
    Full point group: C_inf_v

    Geometry (in Angstrom), charge = -1, multiplicity = 3:

    N            0.000000000000     0.000000000000     0.885350484278
    SI           0.000000000000     0.000000000000    -0.443137609696


Scratch directory: /tmp/
gradient() will perform analytic gradient computation.
   => Libint2 <=

    Primary   basis highest AM E, G, H:  6, 6, 3
    Auxiliary basis highest AM E, G, H:  7, 7, 4
    Onebody   basis highest AM E, G, H:  -, -, -
    Solid Harmonics ordering:            Gaussian

*** tstart() called on cics-quant-001
*** at Tue Dec 23 11:03:35 2025

   => Loading Basis Set <=

    Name: CC-PVDZ
    Role: ORBITAL
    Keyword: BASIS
    atoms 1 entry N          line   168 file /home/jrodriguesro/psi4conda/share/psi4/basis/cc-pvdz.gbs 
    atoms 2 entry SI         line   478 file /home/jrodriguesro/psi4conda/share/psi4/basis/cc-pvdz.gbs 


         ---------------------------------------------------------
                                   SCF
               by Justin Turney, Rob Parrish, Andy Simmonett
                          and Daniel G. A. Smith
                              UKS Reference
                        6 Threads,   7629 MiB Core
         ---------------------------------------------------------

  ==> Geometry <==

    Molecular point group: c2v
    Full point group: C_inf_v

    Geometry (in Angstrom), charge = -1, multiplicity = 3:

       Center              X                  Y                   Z               Mass       
    ------------   -----------------  -----------------  -----------------  -----------------
         N            0.000000000000     0.000000000000     0.885350484278    14.003074004430
         SI           0.000000000000     0.000000000000    -0.443137609696    27.976926534650

  Running in c2v symmetry.

  Rotational constants: A = ************  B =      1.02353  C =      1.02353 [cm^-1]
  Rotational constants: A = ************  B =  30684.63203  C =  30684.63203 [MHz]
  Nuclear repulsion =   39.036380439470172

  Charge       = -1
  Multiplicity = 3
  Electrons    = 22
  Nalpha       = 12
  Nbeta        = 10

  ==> Algorithm <==

  SCF Algorithm Type is DF.
  DIIS enabled.
  MOM disabled.
  Fractional occupation disabled.
  Guess Type is READ.
  Energy threshold   = 1.00e-08
  Density threshold  = 1.00e-08
  Integral threshold = 1.00e-12

  ==> Primary Basis <==

  Basis Set: CC-PVDZ
    Blend: CC-PVDZ
    Number of shells: 14
    Number of basis functions: 32
    Number of Cartesian functions: 34
    Spherical Harmonics?: true
    Max angular momentum: 2

  ==> DFT Potential <==

   => LibXC <=

    Version 7.0.0
    S. Lehtola, C. Steigemann, M. J.T. Oliveira, and M. A.L. Marques.,  SoftwareX 7, 1–5 (2018) (10.1016/j.softx.2017.11.002)

   => Composite Functional: B3LYP <= 

    B3LYP Hyb-GGA Exchange-Correlation Functional

    P. J. Stephens, F. J. Devlin, C. F. Chabalowski, and M. J. Frisch.,  J. Phys. Chem. 98, 11623 (1994) (10.1021/j100096a001)

    Deriv               =              1
    GGA                 =           TRUE
    Meta                =          FALSE

    Exchange Hybrid     =           TRUE
    MP2 Hybrid          =          FALSE

   => Exchange Functionals <=

    0.0800   Slater exchange
    0.7200         Becke 88

   => Exact (HF) Exchange <=

    0.2000               HF 

   => Correlation Functionals <=

    0.1900   Vosko, Wilk & Nusair (VWN5_RPA)
    0.8100   Lee, Yang & Parr

   => LibXC Density Thresholds  <==

    XC_HYB_GGA_XC_B3LYP:  1.00E-15 

   => Molecular Quadrature <=

    Radial Scheme          =       TREUTLER
    Pruning Scheme         =           NONE
    Nuclear Scheme         =       TREUTLER

    Blocking Scheme        =         OCTREE
    BS radius alpha        =              1
    Pruning alpha          =              1
    Radial Points          =             75
    Spherical Points       =            302
    Total Points           =          42578
    Total Blocks           =            390
    Max Points             =            256
    Max Functions          =             32
    Weights Tolerance      =       1.00E-15

   => Loading Basis Set <=

    Name: (CC-PVDZ AUX)
    Role: JKFIT
    Keyword: DF_BASIS_SCF
    atoms 1 entry N          line   171 file /home/jrodriguesro/psi4conda/share/psi4/basis/cc-pvdz-jkfit.gbs 
    atoms 2 entry SI         line   445 file /home/jrodriguesro/psi4conda/share/psi4/basis/cc-pvdz-jkfit.gbs 

   => Loading Basis Set <=

    Name: CC-PVDZ
    Role: ORBITAL
    Keyword: BASIS
    atoms 1 entry N          line   168 file /home/jrodriguesro/psi4conda/share/psi4/basis/cc-pvdz.gbs 
    atoms 2 entry SI         line   478 file /home/jrodriguesro/psi4conda/share/psi4/basis/cc-pvdz.gbs 

  Reading orbitals from file /tmp/triplet_NSi.default.378273.180.npy, no projection.

  ==> Integral Setup <==

  DFHelper Memory: AOs need 0.002 GiB; user supplied 5.549 GiB. 
  SCF_SUBTYPE=INCORE selected. In-core MEM_DF algorithm will be used.
  Using in-core AOs.

  ==> MemDFJK: Density-Fitted J/K Matrices <==

    J tasked:                   Yes
    K tasked:                   Yes
    wK tasked:                   No
    OpenMP threads:               6
    Memory [MiB]:              5682
    Algorithm:                 Core
    Schwarz Cutoff:           1E-12
    Mask sparsity (%):       0.0000
    Fitting Condition:        1E-10

   => Auxiliary Basis Set <=

  Basis Set: (CC-PVDZ AUX)
    Blend: CC-PVDZ-JKFIT
    Number of shells: 60
    Number of basis functions: 182
    Number of Cartesian functions: 211
    Spherical Harmonics?: true
    Max angular momentum: 3

  Cached 100.0% of DFT collocation blocks in 0.039 [GiB].

  Minimum eigenvalue in the overlap matrix is 1.1598052924E-02.
  Reciprocal condition number of the overlap matrix is 3.7412927543E-03.
    Using symmetric orthogonalization.

  ==> Pre-Iterations <==

  SCF Guess: Orbitals guess was supplied from a previous computation.

   -------------------------------------------------------
    Irrep   Nso     Nmo     Nalpha   Nbeta   Ndocc  Nsocc
   -------------------------------------------------------
     A1        16      16       7       6       6       1
     A2         2       2       0       0       0       0
     B1         7       7       3       2       2       1
     B2         7       7       2       2       2       0
   -------------------------------------------------------
    Total      32      32      12      10      10       2
   -------------------------------------------------------

  ==> Iterations <==

                           Total Energy        Delta E     RMS |[F,P]|

   @DF-UKS iter   0:  -343.97296058543697   -3.43973e+02   3.87614e-02 
   @DF-UKS iter   1:  -343.97847461722642   -5.51403e-03   4.70318e-03 ADIIS/DIIS
   @DF-UKS iter   2:  -343.97013390076421    8.34072e-03   8.10779e-03 ADIIS/DIIS/DAMP=1%
   @DF-UKS iter   3:  -343.98473388814381   -1.46000e-02   2.63799e-03 ADIIS/DIIS/DAMP=1%
   @DF-UKS iter   4:  -343.98180062304664    2.93327e-03   8.59667e-05 DIIS/DAMP=1%
   @DF-UKS iter   5:  -343.98176910973530    3.15133e-05   3.19718e-05 DIIS/DAMP=1%
   @DF-UKS iter   6:  -343.98190428171756   -1.35172e-04   2.12910e-05 DIIS/DAMP=1%
   @DF-UKS iter   7:  -343.98187251470091    3.17670e-05   2.65748e-06 DIIS/DAMP=1%
   @DF-UKS iter   8:  -343.98187745767518   -4.94297e-06   1.41785e-06 DIIS/DAMP=1%
   @DF-UKS iter   9:  -343.98187791671319   -4.59038e-07   3.06226e-07 DIIS/DAMP=1%
   @DF-UKS iter  10:  -343.98187764705870    2.69654e-07   2.25824e-08 DIIS/DAMP=1%
   @DF-UKS iter  11:  -343.98187771719228   -7.01336e-08   7.82392e-09 DIIS/DAMP=1%
   @DF-UKS iter  12:  -343.98187772644297   -9.25070e-09   9.13786e-10 DIIS/DAMP=1%
  Energy and wave function converged.


  ==> Post-Iterations <==

   Electrons on quadrature grid:
      Nalpha   =   11.9999999637 ; deviation = -3.633e-08
      Nbeta    =   10.0000000094 ; deviation = 9.408e-09
      Ntotal   =   21.9999999731 ; deviation = -2.692e-08 

   @Spin Contamination Metric:   7.455249843E-03
   @S^2 Expected:                2.000000000E+00
   @S^2 Observed:                2.007455250E+00
   @S   Expected:                1.000000000E+00
   @S   Observed:                1.000000000E+00

    Orbital Energies [Eh]
    ---------------------

    Alpha Occupied:                                                       

       1A1   -65.837013     2A1   -14.032030     3A1    -5.005685  
       4A1    -3.371474     1B2    -3.360255     1B1    -3.357550  
       5A1    -0.569354     6A1    -0.152125     2B1    -0.072212  
       2B2    -0.063916     7A1    -0.045750     3B1     0.154922  

    Alpha Virtual:                                                        

       3B2     0.212107     8A1     0.301892     9A1     0.488125  
       4B1     0.546936     4B2     0.548702     1A2     0.622037  
      10A1     0.623847    11A1     0.626721     5B1     0.781601  
       5B2     0.782113    12A1     0.880808     6B1     1.032941  
       6B2     1.036860    13A1     1.466421    14A1     1.539255  
       2A2     2.061413    15A1     2.061979     7B2     2.289422  
       7B1     2.290557    16A1     2.552205  

    Beta Occupied:                                                        

       1A1   -65.834445     2A1   -14.010518     3A1    -5.002863  
       4A1    -3.363321     1B2    -3.359287     1B1    -3.353385  
       5A1    -0.512938     6A1    -0.070562     2B2    -0.045333  
       2B1    -0.025073  

    Beta Virtual:                                                         

       7A1     0.093736     3B2     0.232827     3B1     0.256268  
       8A1     0.316434     9A1     0.511837     4B2     0.554719  
       4B1     0.574195    10A1     0.642271     1A2     0.645489  
      11A1     0.666259     5B2     0.801264     5B1     0.821501  
      12A1     0.911543     6B2     1.055430     6B1     1.070852  
      13A1     1.510967    14A1     1.584019    15A1     2.093742  
       2A2     2.093747     7B2     2.340566     7B1     2.357075  
      16A1     2.610584  

    Final Occupation by Irrep:
             A1    A2    B1    B2 
    DOCC [     6,    0,    2,    2 ]
    SOCC [     1,    0,    1,    0 ]
    NA   [     7,    0,    3,    2 ]
    NB   [     6,    0,    2,    2 ]

  @DF-UKS Final Energy:  -343.98187772644297

   => Energetics <=

    Nuclear Repulsion Energy =             39.0363804394701717
    One-Electron Energy =                -558.5282509026760636
    Two-Electron Energy =                 198.2215119709374846
    DFT Exchange-Correlation Energy =     -22.7115192341745598
    Empirical Dispersion Energy =           0.0000000000000000
    VV10 Nonlocal Energy =                  0.0000000000000000
    Total Energy =                       -343.9818777264429741

  UHF NO Occupations:
  HONO-2 :    6 A1 1.9986782
  HONO-1 :    7 A1 1.0000000
  HONO-0 :    3 B1 1.0000000
  LUNO+0 :    8 A1 0.0013218
  LUNO+1 :    3 B2 0.0009914
  LUNO+2 :    4 B1 0.0009704
  LUNO+3 :    9 A1 0.0004456


Computation Completed


Properties will be evaluated at   0.000000,   0.000000,   0.000000 [a0]

Properties computed using the SCF density matrix


 Multipole Moments:

 ------------------------------------------------------------------------------------
     Multipole            Electronic (a.u.)      Nuclear  (a.u.)        Total (a.u.)
 ------------------------------------------------------------------------------------

 L = 1.  Multiply by 2.5417464519 to convert [e a0] to [Debye]
 Dipole X            :          0.0000000            0.0000000            0.0000000
 Dipole Y            :          0.0000000            0.0000000            0.0000000
 Dipole Z            :          0.0506541           -0.0122325            0.0384216
 Magnitude           :                                                    0.0384216

 ------------------------------------------------------------------------------------

*** tstop() called on cics-quant-001 at Tue Dec 23 11:03:35 2025
Module time:
	user time   =       0.77 seconds =       0.01 minutes
	system time =       0.08 seconds =       0.00 minutes
	total time  =          0 seconds =       0.00 minutes
Total time:
	user time   =       1.94 seconds =       0.03 minutes
	system time =       0.31 seconds =       0.01 minutes
	total time  =          1 seconds =       0.02 minutes

*** tstart() called on cics-quant-001
*** at Tue Dec 23 11:03:35 2025


         ------------------------------------------------------------
                                   SCF GRAD                          
                          Rob Parrish, Justin Turney,                
                       Andy Simmonett, and Alex Sokolov              
         ------------------------------------------------------------

  ==> Geometry <==

    Molecular point group: c2v
    Full point group: C_inf_v

    Geometry (in Angstrom), charge = -1, multiplicity = 3:

       Center              X                  Y                   Z               Mass       
    ------------   -----------------  -----------------  -----------------  -----------------
         N            0.000000000000     0.000000000000     0.885350484278    14.003074004430
         SI           0.000000000000     0.000000000000    -0.443137609696    27.976926534650

  Nuclear repulsion =   39.036380439470172

  ==> Basis Set <==

  Basis Set: CC-PVDZ
    Blend: CC-PVDZ
    Number of shells: 14
    Number of basis functions: 32
    Number of Cartesian functions: 34
    Spherical Harmonics?: true
    Max angular momentum: 2

  ==> DFJKGrad: Density-Fitted SCF Gradients <==

    Gradient:                    1
    J tasked:                  Yes
    K tasked:                  Yes
    wK tasked:                  No
    OpenMP threads:              6
    Integrals threads:           6
    Memory [MiB]:             5722
    Schwarz Cutoff:          1E-12
    Fitting Condition:       1E-10

   => Auxiliary Basis Set <=

  Basis Set: (CC-PVDZ AUX)
    Blend: CC-PVDZ-JKFIT
    Number of shells: 60
    Number of basis functions: 182
    Number of Cartesian functions: 211
    Spherical Harmonics?: true
    Max angular momentum: 3

  ==> DFT Potential <==

   => LibXC <=

    Version 7.0.0
    S. Lehtola, C. Steigemann, M. J.T. Oliveira, and M. A.L. Marques.,  SoftwareX 7, 1–5 (2018) (10.1016/j.softx.2017.11.002)

   => Composite Functional: B3LYP <= 

    B3LYP Hyb-GGA Exchange-Correlation Functional

    P. J. Stephens, F. J. Devlin, C. F. Chabalowski, and M. J. Frisch.,  J. Phys. Chem. 98, 11623 (1994) (10.1021/j100096a001)

    Deriv               =              1
    GGA                 =           TRUE
    Meta                =          FALSE

    Exchange Hybrid     =           TRUE
    MP2 Hybrid          =          FALSE

   => Exchange Functionals <=

    0.0800   Slater exchange
    0.7200         Becke 88

   => Exact (HF) Exchange <=

    0.2000               HF 

   => Correlation Functionals <=

    0.1900   Vosko, Wilk & Nusair (VWN5_RPA)
    0.8100   Lee, Yang & Parr

   => LibXC Density Thresholds  <==

    XC_HYB_GGA_XC_B3LYP:  1.00E-15 

   => Molecular Quadrature <=

    Radial Scheme          =       TREUTLER
    Pruning Scheme         =           NONE
    Nuclear Scheme         =       TREUTLER

    Blocking Scheme        =         OCTREE
    BS radius alpha        =              1
    Pruning alpha          =              1
    Radial Points          =             75
    Spherical Points       =            302
    Total Points           =          42578
    Total Blocks           =            390
    Max Points             =            256
    Max Functions          =             32
    Weights Tolerance      =       1.00E-15


  -Total Gradient:
     Atom            X                  Y                   Z
    ------   -----------------  -----------------  -----------------
       1        0.000000000000    -0.000000000000    -0.528526413049
       2        0.000000000000    -0.000000000000     0.528514810575


*** tstop() called on cics-quant-001 at Tue Dec 23 11:03:35 2025
Module time:
	user time   =       0.22 seconds =       0.00 minutes
	system time =       0.13 seconds =       0.00 minutes
	total time  =          0 seconds =       0.00 minutes
Total time:
	user time   =       2.16 seconds =       0.04 minutes
	system time =       0.44 seconds =       0.01 minutes
	total time  =          1 seconds =       0.02 minutes

    			-----------------------------------------

    			 OPTKING 3.0: for geometry optimizations 

    			     By R.A. King, Bethel University     

    			        with contributions from          

    			    A.V. Copan, J. Cayton, A. Heide      

    			-----------------------------------------

    
	                            ===> Fragment 1 <== 

	 Z (Atomic Numbers)          Masses                          Geom                  
	       7.000000            14.003074          0.00000000  0.00000000  1.67306994   
	      14.000000            27.976927          0.00000000  0.00000000 -0.83740872   

	 - Coordinate -           - BOHR/RAD -       - ANG/DEG -
	 R(1,2)           =         2.510479           1.328488


	        --- Internal Coordinate Step in ANG or DEG, aJ/ANG or AJ/DEG ---
	-------------------------------------------------------------------------------
	           Coordinate      Previous         Force          Change          New 
	           ----------      --------        ------          ------        ------
	               R(1,2)       1.32849        4.35434        0.11728       1.44577
	-------------------------------------------------------------------------------

	                                 ==> Convergence Check <==                                  
    
	Measures of convergence in internal coordinates in au.
    
	Criteria marked as inactive (o), active & met (*), and active & unmet ( ).

	----------------------------------------------------------------------------------------------
	   Step    Total Energy     Delta E     Max Force     RMS Force      Max Disp      RMS Disp   
	----------------------------------------------------------------------------------------------
	  Convergence Criteria     1.00e-06 *    3.00e-04 *             o    1.20e-03 *             o
	----------------------------------------------------------------------------------------------
	     2    -343.98187773   -1.89e-01      5.29e-01      5.29e-01 o    2.22e-01      2.22e-01 o  ~
	----------------------------------------------------------------------------------------------

Next Geometry in Ang 
	Fragment 1 (Ang)

	    N   0.0000000000   0.0000000000   0.9439921977
	   Si   0.0000000000   0.0000000000  -0.5017793232


    Structure for next step:
    Molecular point group: c2v
    Full point group: C_inf_v

    Geometry (in Angstrom), charge = -1, multiplicity = 3:

    N            0.000000000000     0.000000000000     0.963512222648
    SI           0.000000000000     0.000000000000    -0.482259298255


Scratch directory: /tmp/
gradient() will perform analytic gradient computation.
   => Libint2 <=

    Primary   basis highest AM E, G, H:  6, 6, 3
    Auxiliary basis highest AM E, G, H:  7, 7, 4
    Onebody   basis highest AM E, G, H:  -, -, -
    Solid Harmonics ordering:            Gaussian

*** tstart() called on cics-quant-001
*** at Tue Dec 23 11:03:35 2025

   => Loading Basis Set <=

    Name: CC-PVDZ
    Role: ORBITAL
    Keyword: BASIS
    atoms 1 entry N          line   168 file /home/jrodriguesro/psi4conda/share/psi4/basis/cc-pvdz.gbs 
    atoms 2 entry SI         line   478 file /home/jrodriguesro/psi4conda/share/psi4/basis/cc-pvdz.gbs 


         ---------------------------------------------------------
                                   SCF
               by Justin Turney, Rob Parrish, Andy Simmonett
                          and Daniel G. A. Smith
                              UKS Reference
                        6 Threads,   7629 MiB Core
         ---------------------------------------------------------

  ==> Geometry <==

    Molecular point group: c2v
    Full point group: C_inf_v

    Geometry (in Angstrom), charge = -1, multiplicity = 3:

       Center              X                  Y                   Z               Mass       
    ------------   -----------------  -----------------  -----------------  -----------------
         N            0.000000000000     0.000000000000     0.963512222648    14.003074004430
         SI           0.000000000000     0.000000000000    -0.482259298255    27.976926534650

  Running in c2v symmetry.

  Rotational constants: A = ************  B =      0.86420  C =      0.86420 [cm^-1]
  Rotational constants: A = ************  B =  25908.18094  C =  25908.18094 [MHz]
  Nuclear repulsion =   35.869683346144456

  Charge       = -1
  Multiplicity = 3
  Electrons    = 22
  Nalpha       = 12
  Nbeta        = 10

  ==> Algorithm <==

  SCF Algorithm Type is DF.
  DIIS enabled.
  MOM disabled.
  Fractional occupation disabled.
  Guess Type is READ.
  Energy threshold   = 1.00e-08
  Density threshold  = 1.00e-08
  Integral threshold = 1.00e-12

  ==> Primary Basis <==

  Basis Set: CC-PVDZ
    Blend: CC-PVDZ
    Number of shells: 14
    Number of basis functions: 32
    Number of Cartesian functions: 34
    Spherical Harmonics?: true
    Max angular momentum: 2

  ==> DFT Potential <==

   => LibXC <=

    Version 7.0.0
    S. Lehtola, C. Steigemann, M. J.T. Oliveira, and M. A.L. Marques.,  SoftwareX 7, 1–5 (2018) (10.1016/j.softx.2017.11.002)

   => Composite Functional: B3LYP <= 

    B3LYP Hyb-GGA Exchange-Correlation Functional

    P. J. Stephens, F. J. Devlin, C. F. Chabalowski, and M. J. Frisch.,  J. Phys. Chem. 98, 11623 (1994) (10.1021/j100096a001)

    Deriv               =              1
    GGA                 =           TRUE
    Meta                =          FALSE

    Exchange Hybrid     =           TRUE
    MP2 Hybrid          =          FALSE

   => Exchange Functionals <=

    0.0800   Slater exchange
    0.7200         Becke 88

   => Exact (HF) Exchange <=

    0.2000               HF 

   => Correlation Functionals <=

    0.1900   Vosko, Wilk & Nusair (VWN5_RPA)
    0.8100   Lee, Yang & Parr

   => LibXC Density Thresholds  <==

    XC_HYB_GGA_XC_B3LYP:  1.00E-15 

   => Molecular Quadrature <=

    Radial Scheme          =       TREUTLER
    Pruning Scheme         =           NONE
    Nuclear Scheme         =       TREUTLER

    Blocking Scheme        =         OCTREE
    BS radius alpha        =              1
    Pruning alpha          =              1
    Radial Points          =             75
    Spherical Points       =            302
    Total Points           =          42608
    Total Blocks           =            393
    Max Points             =            256
    Max Functions          =             32
    Weights Tolerance      =       1.00E-15

   => Loading Basis Set <=

    Name: (CC-PVDZ AUX)
    Role: JKFIT
    Keyword: DF_BASIS_SCF
    atoms 1 entry N          line   171 file /home/jrodriguesro/psi4conda/share/psi4/basis/cc-pvdz-jkfit.gbs 
    atoms 2 entry SI         line   445 file /home/jrodriguesro/psi4conda/share/psi4/basis/cc-pvdz-jkfit.gbs 

   => Loading Basis Set <=

    Name: CC-PVDZ
    Role: ORBITAL
    Keyword: BASIS
    atoms 1 entry N          line   168 file /home/jrodriguesro/psi4conda/share/psi4/basis/cc-pvdz.gbs 
    atoms 2 entry SI         line   478 file /home/jrodriguesro/psi4conda/share/psi4/basis/cc-pvdz.gbs 

  Reading orbitals from file /tmp/triplet_NSi.default.378273.180.npy, no projection.

  ==> Integral Setup <==

  DFHelper Memory: AOs need 0.002 GiB; user supplied 5.549 GiB. 
  SCF_SUBTYPE=INCORE selected. In-core MEM_DF algorithm will be used.
  Using in-core AOs.

  ==> MemDFJK: Density-Fitted J/K Matrices <==

    J tasked:                   Yes
    K tasked:                   Yes
    wK tasked:                   No
    OpenMP threads:               6
    Memory [MiB]:              5682
    Algorithm:                 Core
    Schwarz Cutoff:           1E-12
    Mask sparsity (%):       0.0000
    Fitting Condition:        1E-10

   => Auxiliary Basis Set <=

  Basis Set: (CC-PVDZ AUX)
    Blend: CC-PVDZ-JKFIT
    Number of shells: 60
    Number of basis functions: 182
    Number of Cartesian functions: 211
    Spherical Harmonics?: true
    Max angular momentum: 3

  Cached 100.0% of DFT collocation blocks in 0.039 [GiB].

  Minimum eigenvalue in the overlap matrix is 1.5843200563E-02.
  Reciprocal condition number of the overlap matrix is 5.1818104066E-03.
    Using symmetric orthogonalization.

  ==> Pre-Iterations <==

  SCF Guess: Orbitals guess was supplied from a previous computation.

   -------------------------------------------------------
    Irrep   Nso     Nmo     Nalpha   Nbeta   Ndocc  Nsocc
   -------------------------------------------------------
     A1        16      16       7       6       6       1
     A2         2       2       0       0       0       0
     B1         7       7       3       2       2       1
     B2         7       7       2       2       2       0
   -------------------------------------------------------
    Total      32      32      12      10      10       2
   -------------------------------------------------------

  ==> Iterations <==

                           Total Energy        Delta E     RMS |[F,P]|

   @DF-UKS iter   0:  -344.04704352393225   -3.44047e+02   2.35404e-02 
   @DF-UKS iter   1:  -344.06409654923743   -1.70530e-02   1.62426e-03 ADIIS/DIIS
   @DF-UKS iter   2:  -344.06099368669908    3.10286e-03   4.27479e-03 ADIIS/DIIS/DAMP=1%
   @DF-UKS iter   3:  -344.06370696030666   -2.71327e-03   4.23041e-04 ADIIS/DIIS/DAMP=1%
   @DF-UKS iter   4:  -344.06527720918297   -1.57025e-03   1.36582e-04 ADIIS/DIIS/DAMP=1%
   @DF-UKS iter   5:  -344.06484981893300    4.27390e-04   3.32718e-05 DIIS/DAMP=1%
   @DF-UKS iter   6:  -344.06498370950129   -1.33891e-04   2.07651e-05 DIIS/DAMP=1%
   @DF-UKS iter   7:  -344.06495901917674    2.46903e-05   4.12994e-06 DIIS/DAMP=1%
   @DF-UKS iter   8:  -344.06496216181250   -3.14264e-06   1.15927e-06 DIIS/DAMP=1%
   @DF-UKS iter   9:  -344.06496238671065   -2.24898e-07   2.54771e-07 DIIS/DAMP=1%
   @DF-UKS iter  10:  -344.06496212906364    2.57647e-07   1.60633e-07 DIIS/DAMP=1%
   @DF-UKS iter  11:  -344.06496224942941   -1.20366e-07   1.13518e-08 DIIS/DAMP=1%
   @DF-UKS iter  12:  -344.06496221165565    3.77738e-08   3.87531e-09 DIIS/DAMP=1%
   @DF-UKS iter  13:  -344.06496221406417   -2.40851e-09   1.50194e-09 DIIS/DAMP=1%
  Energy and wave function converged.


  ==> Post-Iterations <==

   Electrons on quadrature grid:
      Nalpha   =   11.9999995972 ; deviation = -4.028e-07
      Nbeta    =    9.9999997210 ; deviation = -2.790e-07
      Ntotal   =   21.9999993182 ; deviation = -6.818e-07 

   @Spin Contamination Metric:   9.958437793E-03
   @S^2 Expected:                2.000000000E+00
   @S^2 Observed:                2.009958438E+00
   @S   Expected:                1.000000000E+00
   @S   Observed:                1.000000000E+00

    Orbital Energies [Eh]
    ---------------------

    Alpha Occupied:                                                       

       1A1   -65.859056     2A1   -14.051950     3A1    -5.014598  
       4A1    -3.377501     1B2    -3.371605     1B1    -3.368959  
       5A1    -0.551443     6A1    -0.163380     2B1    -0.057708  
       7A1    -0.051068     2B2    -0.047680     3B1     0.142247  

    Alpha Virtual:                                                        

       3B2     0.200104     8A1     0.296630     9A1     0.483446  
       4B1     0.543082     4B2     0.544895    10A1     0.619276  
       1A2     0.620178    11A1     0.622244     5B1     0.745479  
       5B2     0.747016    12A1     0.861880     6B1     1.033972  
       6B2     1.038092    13A1     1.350200    14A1     1.472119  
       2A2     2.055685    15A1     2.056293     7B2     2.250396  
       7B1     2.251162    16A1     2.604545  

    Beta Occupied:                                                        

       1A1   -65.856578     2A1   -14.030218     3A1    -5.011908  
       1B2    -3.370786     4A1    -3.370442     1B1    -3.364256  
       5A1    -0.493152     6A1    -0.084385     2B2    -0.027748  
       2B1    -0.007193  

    Beta Virtual:                                                         

       7A1     0.089458     3B2     0.220947     3B1     0.244665  
       8A1     0.311603     9A1     0.506083     4B2     0.549361  
       4B1     0.568652    10A1     0.639487     1A2     0.643345  
      11A1     0.659832     5B2     0.766170     5B1     0.787364  
      12A1     0.893251     6B2     1.057817     6B1     1.073098  
      13A1     1.404583    14A1     1.510864    15A1     2.090766  
       2A2     2.090767     7B2     2.303080     7B1     2.319980  
      16A1     2.664793  

    Final Occupation by Irrep:
             A1    A2    B1    B2 
    DOCC [     6,    0,    2,    2 ]
    SOCC [     1,    0,    1,    0 ]
    NA   [     7,    0,    3,    2 ]
    NB   [     6,    0,    2,    2 ]

  @DF-UKS Final Energy:  -344.06496221406417

   => Energetics <=

    Nuclear Repulsion Energy =             35.8696833461444555
    One-Electron Energy =                -552.3147665245639928
    Two-Electron Energy =                 195.0145578137726545
    DFT Exchange-Correlation Energy =     -22.6344368494173551
    Empirical Dispersion Energy =           0.0000000000000000
    VV10 Nonlocal Energy =                  0.0000000000000000
    Total Energy =                       -344.0649622140642236

  UHF NO Occupations:
  HONO-2 :    2 B2 1.9981931
  HONO-1 :    3 B1 1.0000000
  HONO-0 :    7 A1 1.0000000
  LUNO+0 :    3 B2 0.0018069
  LUNO+1 :    8 A1 0.0015453
  LUNO+2 :    4 B1 0.0012040
  LUNO+3 :    9 A1 0.0004263


Computation Completed


Properties will be evaluated at   0.000000,   0.000000,   0.000000 [a0]

Properties computed using the SCF density matrix


 Multipole Moments:

 ------------------------------------------------------------------------------------
     Multipole            Electronic (a.u.)      Nuclear  (a.u.)        Total (a.u.)
 ------------------------------------------------------------------------------------

 L = 1.  Multiply by 2.5417464519 to convert [e a0] to [Debye]
 Dipole X            :          0.0000000            0.0000000            0.0000000
 Dipole Y            :          0.0000000            0.0000000            0.0000000
 Dipole Z            :         -0.0610057           -0.0133124           -0.0743181
 Magnitude           :                                                    0.0743181

 ------------------------------------------------------------------------------------

*** tstop() called on cics-quant-001 at Tue Dec 23 11:03:36 2025
Module time:
	user time   =       0.91 seconds =       0.02 minutes
	system time =       0.07 seconds =       0.00 minutes
	total time  =          1 seconds =       0.02 minutes
Total time:
	user time   =       3.09 seconds =       0.05 minutes
	system time =       0.51 seconds =       0.01 minutes
	total time  =          2 seconds =       0.03 minutes

*** tstart() called on cics-quant-001
*** at Tue Dec 23 11:03:36 2025


         ------------------------------------------------------------
                                   SCF GRAD                          
                          Rob Parrish, Justin Turney,                
                       Andy Simmonett, and Alex Sokolov              
         ------------------------------------------------------------

  ==> Geometry <==

    Molecular point group: c2v
    Full point group: C_inf_v

    Geometry (in Angstrom), charge = -1, multiplicity = 3:

       Center              X                  Y                   Z               Mass       
    ------------   -----------------  -----------------  -----------------  -----------------
         N            0.000000000000     0.000000000000     0.963512222648    14.003074004430
         SI           0.000000000000     0.000000000000    -0.482259298255    27.976926534650

  Nuclear repulsion =   35.869683346144456

  ==> Basis Set <==

  Basis Set: CC-PVDZ
    Blend: CC-PVDZ
    Number of shells: 14
    Number of basis functions: 32
    Number of Cartesian functions: 34
    Spherical Harmonics?: true
    Max angular momentum: 2

  ==> DFJKGrad: Density-Fitted SCF Gradients <==

    Gradient:                    1
    J tasked:                  Yes
    K tasked:                  Yes
    wK tasked:                  No
    OpenMP threads:              6
    Integrals threads:           6
    Memory [MiB]:             5722
    Schwarz Cutoff:          1E-12
    Fitting Condition:       1E-10

   => Auxiliary Basis Set <=

  Basis Set: (CC-PVDZ AUX)
    Blend: CC-PVDZ-JKFIT
    Number of shells: 60
    Number of basis functions: 182
    Number of Cartesian functions: 211
    Spherical Harmonics?: true
    Max angular momentum: 3

  ==> DFT Potential <==

   => LibXC <=

    Version 7.0.0
    S. Lehtola, C. Steigemann, M. J.T. Oliveira, and M. A.L. Marques.,  SoftwareX 7, 1–5 (2018) (10.1016/j.softx.2017.11.002)

   => Composite Functional: B3LYP <= 

    B3LYP Hyb-GGA Exchange-Correlation Functional

    P. J. Stephens, F. J. Devlin, C. F. Chabalowski, and M. J. Frisch.,  J. Phys. Chem. 98, 11623 (1994) (10.1021/j100096a001)

    Deriv               =              1
    GGA                 =           TRUE
    Meta                =          FALSE

    Exchange Hybrid     =           TRUE
    MP2 Hybrid          =          FALSE

   => Exchange Functionals <=

    0.0800   Slater exchange
    0.7200         Becke 88

   => Exact (HF) Exchange <=

    0.2000               HF 

   => Correlation Functionals <=

    0.1900   Vosko, Wilk & Nusair (VWN5_RPA)
    0.8100   Lee, Yang & Parr

   => LibXC Density Thresholds  <==

    XC_HYB_GGA_XC_B3LYP:  1.00E-15 

   => Molecular Quadrature <=

    Radial Scheme          =       TREUTLER
    Pruning Scheme         =           NONE
    Nuclear Scheme         =       TREUTLER

    Blocking Scheme        =         OCTREE
    BS radius alpha        =              1
    Pruning alpha          =              1
    Radial Points          =             75
    Spherical Points       =            302
    Total Points           =          42608
    Total Blocks           =            393
    Max Points             =            256
    Max Functions          =             32
    Weights Tolerance      =       1.00E-15


  -Total Gradient:
     Atom            X                  Y                   Z
    ------   -----------------  -----------------  -----------------
       1       -0.000000000000    -0.000000000000    -0.247157289139
       2        0.000000000000    -0.000000000000     0.247142605751


*** tstop() called on cics-quant-001 at Tue Dec 23 11:03:36 2025
Module time:
	user time   =       0.22 seconds =       0.00 minutes
	system time =       0.13 seconds =       0.00 minutes
	total time  =          0 seconds =       0.00 minutes
Total time:
	user time   =       3.31 seconds =       0.06 minutes
	system time =       0.64 seconds =       0.01 minutes
	total time  =          2 seconds =       0.03 minutes

    			-----------------------------------------

    			 OPTKING 3.0: for geometry optimizations 

    			     By R.A. King, Bethel University     

    			        with contributions from          

    			    A.V. Copan, J. Cayton, A. Heide      

    			-----------------------------------------

    
	                            ===> Fragment 1 <== 

	 Z (Atomic Numbers)          Masses                          Geom                  
	       7.000000            14.003074          0.00000000  0.00000000  1.82077422   
	      14.000000            27.976927          0.00000000  0.00000000 -0.91133800   

	 - Coordinate -           - BOHR/RAD -       - ANG/DEG -
	 R(1,2)           =         2.732112           1.445772


	        --- Internal Coordinate Step in ANG or DEG, aJ/ANG or AJ/DEG ---
	-------------------------------------------------------------------------------
	           Coordinate      Previous         Force          Change          New 
	           ----------      --------        ------          ------        ------
	               R(1,2)       1.44577        2.03620        0.07167       1.51744
	-------------------------------------------------------------------------------

	                                 ==> Convergence Check <==                                  
    
	Measures of convergence in internal coordinates in au.
    
	Criteria marked as inactive (o), active & met (*), and active & unmet ( ).

	----------------------------------------------------------------------------------------------
	   Step    Total Energy     Delta E     Max Force     RMS Force      Max Disp      RMS Disp   
	----------------------------------------------------------------------------------------------
	  Convergence Criteria     1.00e-06 *    3.00e-04 *             o    1.20e-03 *             o
	----------------------------------------------------------------------------------------------
	     3    -344.06496221   -8.31e-02      2.47e-01      2.47e-01 o    1.35e-01      1.35e-01 o  ~
	----------------------------------------------------------------------------------------------

Next Geometry in Ang 
	Fragment 1 (Ang)

	    N   0.0000000000   0.0000000000   0.9993489405
	   Si   0.0000000000   0.0000000000  -0.5180960161


    Structure for next step:
    Molecular point group: c2v
    Full point group: C_inf_v

    Geometry (in Angstrom), charge = -1, multiplicity = 3:

    N            0.000000000000     0.000000000000     1.011277882994
    SI           0.000000000000     0.000000000000    -0.506167073680


Scratch directory: /tmp/
gradient() will perform analytic gradient computation.
   => Libint2 <=

    Primary   basis highest AM E, G, H:  6, 6, 3
    Auxiliary basis highest AM E, G, H:  7, 7, 4
    Onebody   basis highest AM E, G, H:  -, -, -
    Solid Harmonics ordering:            Gaussian

*** tstart() called on cics-quant-001
*** at Tue Dec 23 11:03:36 2025

   => Loading Basis Set <=

    Name: CC-PVDZ
    Role: ORBITAL
    Keyword: BASIS
    atoms 1 entry N          line   168 file /home/jrodriguesro/psi4conda/share/psi4/basis/cc-pvdz.gbs 
    atoms 2 entry SI         line   478 file /home/jrodriguesro/psi4conda/share/psi4/basis/cc-pvdz.gbs 


         ---------------------------------------------------------
                                   SCF
               by Justin Turney, Rob Parrish, Andy Simmonett
                          and Daniel G. A. Smith
                              UKS Reference
                        6 Threads,   7629 MiB Core
         ---------------------------------------------------------

  ==> Geometry <==

    Molecular point group: c2v
    Full point group: C_inf_v

    Geometry (in Angstrom), charge = -1, multiplicity = 3:

       Center              X                  Y                   Z               Mass       
    ------------   -----------------  -----------------  -----------------  -----------------
         N            0.000000000000     0.000000000000     1.011277882994    14.003074004430
         SI           0.000000000000     0.000000000000    -0.506167073680    27.976926534650

  Running in c2v symmetry.

  Rotational constants: A = ************  B =      0.78449  C =      0.78449 [cm^-1]
  Rotational constants: A = ************  B =  23518.54010  C =  23518.54010 [MHz]
  Nuclear repulsion =   34.175451582307701

  Charge       = -1
  Multiplicity = 3
  Electrons    = 22
  Nalpha       = 12
  Nbeta        = 10

  ==> Algorithm <==

  SCF Algorithm Type is DF.
  DIIS enabled.
  MOM disabled.
  Fractional occupation disabled.
  Guess Type is READ.
  Energy threshold   = 1.00e-08
  Density threshold  = 1.00e-08
  Integral threshold = 1.00e-12

  ==> Primary Basis <==

  Basis Set: CC-PVDZ
    Blend: CC-PVDZ
    Number of shells: 14
    Number of basis functions: 32
    Number of Cartesian functions: 34
    Spherical Harmonics?: true
    Max angular momentum: 2

  ==> DFT Potential <==

   => LibXC <=

    Version 7.0.0
    S. Lehtola, C. Steigemann, M. J.T. Oliveira, and M. A.L. Marques.,  SoftwareX 7, 1–5 (2018) (10.1016/j.softx.2017.11.002)

   => Composite Functional: B3LYP <= 

    B3LYP Hyb-GGA Exchange-Correlation Functional

    P. J. Stephens, F. J. Devlin, C. F. Chabalowski, and M. J. Frisch.,  J. Phys. Chem. 98, 11623 (1994) (10.1021/j100096a001)

    Deriv               =              1
    GGA                 =           TRUE
    Meta                =          FALSE

    Exchange Hybrid     =           TRUE
    MP2 Hybrid          =          FALSE

   => Exchange Functionals <=

    0.0800   Slater exchange
    0.7200         Becke 88

   => Exact (HF) Exchange <=

    0.2000               HF 

   => Correlation Functionals <=

    0.1900   Vosko, Wilk & Nusair (VWN5_RPA)
    0.8100   Lee, Yang & Parr

   => LibXC Density Thresholds  <==

    XC_HYB_GGA_XC_B3LYP:  1.00E-15 

   => Molecular Quadrature <=

    Radial Scheme          =       TREUTLER
    Pruning Scheme         =           NONE
    Nuclear Scheme         =       TREUTLER

    Blocking Scheme        =         OCTREE
    BS radius alpha        =              1
    Pruning alpha          =              1
    Radial Points          =             75
    Spherical Points       =            302
    Total Points           =          42617
    Total Blocks           =            395
    Max Points             =            256
    Max Functions          =             32
    Weights Tolerance      =       1.00E-15

   => Loading Basis Set <=

    Name: (CC-PVDZ AUX)
    Role: JKFIT
    Keyword: DF_BASIS_SCF
    atoms 1 entry N          line   171 file /home/jrodriguesro/psi4conda/share/psi4/basis/cc-pvdz-jkfit.gbs 
    atoms 2 entry SI         line   445 file /home/jrodriguesro/psi4conda/share/psi4/basis/cc-pvdz-jkfit.gbs 

   => Loading Basis Set <=

    Name: CC-PVDZ
    Role: ORBITAL
    Keyword: BASIS
    atoms 1 entry N          line   168 file /home/jrodriguesro/psi4conda/share/psi4/basis/cc-pvdz.gbs 
    atoms 2 entry SI         line   478 file /home/jrodriguesro/psi4conda/share/psi4/basis/cc-pvdz.gbs 

  Reading orbitals from file /tmp/triplet_NSi.default.378273.180.npy, no projection.

  ==> Integral Setup <==

  DFHelper Memory: AOs need 0.002 GiB; user supplied 5.549 GiB. 
  SCF_SUBTYPE=INCORE selected. In-core MEM_DF algorithm will be used.
  Using in-core AOs.

  ==> MemDFJK: Density-Fitted J/K Matrices <==

    J tasked:                   Yes
    K tasked:                   Yes
    wK tasked:                   No
    OpenMP threads:               6
    Memory [MiB]:              5682
    Algorithm:                 Core
    Schwarz Cutoff:           1E-12
    Mask sparsity (%):       0.0000
    Fitting Condition:        1E-10

   => Auxiliary Basis Set <=

  Basis Set: (CC-PVDZ AUX)
    Blend: CC-PVDZ-JKFIT
    Number of shells: 60
    Number of basis functions: 182
    Number of Cartesian functions: 211
    Spherical Harmonics?: true
    Max angular momentum: 3

  Cached 100.0% of DFT collocation blocks in 0.039 [GiB].

  Minimum eigenvalue in the overlap matrix is 1.8900192627E-02.
  Reciprocal condition number of the overlap matrix is 6.2455709650E-03.
    Using symmetric orthogonalization.

  ==> Pre-Iterations <==

  SCF Guess: Orbitals guess was supplied from a previous computation.

   -------------------------------------------------------
    Irrep   Nso     Nmo     Nalpha   Nbeta   Ndocc  Nsocc
   -------------------------------------------------------
     A1        16      16       7       6       6       1
     A2         2       2       0       0       0       0
     B1         7       7       3       2       2       1
     B2         7       7       2       2       2       0
   -------------------------------------------------------
    Total      32      32      12      10      10       2
   -------------------------------------------------------

  ==> Iterations <==

                           Total Energy        Delta E     RMS |[F,P]|

   @DF-UKS iter   0:  -344.07527298338260   -3.44075e+02   1.10597e-02 
   @DF-UKS iter   1:  -344.08976623933688   -1.44933e-02   1.74870e-03 ADIIS/DIIS
   @DF-UKS iter   2:  -344.08258068084490    7.18556e-03   6.21328e-03 ADIIS/DIIS/DAMP=1%
   @DF-UKS iter   3:  -344.08884583733067   -6.26516e-03   5.64743e-04 ADIIS/DIIS/DAMP=1%
   @DF-UKS iter   4:  -344.09038129567995   -1.53546e-03   1.08811e-04 ADIIS/DIIS/DAMP=1%
   @DF-UKS iter   5:  -344.09065096060323   -2.69665e-04   3.31192e-05 DIIS/DAMP=1%
   @DF-UKS iter   6:  -344.09063181272808    1.91479e-05   1.02508e-05 DIIS/DAMP=1%
   @DF-UKS iter   7:  -344.09064944764185   -1.76349e-05   5.64747e-06 DIIS/DAMP=1%
   @DF-UKS iter   8:  -344.09064693316122    2.51448e-06   9.87990e-07 DIIS/DAMP=1%
   @DF-UKS iter   9:  -344.09064722824564   -2.95084e-07   4.35872e-07 DIIS/DAMP=1%
   @DF-UKS iter  10:  -344.09064663054033    5.97705e-07   2.02267e-07 DIIS/DAMP=1%
   @DF-UKS iter  11:  -344.09064695248890   -3.21949e-07   2.87516e-08 DIIS/DAMP=1%
   @DF-UKS iter  12:  -344.09064687821041    7.42785e-08   3.81363e-09 DIIS/DAMP=1%
   @DF-UKS iter  13:  -344.09064688842074   -1.02103e-08   1.40861e-09 DIIS/DAMP=1%
   @DF-UKS iter  14:  -344.09064688731416    1.10657e-09   1.39017e-10 DIIS/DAMP=1%
  Energy and wave function converged.


  ==> Post-Iterations <==

   Electrons on quadrature grid:
      Nalpha   =   11.9999994489 ; deviation = -5.511e-07
      Nbeta    =    9.9999995618 ; deviation = -4.382e-07
      Ntotal   =   21.9999990107 ; deviation = -9.893e-07 

   @Spin Contamination Metric:   1.246174711E-02
   @S^2 Expected:                2.000000000E+00
   @S^2 Observed:                2.012461747E+00
   @S   Expected:                1.000000000E+00
   @S   Observed:                1.000000000E+00

    Orbital Energies [Eh]
    ---------------------

    Alpha Occupied:                                                       

       1A1   -65.870589     2A1   -14.063252     3A1    -5.020742  
       4A1    -3.382726     1B2    -3.378589     1B1    -3.375973  
       5A1    -0.540015     6A1    -0.169427     7A1    -0.053531  
       2B1    -0.050726     2B2    -0.039808     3B1     0.134170  

    Alpha Virtual:                                                        

       3B2     0.192297     8A1     0.292726     9A1     0.480576  
       4B1     0.541047     4B2     0.542976    10A1     0.612671  
       1A2     0.618660    11A1     0.620809     5B1     0.725132  
       5B2     0.727166    12A1     0.852550     6B1     1.034537  
       6B2     1.038652    13A1     1.259478    14A1     1.472920  
       2A2     2.052113    15A1     2.052730     7B2     2.223561  
       7B1     2.224201    16A1     2.612598  

    Beta Occupied:                                                        

       1A1   -65.868141     2A1   -14.041155     3A1    -5.018097  
       1B2    -3.377880     4A1    -3.376117     1B1    -3.370964  
       5A1    -0.479765     6A1    -0.092874     2B2    -0.018638  
       2B1     0.001941  

    Beta Virtual:                                                         

       7A1     0.087944     3B2     0.213092     3B1     0.236948  
       8A1     0.308589     9A1     0.502290     4B2     0.546336  
       4B1     0.565608    10A1     0.636526     1A2     0.641394  
      11A1     0.653748     5B2     0.746116     5B1     0.767697  
      12A1     0.884934     6B2     1.059392     6B1     1.074580  
      13A1     1.315651    14A1     1.512608    15A1     2.089001  
       2A2     2.089003     7B2     2.277610     7B1     2.294530  
      16A1     2.674184  

    Final Occupation by Irrep:
             A1    A2    B1    B2 
    DOCC [     6,    0,    2,    2 ]
    SOCC [     1,    0,    1,    0 ]
    NA   [     7,    0,    3,    2 ]
    NB   [     6,    0,    2,    2 ]

  @DF-UKS Final Energy:  -344.09064688731416

   => Energetics <=

    Nuclear Repulsion Energy =             34.1754515823077014
    One-Electron Energy =                -548.9404733756909991
    Two-Electron Energy =                 193.2704119882808698
    DFT Exchange-Correlation Energy =     -22.5960370822117405
    Empirical Dispersion Energy =           0.0000000000000000
    VV10 Nonlocal Energy =                  0.0000000000000000
    Total Energy =                       -344.0906468873141648

  UHF NO Occupations:
  HONO-2 :    2 B2 1.9972632
  HONO-1 :    7 A1 1.0000000
  HONO-0 :    3 B1 1.0000000
  LUNO+0 :    3 B2 0.0027368
  LUNO+1 :    8 A1 0.0017389
  LUNO+2 :    4 B1 0.0013395
  LUNO+3 :    9 A1 0.0004216


Computation Completed


Properties will be evaluated at   0.000000,   0.000000,   0.000000 [a0]

Properties computed using the SCF density matrix


 Multipole Moments:

 ------------------------------------------------------------------------------------
     Multipole            Electronic (a.u.)      Nuclear  (a.u.)        Total (a.u.)
 ------------------------------------------------------------------------------------

 L = 1.  Multiply by 2.5417464519 to convert [e a0] to [Debye]
 Dipole X            :          0.0000000            0.0000000            0.0000000
 Dipole Y            :          0.0000000            0.0000000            0.0000000
 Dipole Z            :         -0.1215178           -0.0139724           -0.1354901
 Magnitude           :                                                    0.1354901

 ------------------------------------------------------------------------------------

*** tstop() called on cics-quant-001 at Tue Dec 23 11:03:36 2025
Module time:
	user time   =       0.90 seconds =       0.02 minutes
	system time =       0.07 seconds =       0.00 minutes
	total time  =          0 seconds =       0.00 minutes
Total time:
	user time   =       4.23 seconds =       0.07 minutes
	system time =       0.71 seconds =       0.01 minutes
	total time  =          2 seconds =       0.03 minutes

*** tstart() called on cics-quant-001
*** at Tue Dec 23 11:03:36 2025


         ------------------------------------------------------------
                                   SCF GRAD                          
                          Rob Parrish, Justin Turney,                
                       Andy Simmonett, and Alex Sokolov              
         ------------------------------------------------------------

  ==> Geometry <==

    Molecular point group: c2v
    Full point group: C_inf_v

    Geometry (in Angstrom), charge = -1, multiplicity = 3:

       Center              X                  Y                   Z               Mass       
    ------------   -----------------  -----------------  -----------------  -----------------
         N            0.000000000000     0.000000000000     1.011277882994    14.003074004430
         SI           0.000000000000     0.000000000000    -0.506167073680    27.976926534650

  Nuclear repulsion =   34.175451582307701

  ==> Basis Set <==

  Basis Set: CC-PVDZ
    Blend: CC-PVDZ
    Number of shells: 14
    Number of basis functions: 32
    Number of Cartesian functions: 34
    Spherical Harmonics?: true
    Max angular momentum: 2

  ==> DFJKGrad: Density-Fitted SCF Gradients <==

    Gradient:                    1
    J tasked:                  Yes
    K tasked:                  Yes
    wK tasked:                  No
    OpenMP threads:              6
    Integrals threads:           6
    Memory [MiB]:             5722
    Schwarz Cutoff:          1E-12
    Fitting Condition:       1E-10

   => Auxiliary Basis Set <=

  Basis Set: (CC-PVDZ AUX)
    Blend: CC-PVDZ-JKFIT
    Number of shells: 60
    Number of basis functions: 182
    Number of Cartesian functions: 211
    Spherical Harmonics?: true
    Max angular momentum: 3

  ==> DFT Potential <==

   => LibXC <=

    Version 7.0.0
    S. Lehtola, C. Steigemann, M. J.T. Oliveira, and M. A.L. Marques.,  SoftwareX 7, 1–5 (2018) (10.1016/j.softx.2017.11.002)

   => Composite Functional: B3LYP <= 

    B3LYP Hyb-GGA Exchange-Correlation Functional

    P. J. Stephens, F. J. Devlin, C. F. Chabalowski, and M. J. Frisch.,  J. Phys. Chem. 98, 11623 (1994) (10.1021/j100096a001)

    Deriv               =              1
    GGA                 =           TRUE
    Meta                =          FALSE

    Exchange Hybrid     =           TRUE
    MP2 Hybrid          =          FALSE

   => Exchange Functionals <=

    0.0800   Slater exchange
    0.7200         Becke 88

   => Exact (HF) Exchange <=

    0.2000               HF 

   => Correlation Functionals <=

    0.1900   Vosko, Wilk & Nusair (VWN5_RPA)
    0.8100   Lee, Yang & Parr

   => LibXC Density Thresholds  <==

    XC_HYB_GGA_XC_B3LYP:  1.00E-15 

   => Molecular Quadrature <=

    Radial Scheme          =       TREUTLER
    Pruning Scheme         =           NONE
    Nuclear Scheme         =       TREUTLER

    Blocking Scheme        =         OCTREE
    BS radius alpha        =              1
    Pruning alpha          =              1
    Radial Points          =             75
    Spherical Points       =            302
    Total Points           =          42617
    Total Blocks           =            395
    Max Points             =            256
    Max Functions          =             32
    Weights Tolerance      =       1.00E-15


  -Total Gradient:
     Atom            X                  Y                   Z
    ------   -----------------  -----------------  -----------------
       1        0.000000000000     0.000000000000    -0.138385744165
       2       -0.000000000000     0.000000000000     0.138373733740


*** tstop() called on cics-quant-001 at Tue Dec 23 11:03:37 2025
Module time:
	user time   =       0.21 seconds =       0.00 minutes
	system time =       0.13 seconds =       0.00 minutes
	total time  =          1 seconds =       0.02 minutes
Total time:
	user time   =       4.44 seconds =       0.07 minutes
	system time =       0.84 seconds =       0.01 minutes
	total time  =          3 seconds =       0.05 minutes

    			-----------------------------------------

    			 OPTKING 3.0: for geometry optimizations 

    			     By R.A. King, Bethel University     

    			        with contributions from          

    			    A.V. Copan, J. Cayton, A. Heide      

    			-----------------------------------------

    
	                            ===> Fragment 1 <== 

	 Z (Atomic Numbers)          Masses                          Geom                  
	       7.000000            14.003074          0.00000000  0.00000000  1.91103824   
	      14.000000            27.976927          0.00000000  0.00000000 -0.95651714   

	 - Coordinate -           - BOHR/RAD -       - ANG/DEG -
	 R(1,2)           =         2.867555           1.517445


	        --- Internal Coordinate Step in ANG or DEG, aJ/ANG or AJ/DEG ---
	-------------------------------------------------------------------------------
	           Coordinate      Previous         Force          Change          New 
	           ----------      --------        ------          ------        ------
	               R(1,2)       1.51744        1.14007        0.06598       1.58342
	-------------------------------------------------------------------------------

	                                 ==> Convergence Check <==                                  
    
	Measures of convergence in internal coordinates in au.
    
	Criteria marked as inactive (o), active & met (*), and active & unmet ( ).

	----------------------------------------------------------------------------------------------
	   Step    Total Energy     Delta E     Max Force     RMS Force      Max Disp      RMS Disp   
	----------------------------------------------------------------------------------------------
	  Convergence Criteria     1.00e-06 *    3.00e-04 *             o    1.20e-03 *             o
	----------------------------------------------------------------------------------------------
	     4    -344.09064689   -2.57e-02      1.38e-01      1.38e-01 o    1.25e-01      1.25e-01 o  ~
	----------------------------------------------------------------------------------------------

Next Geometry in Ang 
	Fragment 1 (Ang)

	    N   0.0000000000   0.0000000000   1.0442676462
	   Si   0.0000000000   0.0000000000  -0.5391568368


    Structure for next step:
    Molecular point group: c2v
    Full point group: C_inf_v

    Geometry (in Angstrom), charge = -1, multiplicity = 3:

    N            0.000000000000     0.000000000000     1.055248924854
    SI           0.000000000000     0.000000000000    -0.528175558152


Scratch directory: /tmp/
gradient() will perform analytic gradient computation.
   => Libint2 <=

    Primary   basis highest AM E, G, H:  6, 6, 3
    Auxiliary basis highest AM E, G, H:  7, 7, 4
    Onebody   basis highest AM E, G, H:  -, -, -
    Solid Harmonics ordering:            Gaussian

*** tstart() called on cics-quant-001
*** at Tue Dec 23 11:03:37 2025

   => Loading Basis Set <=

    Name: CC-PVDZ
    Role: ORBITAL
    Keyword: BASIS
    atoms 1 entry N          line   168 file /home/jrodriguesro/psi4conda/share/psi4/basis/cc-pvdz.gbs 
    atoms 2 entry SI         line   478 file /home/jrodriguesro/psi4conda/share/psi4/basis/cc-pvdz.gbs 


         ---------------------------------------------------------
                                   SCF
               by Justin Turney, Rob Parrish, Andy Simmonett
                          and Daniel G. A. Smith
                              UKS Reference
                        6 Threads,   7629 MiB Core
         ---------------------------------------------------------

  ==> Geometry <==

    Molecular point group: c2v
    Full point group: C_inf_v

    Geometry (in Angstrom), charge = -1, multiplicity = 3:

       Center              X                  Y                   Z               Mass       
    ------------   -----------------  -----------------  -----------------  -----------------
         N            0.000000000000     0.000000000000     1.055248924854    14.003074004430
         SI           0.000000000000     0.000000000000    -0.528175558152    27.976926534650

  Running in c2v symmetry.

  Rotational constants: A = ************  B =      0.72048  C =      0.72048 [cm^-1]
  Rotational constants: A = ************  B =  21599.39274  C =  21599.39274 [MHz]
  Nuclear repulsion =   32.751398757716338

  Charge       = -1
  Multiplicity = 3
  Electrons    = 22
  Nalpha       = 12
  Nbeta        = 10

  ==> Algorithm <==

  SCF Algorithm Type is DF.
  DIIS enabled.
  MOM disabled.
  Fractional occupation disabled.
  Guess Type is READ.
  Energy threshold   = 1.00e-08
  Density threshold  = 1.00e-08
  Integral threshold = 1.00e-12

  ==> Primary Basis <==

  Basis Set: CC-PVDZ
    Blend: CC-PVDZ
    Number of shells: 14
    Number of basis functions: 32
    Number of Cartesian functions: 34
    Spherical Harmonics?: true
    Max angular momentum: 2

  ==> DFT Potential <==

   => LibXC <=

    Version 7.0.0
    S. Lehtola, C. Steigemann, M. J.T. Oliveira, and M. A.L. Marques.,  SoftwareX 7, 1–5 (2018) (10.1016/j.softx.2017.11.002)

   => Composite Functional: B3LYP <= 

    B3LYP Hyb-GGA Exchange-Correlation Functional

    P. J. Stephens, F. J. Devlin, C. F. Chabalowski, and M. J. Frisch.,  J. Phys. Chem. 98, 11623 (1994) (10.1021/j100096a001)

    Deriv               =              1
    GGA                 =           TRUE
    Meta                =          FALSE

    Exchange Hybrid     =           TRUE
    MP2 Hybrid          =          FALSE

   => Exchange Functionals <=

    0.0800   Slater exchange
    0.7200         Becke 88

   => Exact (HF) Exchange <=

    0.2000               HF 

   => Correlation Functionals <=

    0.1900   Vosko, Wilk & Nusair (VWN5_RPA)
    0.8100   Lee, Yang & Parr

   => LibXC Density Thresholds  <==

    XC_HYB_GGA_XC_B3LYP:  1.00E-15 

   => Molecular Quadrature <=

    Radial Scheme          =       TREUTLER
    Pruning Scheme         =           NONE
    Nuclear Scheme         =       TREUTLER

    Blocking Scheme        =         OCTREE
    BS radius alpha        =              1
    Pruning alpha          =              1
    Radial Points          =             75
    Spherical Points       =            302
    Total Points           =          42630
    Total Blocks           =            393
    Max Points             =            256
    Max Functions          =             32
    Weights Tolerance      =       1.00E-15

   => Loading Basis Set <=

    Name: (CC-PVDZ AUX)
    Role: JKFIT
    Keyword: DF_BASIS_SCF
    atoms 1 entry N          line   171 file /home/jrodriguesro/psi4conda/share/psi4/basis/cc-pvdz-jkfit.gbs 
    atoms 2 entry SI         line   445 file /home/jrodriguesro/psi4conda/share/psi4/basis/cc-pvdz-jkfit.gbs 

   => Loading Basis Set <=

    Name: CC-PVDZ
    Role: ORBITAL
    Keyword: BASIS
    atoms 1 entry N          line   168 file /home/jrodriguesro/psi4conda/share/psi4/basis/cc-pvdz.gbs 
    atoms 2 entry SI         line   478 file /home/jrodriguesro/psi4conda/share/psi4/basis/cc-pvdz.gbs 

  Reading orbitals from file /tmp/triplet_NSi.default.378273.180.npy, no projection.

  ==> Integral Setup <==

  DFHelper Memory: AOs need 0.002 GiB; user supplied 5.549 GiB. 
  SCF_SUBTYPE=INCORE selected. In-core MEM_DF algorithm will be used.
  Using in-core AOs.

  ==> MemDFJK: Density-Fitted J/K Matrices <==

    J tasked:                   Yes
    K tasked:                   Yes
    wK tasked:                   No
    OpenMP threads:               6
    Memory [MiB]:              5682
    Algorithm:                 Core
    Schwarz Cutoff:           1E-12
    Mask sparsity (%):       0.0000
    Fitting Condition:        1E-10

   => Auxiliary Basis Set <=

  Basis Set: (CC-PVDZ AUX)
    Blend: CC-PVDZ-JKFIT
    Number of shells: 60
    Number of basis functions: 182
    Number of Cartesian functions: 211
    Spherical Harmonics?: true
    Max angular momentum: 3

  Cached 100.0% of DFT collocation blocks in 0.039 [GiB].

  Minimum eigenvalue in the overlap matrix is 2.1978692214E-02.
  Reciprocal condition number of the overlap matrix is 7.3411840693E-03.
    Using symmetric orthogonalization.

  ==> Pre-Iterations <==

  SCF Guess: Orbitals guess was supplied from a previous computation.

   -------------------------------------------------------
    Irrep   Nso     Nmo     Nalpha   Nbeta   Ndocc  Nsocc
   -------------------------------------------------------
     A1        16      16       7       6       6       1
     A2         2       2       0       0       0       0
     B1         7       7       3       2       2       1
     B2         7       7       2       2       2       0
   -------------------------------------------------------
    Total      32      32      12      10      10       2
   -------------------------------------------------------

  ==> Iterations <==

                           Total Energy        Delta E     RMS |[F,P]|

   @DF-UKS iter   0:  -344.08855573425461   -3.44089e+02   8.77702e-03 
   @DF-UKS iter   1:  -344.10204776844546   -1.34920e-02   2.08423e-03 ADIIS/DIIS
   @DF-UKS iter   2:  -344.09123101650903    1.08168e-02   7.54087e-03 ADIIS/DIIS/DAMP=1%
   @DF-UKS iter   3:  -344.10103593972195   -9.80492e-03   5.58389e-04 ADIIS/DIIS/DAMP=1%
   @DF-UKS iter   4:  -344.10287154893376   -1.83561e-03   1.76827e-04 ADIIS/DIIS/DAMP=1%
   @DF-UKS iter   5:  -344.10317301025879   -3.01461e-04   3.05492e-05 DIIS/DAMP=1%
   @DF-UKS iter   6:  -344.10318497594079   -1.19657e-05   1.17577e-05 DIIS/DAMP=1%
   @DF-UKS iter   7:  -344.10319598012899   -1.10042e-05   6.64941e-06 DIIS/DAMP=1%
   @DF-UKS iter   8:  -344.10319481451234    1.16562e-06   1.26008e-06 DIIS/DAMP=1%
   @DF-UKS iter   9:  -344.10319470671067    1.07802e-07   4.50587e-07 DIIS/DAMP=1%
   @DF-UKS iter  10:  -344.10319406999764    6.36713e-07   2.31256e-07 DIIS/DAMP=1%
   @DF-UKS iter  11:  -344.10319445419100   -3.84193e-07   2.93382e-08 DIIS/DAMP=1%
   @DF-UKS iter  12:  -344.10319436709312    8.70979e-08   4.40415e-09 DIIS/DAMP=1%
   @DF-UKS iter  13:  -344.10319437721108   -1.01180e-08   1.32944e-09 DIIS/DAMP=1%
   @DF-UKS iter  14:  -344.10319437631426    8.96819e-10   7.71669e-11 DIIS/DAMP=1%
  Energy and wave function converged.


  ==> Post-Iterations <==

   Electrons on quadrature grid:
      Nalpha   =   11.9999998277 ; deviation = -1.723e-07
      Nbeta    =    9.9999998329 ; deviation = -1.671e-07
      Ntotal   =   21.9999996606 ; deviation = -3.394e-07 

   @Spin Contamination Metric:   1.594959388E-02
   @S^2 Expected:                2.000000000E+00
   @S^2 Observed:                2.015949594E+00
   @S   Expected:                1.000000000E+00
   @S   Observed:                1.000000000E+00

    Orbital Energies [Eh]
    ---------------------

    Alpha Occupied:                                                       

       1A1   -65.880075     2A1   -14.072733     3A1    -5.026517  
       4A1    -3.387997     1B2    -3.384856     1B1    -3.382271  
       5A1    -0.529989     6A1    -0.174448     7A1    -0.055402  
       2B1    -0.045334     2B2    -0.033771     3B1     0.126707  

    Alpha Virtual:                                                        

       3B2     0.184982     8A1     0.288400     9A1     0.477956  
       4B1     0.539338     4B2     0.541452    10A1     0.604869  
       1A2     0.617088    11A1     0.619317     5B1     0.707781  
       5B2     0.710216    12A1     0.843915     6B1     1.034658  
       6B2     1.038651    13A1     1.189474    14A1     1.475077  
       2A2     2.048836    15A1     2.049447     7B2     2.198416  
       7B1     2.199040    16A1     2.600396  

    Beta Occupied:                                                        

       1A1   -65.877662     2A1   -14.050166     3A1    -5.023919  
       1B2    -3.384286     4A1    -3.381728     1B1    -3.377019  
       5A1    -0.467386     6A1    -0.100691     2B2    -0.011082  
       2B1     0.009392  

    Beta Virtual:                                                         

       7A1     0.086987     3B2     0.205713     3B1     0.229639  
       8A1     0.305577     9A1     0.498664     4B2     0.543674  
       4B1     0.563014    10A1     0.632232     1A2     0.639190  
      11A1     0.647193     5B2     0.728811     5B1     0.750680  
      12A1     0.877287     6B2     1.060644     6B1     1.075650  
      13A1     1.247946    14A1     1.515265    15A1     2.087603  
       2A2     2.087610     7B2     2.254059     7B1     2.270817  
      16A1     2.663475  

    Final Occupation by Irrep:
             A1    A2    B1    B2 
    DOCC [     6,    0,    2,    2 ]
    SOCC [     1,    0,    1,    0 ]
    NA   [     7,    0,    3,    2 ]
    NB   [     6,    0,    2,    2 ]

  @DF-UKS Final Energy:  -344.10319437631426

   => Energetics <=

    Nuclear Repulsion Energy =             32.7513987577163377
    One-Electron Energy =                -546.0799773110966271
    Two-Electron Energy =                 191.7909665750824786
    DFT Exchange-Correlation Energy =     -22.5655823980163746
    Empirical Dispersion Energy =           0.0000000000000000
    VV10 Nonlocal Energy =                  0.0000000000000000
    Total Energy =                       -344.1031943763142067

  UHF NO Occupations:
  HONO-2 :    2 B2 1.9958421
  HONO-1 :    3 B1 1.0000000
  HONO-0 :    7 A1 1.0000000
  LUNO+0 :    3 B2 0.0041579
  LUNO+1 :    8 A1 0.0019500
  LUNO+2 :    4 B1 0.0014573
  LUNO+3 :    9 A1 0.0004210


Computation Completed


Properties will be evaluated at   0.000000,   0.000000,   0.000000 [a0]

Properties computed using the SCF density matrix


 Multipole Moments:

 ------------------------------------------------------------------------------------
     Multipole            Electronic (a.u.)      Nuclear  (a.u.)        Total (a.u.)
 ------------------------------------------------------------------------------------

 L = 1.  Multiply by 2.5417464519 to convert [e a0] to [Debye]
 Dipole X            :          0.0000000            0.0000000            0.0000000
 Dipole Y            :          0.0000000            0.0000000            0.0000000
 Dipole Z            :         -0.1731222           -0.0145799           -0.1877021
 Magnitude           :                                                    0.1877021

 ------------------------------------------------------------------------------------

*** tstop() called on cics-quant-001 at Tue Dec 23 11:03:37 2025
Module time:
	user time   =       0.92 seconds =       0.02 minutes
	system time =       0.06 seconds =       0.00 minutes
	total time  =          0 seconds =       0.00 minutes
Total time:
	user time   =       5.38 seconds =       0.09 minutes
	system time =       0.90 seconds =       0.01 minutes
	total time  =          3 seconds =       0.05 minutes

*** tstart() called on cics-quant-001
*** at Tue Dec 23 11:03:37 2025


         ------------------------------------------------------------
                                   SCF GRAD                          
                          Rob Parrish, Justin Turney,                
                       Andy Simmonett, and Alex Sokolov              
         ------------------------------------------------------------

  ==> Geometry <==

    Molecular point group: c2v
    Full point group: C_inf_v

    Geometry (in Angstrom), charge = -1, multiplicity = 3:

       Center              X                  Y                   Z               Mass       
    ------------   -----------------  -----------------  -----------------  -----------------
         N            0.000000000000     0.000000000000     1.055248924854    14.003074004430
         SI           0.000000000000     0.000000000000    -0.528175558152    27.976926534650

  Nuclear repulsion =   32.751398757716338

  ==> Basis Set <==

  Basis Set: CC-PVDZ
    Blend: CC-PVDZ
    Number of shells: 14
    Number of basis functions: 32
    Number of Cartesian functions: 34
    Spherical Harmonics?: true
    Max angular momentum: 2

  ==> DFJKGrad: Density-Fitted SCF Gradients <==

    Gradient:                    1
    J tasked:                  Yes
    K tasked:                  Yes
    wK tasked:                  No
    OpenMP threads:              6
    Integrals threads:           6
    Memory [MiB]:             5722
    Schwarz Cutoff:          1E-12
    Fitting Condition:       1E-10

   => Auxiliary Basis Set <=

  Basis Set: (CC-PVDZ AUX)
    Blend: CC-PVDZ-JKFIT
    Number of shells: 60
    Number of basis functions: 182
    Number of Cartesian functions: 211
    Spherical Harmonics?: true
    Max angular momentum: 3

  ==> DFT Potential <==

   => LibXC <=

    Version 7.0.0
    S. Lehtola, C. Steigemann, M. J.T. Oliveira, and M. A.L. Marques.,  SoftwareX 7, 1–5 (2018) (10.1016/j.softx.2017.11.002)

   => Composite Functional: B3LYP <= 

    B3LYP Hyb-GGA Exchange-Correlation Functional

    P. J. Stephens, F. J. Devlin, C. F. Chabalowski, and M. J. Frisch.,  J. Phys. Chem. 98, 11623 (1994) (10.1021/j100096a001)

    Deriv               =              1
    GGA                 =           TRUE
    Meta                =          FALSE

    Exchange Hybrid     =           TRUE
    MP2 Hybrid          =          FALSE

   => Exchange Functionals <=

    0.0800   Slater exchange
    0.7200         Becke 88

   => Exact (HF) Exchange <=

    0.2000               HF 

   => Correlation Functionals <=

    0.1900   Vosko, Wilk & Nusair (VWN5_RPA)
    0.8100   Lee, Yang & Parr

   => LibXC Density Thresholds  <==

    XC_HYB_GGA_XC_B3LYP:  1.00E-15 

   => Molecular Quadrature <=

    Radial Scheme          =       TREUTLER
    Pruning Scheme         =           NONE
    Nuclear Scheme         =       TREUTLER

    Blocking Scheme        =         OCTREE
    BS radius alpha        =              1
    Pruning alpha          =              1
    Radial Points          =             75
    Spherical Points       =            302
    Total Points           =          42630
    Total Blocks           =            393
    Max Points             =            256
    Max Functions          =             32
    Weights Tolerance      =       1.00E-15


  -Total Gradient:
     Atom            X                  Y                   Z
    ------   -----------------  -----------------  -----------------
       1        0.000000000000     0.000000000000    -0.066790619963
       2       -0.000000000000     0.000000000000     0.066770053427


*** tstop() called on cics-quant-001 at Tue Dec 23 11:03:37 2025
Module time:
	user time   =       0.23 seconds =       0.00 minutes
	system time =       0.13 seconds =       0.00 minutes
	total time  =          0 seconds =       0.00 minutes
Total time:
	user time   =       5.61 seconds =       0.09 minutes
	system time =       1.03 seconds =       0.02 minutes
	total time  =          3 seconds =       0.05 minutes

    			-----------------------------------------

    			 OPTKING 3.0: for geometry optimizations 

    			     By R.A. King, Bethel University     

    			        with contributions from          

    			    A.V. Copan, J. Cayton, A. Heide      

    			-----------------------------------------

    
	                            ===> Fragment 1 <== 

	 Z (Atomic Numbers)          Masses                          Geom                  
	       7.000000            14.003074          0.00000000  0.00000000  1.99413146   
	      14.000000            27.976927          0.00000000  0.00000000 -0.99810715   

	 - Coordinate -           - BOHR/RAD -       - ANG/DEG -
	 R(1,2)           =         2.992239           1.583424


	        --- Internal Coordinate Step in ANG or DEG, aJ/ANG or AJ/DEG ---
	-------------------------------------------------------------------------------
	           Coordinate      Previous         Force          Change          New 
	           ----------      --------        ------          ------        ------
	               R(1,2)       1.58342        0.55018        0.03669       1.62012
	-------------------------------------------------------------------------------

	                                 ==> Convergence Check <==                                  
    
	Measures of convergence in internal coordinates in au.
    
	Criteria marked as inactive (o), active & met (*), and active & unmet ( ).

	----------------------------------------------------------------------------------------------
	   Step    Total Energy     Delta E     Max Force     RMS Force      Max Disp      RMS Disp   
	----------------------------------------------------------------------------------------------
	  Convergence Criteria     1.00e-06 *    3.00e-04 *             o    1.20e-03 *             o
	----------------------------------------------------------------------------------------------
	     5    -344.10319438   -1.25e-02      6.68e-02      6.68e-02 o    6.93e-02      6.93e-02 o  ~
	----------------------------------------------------------------------------------------------

Next Geometry in Ang 
	Fragment 1 (Ang)

	    N   0.0000000000   0.0000000000   1.0735956899
	   Si   0.0000000000   0.0000000000  -0.5465223232


    Structure for next step:
    Molecular point group: c2v
    Full point group: C_inf_v

    Geometry (in Angstrom), charge = -1, multiplicity = 3:

    N            0.000000000000     0.000000000000     1.079702764309
    SI           0.000000000000     0.000000000000    -0.540415248712


Scratch directory: /tmp/
gradient() will perform analytic gradient computation.
   => Libint2 <=

    Primary   basis highest AM E, G, H:  6, 6, 3
    Auxiliary basis highest AM E, G, H:  7, 7, 4
    Onebody   basis highest AM E, G, H:  -, -, -
    Solid Harmonics ordering:            Gaussian

*** tstart() called on cics-quant-001
*** at Tue Dec 23 11:03:37 2025

   => Loading Basis Set <=

    Name: CC-PVDZ
    Role: ORBITAL
    Keyword: BASIS
    atoms 1 entry N          line   168 file /home/jrodriguesro/psi4conda/share/psi4/basis/cc-pvdz.gbs 
    atoms 2 entry SI         line   478 file /home/jrodriguesro/psi4conda/share/psi4/basis/cc-pvdz.gbs 


         ---------------------------------------------------------
                                   SCF
               by Justin Turney, Rob Parrish, Andy Simmonett
                          and Daniel G. A. Smith
                              UKS Reference
                        6 Threads,   7629 MiB Core
         ---------------------------------------------------------

  ==> Geometry <==

    Molecular point group: c2v
    Full point group: C_inf_v

    Geometry (in Angstrom), charge = -1, multiplicity = 3:

       Center              X                  Y                   Z               Mass       
    ------------   -----------------  -----------------  -----------------  -----------------
         N            0.000000000000     0.000000000000     1.079702764309    14.003074004430
         SI           0.000000000000     0.000000000000    -0.540415248712    27.976926534650

  Running in c2v symmetry.

  Rotational constants: A = ************  B =      0.68821  C =      0.68821 [cm^-1]
  Rotational constants: A = ************  B =  20632.07707  C =  20632.07707 [MHz]
  Nuclear repulsion =   32.009622897136651

  Charge       = -1
  Multiplicity = 3
  Electrons    = 22
  Nalpha       = 12
  Nbeta        = 10

  ==> Algorithm <==

  SCF Algorithm Type is DF.
  DIIS enabled.
  MOM disabled.
  Fractional occupation disabled.
  Guess Type is READ.
  Energy threshold   = 1.00e-08
  Density threshold  = 1.00e-08
  Integral threshold = 1.00e-12

  ==> Primary Basis <==

  Basis Set: CC-PVDZ
    Blend: CC-PVDZ
    Number of shells: 14
    Number of basis functions: 32
    Number of Cartesian functions: 34
    Spherical Harmonics?: true
    Max angular momentum: 2

  ==> DFT Potential <==

   => LibXC <=

    Version 7.0.0
    S. Lehtola, C. Steigemann, M. J.T. Oliveira, and M. A.L. Marques.,  SoftwareX 7, 1–5 (2018) (10.1016/j.softx.2017.11.002)

   => Composite Functional: B3LYP <= 

    B3LYP Hyb-GGA Exchange-Correlation Functional

    P. J. Stephens, F. J. Devlin, C. F. Chabalowski, and M. J. Frisch.,  J. Phys. Chem. 98, 11623 (1994) (10.1021/j100096a001)

    Deriv               =              1
    GGA                 =           TRUE
    Meta                =          FALSE

    Exchange Hybrid     =           TRUE
    MP2 Hybrid          =          FALSE

   => Exchange Functionals <=

    0.0800   Slater exchange
    0.7200         Becke 88

   => Exact (HF) Exchange <=

    0.2000               HF 

   => Correlation Functionals <=

    0.1900   Vosko, Wilk & Nusair (VWN5_RPA)
    0.8100   Lee, Yang & Parr

   => LibXC Density Thresholds  <==

    XC_HYB_GGA_XC_B3LYP:  1.00E-15 

   => Molecular Quadrature <=

    Radial Scheme          =       TREUTLER
    Pruning Scheme         =           NONE
    Nuclear Scheme         =       TREUTLER

    Blocking Scheme        =         OCTREE
    BS radius alpha        =              1
    Pruning alpha          =              1
    Radial Points          =             75
    Spherical Points       =            302
    Total Points           =          42643
    Total Blocks           =            395
    Max Points             =            254
    Max Functions          =             32
    Weights Tolerance      =       1.00E-15

   => Loading Basis Set <=

    Name: (CC-PVDZ AUX)
    Role: JKFIT
    Keyword: DF_BASIS_SCF
    atoms 1 entry N          line   171 file /home/jrodriguesro/psi4conda/share/psi4/basis/cc-pvdz-jkfit.gbs 
    atoms 2 entry SI         line   445 file /home/jrodriguesro/psi4conda/share/psi4/basis/cc-pvdz-jkfit.gbs 

   => Loading Basis Set <=

    Name: CC-PVDZ
    Role: ORBITAL
    Keyword: BASIS
    atoms 1 entry N          line   168 file /home/jrodriguesro/psi4conda/share/psi4/basis/cc-pvdz.gbs 
    atoms 2 entry SI         line   478 file /home/jrodriguesro/psi4conda/share/psi4/basis/cc-pvdz.gbs 

  Reading orbitals from file /tmp/triplet_NSi.default.378273.180.npy, no projection.

  ==> Integral Setup <==

  DFHelper Memory: AOs need 0.002 GiB; user supplied 5.549 GiB. 
  SCF_SUBTYPE=INCORE selected. In-core MEM_DF algorithm will be used.
  Using in-core AOs.

  ==> MemDFJK: Density-Fitted J/K Matrices <==

    J tasked:                   Yes
    K tasked:                   Yes
    wK tasked:                   No
    OpenMP threads:               6
    Memory [MiB]:              5682
    Algorithm:                 Core
    Schwarz Cutoff:           1E-12
    Mask sparsity (%):       0.0000
    Fitting Condition:        1E-10

   => Auxiliary Basis Set <=

  Basis Set: (CC-PVDZ AUX)
    Blend: CC-PVDZ-JKFIT
    Number of shells: 60
    Number of basis functions: 182
    Number of Cartesian functions: 211
    Spherical Harmonics?: true
    Max angular momentum: 3

  Cached 100.0% of DFT collocation blocks in 0.039 [GiB].

  Minimum eigenvalue in the overlap matrix is 2.3781354193E-02.
  Reciprocal condition number of the overlap matrix is 7.9949681168E-03.
    Using symmetric orthogonalization.

  ==> Pre-Iterations <==

  SCF Guess: Orbitals guess was supplied from a previous computation.

   -------------------------------------------------------
    Irrep   Nso     Nmo     Nalpha   Nbeta   Ndocc  Nsocc
   -------------------------------------------------------
     A1        16      16       7       6       6       1
     A2         2       2       0       0       0       0
     B1         7       7       3       2       2       1
     B2         7       7       2       2       2       0
   -------------------------------------------------------
    Total      32      32      12      10      10       2
   -------------------------------------------------------

  ==> Iterations <==

                           Total Energy        Delta E     RMS |[F,P]|

   @DF-UKS iter   0:  -344.09835144610190   -3.44098e+02   4.43113e-03 
   @DF-UKS iter   1:  -344.10631896420864   -7.96752e-03   1.25828e-03 ADIIS/DIIS
   @DF-UKS iter   2:  -344.10231945116601    3.99951e-03   4.57682e-03 ADIIS/DIIS/DAMP=1%
   @DF-UKS iter   3:  -344.10545671823229   -3.13727e-03   2.78601e-04 ADIIS/DIIS/DAMP=1%
   @DF-UKS iter   4:  -344.10654532591036   -1.08861e-03   1.04959e-04 ADIIS/DIIS/DAMP=1%
   @DF-UKS iter   5:  -344.10670631206477   -1.60986e-04   1.44520e-05 DIIS/DAMP=1%
   @DF-UKS iter   6:  -344.10672387659554   -1.75645e-05   7.65584e-06 DIIS/DAMP=1%
   @DF-UKS iter   7:  -344.10672836297027   -4.48637e-06   3.67466e-06 DIIS/DAMP=1%
   @DF-UKS iter   8:  -344.10672708749144    1.27548e-06   7.68232e-07 DIIS/DAMP=1%
   @DF-UKS iter   9:  -344.10672735149933   -2.64008e-07   2.33799e-07 DIIS/DAMP=1%
   @DF-UKS iter  10:  -344.10672699336203    3.58137e-07   1.23138e-07 DIIS/DAMP=1%
   @DF-UKS iter  11:  -344.10672717305539   -1.79693e-07   1.32698e-08 DIIS/DAMP=1%
   @DF-UKS iter  12:  -344.10672712571306    4.73423e-08   2.06311e-09 DIIS/DAMP=1%
   @DF-UKS iter  13:  -344.10672713119988   -5.48681e-09   8.69790e-10 DIIS/DAMP=1%
  Energy and wave function converged.


  ==> Post-Iterations <==

   Electrons on quadrature grid:
      Nalpha   =   12.0000000803 ; deviation = 8.034e-08
      Nbeta    =    9.9999999591 ; deviation = -4.086e-08
      Ntotal   =   22.0000000395 ; deviation = 3.948e-08 

   @Spin Contamination Metric:   1.869168273E-02
   @S^2 Expected:                2.000000000E+00
   @S^2 Observed:                2.018691683E+00
   @S   Expected:                1.000000000E+00
   @S   Observed:                1.000000000E+00

    Orbital Energies [Eh]
    ---------------------

    Alpha Occupied:                                                       

       1A1   -65.884929     2A1   -14.077610     3A1    -5.029716  
       4A1    -3.391014     1B2    -3.388238     1B1    -3.385674  
       5A1    -0.524786     6A1    -0.177017     7A1    -0.056294  
       2B1    -0.042727     2B2    -0.030909     3B1     0.122591  

    Alpha Virtual:                                                        

       3B2     0.180909     8A1     0.285628     9A1     0.476535  
       4B1     0.538449     4B2     0.540709    10A1     0.599859  
       1A2     0.616177    11A1     0.618453     5B1     0.698716  
       5B2     0.701365    12A1     0.838690     6B1     1.034488  
       6B2     1.038345    13A1     1.156376    14A1     1.476394  
       2A2     2.046995    15A1     2.047595     7B2     2.184560  
       7B1     2.185231    16A1     2.586293  

    Beta Occupied:                                                        

       1A1   -65.882542     2A1   -14.054721     3A1    -5.027150  
       1B2    -3.387768     4A1    -3.384917     1B1    -3.380307  
       5A1    -0.460628     6A1    -0.105027     2B2    -0.007160  
       2B1     0.013188  

    Beta Virtual:                                                         

       7A1     0.086592     3B2     0.201616     3B1     0.225542  
       8A1     0.303750     9A1     0.496619     4B2     0.542228  
       4B1     0.561650    10A1     0.628781     1A2     0.637801  
      11A1     0.643641     5B2     0.719676     5B1     0.741693  
      12A1     0.872552     6B2     1.061225     6B1     1.076060  
      13A1     1.216235    14A1     1.516875    15A1     2.086956  
       2A2     2.086967     7B2     2.241268     7B1     2.257841  
      16A1     2.650347  

    Final Occupation by Irrep:
             A1    A2    B1    B2 
    DOCC [     6,    0,    2,    2 ]
    SOCC [     1,    0,    1,    0 ]
    NA   [     7,    0,    3,    2 ]
    NB   [     6,    0,    2,    2 ]

  @DF-UKS Final Energy:  -344.10672713119988

   => Energetics <=

    Nuclear Repulsion Energy =             32.0096228971366514
    One-Electron Energy =                -544.5817141351029704
    Two-Electron Energy =                 191.0158131454142563
    DFT Exchange-Correlation Energy =     -22.5504490386478231
    Empirical Dispersion Energy =           0.0000000000000000
    VV10 Nonlocal Energy =                  0.0000000000000000
    Total Energy =                       -344.1067271311998752

  UHF NO Occupations:
  HONO-2 :    2 B2 1.9946594
  HONO-1 :    3 B1 1.0000000
  HONO-0 :    7 A1 1.0000000
  LUNO+0 :    3 B2 0.0053406
  LUNO+1 :    8 A1 0.0020805
  LUNO+2 :    4 B1 0.0015202
  LUNO+3 :    9 A1 0.0004220


Computation Completed


Properties will be evaluated at   0.000000,   0.000000,   0.000000 [a0]

Properties computed using the SCF density matrix


 Multipole Moments:

 ------------------------------------------------------------------------------------
     Multipole            Electronic (a.u.)      Nuclear  (a.u.)        Total (a.u.)
 ------------------------------------------------------------------------------------

 L = 1.  Multiply by 2.5417464519 to convert [e a0] to [Debye]
 Dipole X            :          0.0000000            0.0000000            0.0000000
 Dipole Y            :          0.0000000            0.0000000            0.0000000
 Dipole Z            :         -0.2000912           -0.0149177           -0.2150089
 Magnitude           :                                                    0.2150089

 ------------------------------------------------------------------------------------

*** tstop() called on cics-quant-001 at Tue Dec 23 11:03:38 2025
Module time:
	user time   =       1.01 seconds =       0.02 minutes
	system time =       0.10 seconds =       0.00 minutes
	total time  =          1 seconds =       0.02 minutes
Total time:
	user time   =       6.64 seconds =       0.11 minutes
	system time =       1.13 seconds =       0.02 minutes
	total time  =          4 seconds =       0.07 minutes

*** tstart() called on cics-quant-001
*** at Tue Dec 23 11:03:38 2025


         ------------------------------------------------------------
                                   SCF GRAD                          
                          Rob Parrish, Justin Turney,                
                       Andy Simmonett, and Alex Sokolov              
         ------------------------------------------------------------

  ==> Geometry <==

    Molecular point group: c2v
    Full point group: C_inf_v

    Geometry (in Angstrom), charge = -1, multiplicity = 3:

       Center              X                  Y                   Z               Mass       
    ------------   -----------------  -----------------  -----------------  -----------------
         N            0.000000000000     0.000000000000     1.079702764309    14.003074004430
         SI           0.000000000000     0.000000000000    -0.540415248712    27.976926534650

  Nuclear repulsion =   32.009622897136651

  ==> Basis Set <==

  Basis Set: CC-PVDZ
    Blend: CC-PVDZ
    Number of shells: 14
    Number of basis functions: 32
    Number of Cartesian functions: 34
    Spherical Harmonics?: true
    Max angular momentum: 2

  ==> DFJKGrad: Density-Fitted SCF Gradients <==

    Gradient:                    1
    J tasked:                  Yes
    K tasked:                  Yes
    wK tasked:                  No
    OpenMP threads:              6
    Integrals threads:           6
    Memory [MiB]:             5722
    Schwarz Cutoff:          1E-12
    Fitting Condition:       1E-10

   => Auxiliary Basis Set <=

  Basis Set: (CC-PVDZ AUX)
    Blend: CC-PVDZ-JKFIT
    Number of shells: 60
    Number of basis functions: 182
    Number of Cartesian functions: 211
    Spherical Harmonics?: true
    Max angular momentum: 3

  ==> DFT Potential <==

   => LibXC <=

    Version 7.0.0
    S. Lehtola, C. Steigemann, M. J.T. Oliveira, and M. A.L. Marques.,  SoftwareX 7, 1–5 (2018) (10.1016/j.softx.2017.11.002)

   => Composite Functional: B3LYP <= 

    B3LYP Hyb-GGA Exchange-Correlation Functional

    P. J. Stephens, F. J. Devlin, C. F. Chabalowski, and M. J. Frisch.,  J. Phys. Chem. 98, 11623 (1994) (10.1021/j100096a001)

    Deriv               =              1
    GGA                 =           TRUE
    Meta                =          FALSE

    Exchange Hybrid     =           TRUE
    MP2 Hybrid          =          FALSE

   => Exchange Functionals <=

    0.0800   Slater exchange
    0.7200         Becke 88

   => Exact (HF) Exchange <=

    0.2000               HF 

   => Correlation Functionals <=

    0.1900   Vosko, Wilk & Nusair (VWN5_RPA)
    0.8100   Lee, Yang & Parr

   => LibXC Density Thresholds  <==

    XC_HYB_GGA_XC_B3LYP:  1.00E-15 

   => Molecular Quadrature <=

    Radial Scheme          =       TREUTLER
    Pruning Scheme         =           NONE
    Nuclear Scheme         =       TREUTLER

    Blocking Scheme        =         OCTREE
    BS radius alpha        =              1
    Pruning alpha          =              1
    Radial Points          =             75
    Spherical Points       =            302
    Total Points           =          42643
    Total Blocks           =            395
    Max Points             =            254
    Max Functions          =             32
    Weights Tolerance      =       1.00E-15


  -Total Gradient:
     Atom            X                  Y                   Z
    ------   -----------------  -----------------  -----------------
       1       -0.000000000000     0.000000000000    -0.036094747553
       2        0.000000000000    -0.000000000000     0.036067776903


*** tstop() called on cics-quant-001 at Tue Dec 23 11:03:38 2025
Module time:
	user time   =       0.20 seconds =       0.00 minutes
	system time =       0.13 seconds =       0.00 minutes
	total time  =          0 seconds =       0.00 minutes
Total time:
	user time   =       6.85 seconds =       0.11 minutes
	system time =       1.26 seconds =       0.02 minutes
	total time  =          4 seconds =       0.07 minutes

    			-----------------------------------------

    			 OPTKING 3.0: for geometry optimizations 

    			     By R.A. King, Bethel University     

    			        with contributions from          

    			    A.V. Copan, J. Cayton, A. Heide      

    			-----------------------------------------

    
	                            ===> Fragment 1 <== 

	 Z (Atomic Numbers)          Masses                          Geom                  
	       7.000000            14.003074          0.00000000  0.00000000  2.04034252   
	      14.000000            27.976927          0.00000000  0.00000000 -1.02123681   

	 - Coordinate -           - BOHR/RAD -       - ANG/DEG -
	 R(1,2)           =         3.061579           1.620118


	        --- Internal Coordinate Step in ANG or DEG, aJ/ANG or AJ/DEG ---
	-------------------------------------------------------------------------------
	           Coordinate      Previous         Force          Change          New 
	           ----------      --------        ------          ------        ------
	               R(1,2)       1.62012        0.29726        0.02971       1.64983
	-------------------------------------------------------------------------------

	                                 ==> Convergence Check <==                                  
    
	Measures of convergence in internal coordinates in au.
    
	Criteria marked as inactive (o), active & met (*), and active & unmet ( ).

	----------------------------------------------------------------------------------------------
	   Step    Total Energy     Delta E     Max Force     RMS Force      Max Disp      RMS Disp   
	----------------------------------------------------------------------------------------------
	  Convergence Criteria     1.00e-06 *    3.00e-04 *             o    1.20e-03 *             o
	----------------------------------------------------------------------------------------------
	     6    -344.10672713   -3.53e-03      3.61e-02      3.61e-02 o    5.61e-02      5.61e-02 o  ~
	----------------------------------------------------------------------------------------------

Next Geometry in Ang 
	Fragment 1 (Ang)

	    N   0.0000000000   0.0000000000   1.0945576748
	   Si   0.0000000000   0.0000000000  -0.5552701592


    Structure for next step:
    Molecular point group: c2v
    Full point group: C_inf_v

    Geometry (in Angstrom), charge = -1, multiplicity = 3:

    N            0.000000000000     0.000000000000     1.099502418203
    SI           0.000000000000     0.000000000000    -0.550325415877


Scratch directory: /tmp/
gradient() will perform analytic gradient computation.
   => Libint2 <=

    Primary   basis highest AM E, G, H:  6, 6, 3
    Auxiliary basis highest AM E, G, H:  7, 7, 4
    Onebody   basis highest AM E, G, H:  -, -, -
    Solid Harmonics ordering:            Gaussian

*** tstart() called on cics-quant-001
*** at Tue Dec 23 11:03:38 2025

   => Loading Basis Set <=

    Name: CC-PVDZ
    Role: ORBITAL
    Keyword: BASIS
    atoms 1 entry N          line   168 file /home/jrodriguesro/psi4conda/share/psi4/basis/cc-pvdz.gbs 
    atoms 2 entry SI         line   478 file /home/jrodriguesro/psi4conda/share/psi4/basis/cc-pvdz.gbs 


         ---------------------------------------------------------
                                   SCF
               by Justin Turney, Rob Parrish, Andy Simmonett
                          and Daniel G. A. Smith
                              UKS Reference
                        6 Threads,   7629 MiB Core
         ---------------------------------------------------------

  ==> Geometry <==

    Molecular point group: c2v
    Full point group: C_inf_v

    Geometry (in Angstrom), charge = -1, multiplicity = 3:

       Center              X                  Y                   Z               Mass       
    ------------   -----------------  -----------------  -----------------  -----------------
         N            0.000000000000     0.000000000000     1.099502418203    14.003074004430
         SI           0.000000000000     0.000000000000    -0.550325415877    27.976926534650

  Running in c2v symmetry.

  Rotational constants: A = ************  B =      0.66365  C =      0.66365 [cm^-1]
  Rotational constants: A = ************  B =  19895.68976  C =  19895.68976 [MHz]
  Nuclear repulsion =   31.433199012887904

  Charge       = -1
  Multiplicity = 3
  Electrons    = 22
  Nalpha       = 12
  Nbeta        = 10

  ==> Algorithm <==

  SCF Algorithm Type is DF.
  DIIS enabled.
  MOM disabled.
  Fractional occupation disabled.
  Guess Type is READ.
  Energy threshold   = 1.00e-08
  Density threshold  = 1.00e-08
  Integral threshold = 1.00e-12

  ==> Primary Basis <==

  Basis Set: CC-PVDZ
    Blend: CC-PVDZ
    Number of shells: 14
    Number of basis functions: 32
    Number of Cartesian functions: 34
    Spherical Harmonics?: true
    Max angular momentum: 2

  ==> DFT Potential <==

   => LibXC <=

    Version 7.0.0
    S. Lehtola, C. Steigemann, M. J.T. Oliveira, and M. A.L. Marques.,  SoftwareX 7, 1–5 (2018) (10.1016/j.softx.2017.11.002)

   => Composite Functional: B3LYP <= 

    B3LYP Hyb-GGA Exchange-Correlation Functional

    P. J. Stephens, F. J. Devlin, C. F. Chabalowski, and M. J. Frisch.,  J. Phys. Chem. 98, 11623 (1994) (10.1021/j100096a001)

    Deriv               =              1
    GGA                 =           TRUE
    Meta                =          FALSE

    Exchange Hybrid     =           TRUE
    MP2 Hybrid          =          FALSE

   => Exchange Functionals <=

    0.0800   Slater exchange
    0.7200         Becke 88

   => Exact (HF) Exchange <=

    0.2000               HF 

   => Correlation Functionals <=

    0.1900   Vosko, Wilk & Nusair (VWN5_RPA)
    0.8100   Lee, Yang & Parr

   => LibXC Density Thresholds  <==

    XC_HYB_GGA_XC_B3LYP:  1.00E-15 

   => Molecular Quadrature <=

    Radial Scheme          =       TREUTLER
    Pruning Scheme         =           NONE
    Nuclear Scheme         =       TREUTLER

    Blocking Scheme        =         OCTREE
    BS radius alpha        =              1
    Pruning alpha          =              1
    Radial Points          =             75
    Spherical Points       =            302
    Total Points           =          42644
    Total Blocks           =            394
    Max Points             =            254
    Max Functions          =             32
    Weights Tolerance      =       1.00E-15

   => Loading Basis Set <=

    Name: (CC-PVDZ AUX)
    Role: JKFIT
    Keyword: DF_BASIS_SCF
    atoms 1 entry N          line   171 file /home/jrodriguesro/psi4conda/share/psi4/basis/cc-pvdz-jkfit.gbs 
    atoms 2 entry SI         line   445 file /home/jrodriguesro/psi4conda/share/psi4/basis/cc-pvdz-jkfit.gbs 

   => Loading Basis Set <=

    Name: CC-PVDZ
    Role: ORBITAL
    Keyword: BASIS
    atoms 1 entry N          line   168 file /home/jrodriguesro/psi4conda/share/psi4/basis/cc-pvdz.gbs 
    atoms 2 entry SI         line   478 file /home/jrodriguesro/psi4conda/share/psi4/basis/cc-pvdz.gbs 

  Reading orbitals from file /tmp/triplet_NSi.default.378273.180.npy, no projection.

  ==> Integral Setup <==

  DFHelper Memory: AOs need 0.002 GiB; user supplied 5.549 GiB. 
  SCF_SUBTYPE=INCORE selected. In-core MEM_DF algorithm will be used.
  Using in-core AOs.

  ==> MemDFJK: Density-Fitted J/K Matrices <==

    J tasked:                   Yes
    K tasked:                   Yes
    wK tasked:                   No
    OpenMP threads:               6
    Memory [MiB]:              5682
    Algorithm:                 Core
    Schwarz Cutoff:           1E-12
    Mask sparsity (%):       0.0000
    Fitting Condition:        1E-10

   => Auxiliary Basis Set <=

  Basis Set: (CC-PVDZ AUX)
    Blend: CC-PVDZ-JKFIT
    Number of shells: 60
    Number of basis functions: 182
    Number of Cartesian functions: 211
    Spherical Harmonics?: true
    Max angular momentum: 3

  Cached 100.0% of DFT collocation blocks in 0.039 [GiB].

  Minimum eigenvalue in the overlap matrix is 2.5280365679E-02.
  Reciprocal condition number of the overlap matrix is 8.5459390342E-03.
    Using symmetric orthogonalization.

  ==> Pre-Iterations <==

  SCF Guess: Orbitals guess was supplied from a previous computation.

   -------------------------------------------------------
    Irrep   Nso     Nmo     Nalpha   Nbeta   Ndocc  Nsocc
   -------------------------------------------------------
     A1        16      16       7       6       6       1
     A2         2       2       0       0       0       0
     B1         7       7       3       2       2       1
     B2         7       7       2       2       2       0
   -------------------------------------------------------
    Total      32      32      12      10      10       2
   -------------------------------------------------------

  ==> Iterations <==

                           Total Energy        Delta E     RMS |[F,P]|

   @DF-UKS iter   0:  -344.10144201282043   -3.44101e+02   3.38412e-03 
   @DF-UKS iter   1:  -344.10786217318037   -6.42016e-03   1.06194e-03 ADIIS/DIIS
   @DF-UKS iter   2:  -344.10492921882110    2.93295e-03   3.90446e-03 ADIIS/DIIS/DAMP=1%
   @DF-UKS iter   3:  -344.10702341289777   -2.09419e-03   1.50313e-04 ADIIS/DIIS/DAMP=1%
   @DF-UKS iter   4:  -344.10806633389609   -1.04292e-03   8.25542e-05 DIIS/DAMP=1%
   @DF-UKS iter   5:  -344.10813135572749   -6.50218e-05   1.13146e-05 DIIS/DAMP=1%
   @DF-UKS iter   6:  -344.10814913285895   -1.77771e-05   7.15452e-06 DIIS/DAMP=1%
   @DF-UKS iter   7:  -344.10815132486749   -2.19201e-06   2.72569e-06 DIIS/DAMP=1%
   @DF-UKS iter   8:  -344.10814989304623    1.43182e-06   6.97770e-07 DIIS/DAMP=1%
   @DF-UKS iter   9:  -344.10815041830296   -5.25257e-07   2.78367e-07 DIIS/DAMP=1%
   @DF-UKS iter  10:  -344.10815013516117    2.83142e-07   8.96182e-08 DIIS/DAMP=1%
   @DF-UKS iter  11:  -344.10815023863358   -1.03472e-07   6.23554e-09 DIIS/DAMP=1%
   @DF-UKS iter  12:  -344.10815020449633    3.41373e-08   1.15390e-09 DIIS/DAMP=1%
   @DF-UKS iter  13:  -344.10815020778352   -3.28720e-09   3.51765e-10 DIIS/DAMP=1%
  Energy and wave function converged.


  ==> Post-Iterations <==

   Electrons on quadrature grid:
      Nalpha   =   12.0000004319 ; deviation = 4.319e-07
      Nbeta    =   10.0000001876 ; deviation = 1.876e-07
      Ntotal   =   22.0000006195 ; deviation = 6.195e-07 

   @Spin Contamination Metric:   2.154579802E-02
   @S^2 Expected:                2.000000000E+00
   @S^2 Observed:                2.021545798E+00
   @S   Expected:                1.000000000E+00
   @S   Observed:                1.000000000E+00

    Orbital Energies [Eh]
    ---------------------

    Alpha Occupied:                                                       

       1A1   -65.888651     2A1   -14.081361     3A1    -5.032277  
       4A1    -3.393471     1B2    -3.390909     1B1    -3.388366  
       5A1    -0.520824     6A1    -0.178980     7A1    -0.056945  
       2B1    -0.040814     2B2    -0.028861     3B1     0.119293  

    Alpha Virtual:                                                        

       3B2     0.177627     8A1     0.283170     9A1     0.475419  
       4B1     0.537760     4B2     0.540168    10A1     0.595497  
       1A2     0.615438    11A1     0.617754     5B1     0.691682  
       5B2     0.694506    12A1     0.834107     6B1     1.034201  
       6B2     1.037902    13A1     1.132597    14A1     1.477388  
       2A2     2.045473    15A1     2.046060     7B2     2.173493  
       7B1     2.174240    16A1     2.571636  

    Beta Occupied:                                                        

       1A1   -65.886292     2A1   -14.058175     3A1    -5.029745  
       1B2    -3.390537     4A1    -3.387507     1B1    -3.382918  
       5A1    -0.455262     6A1    -0.108528     2B2    -0.004107  
       2B1     0.016095  

    Beta Virtual:                                                         

       7A1     0.086330     3B2     0.198329     3B1     0.222227  
       8A1     0.302171     9A1     0.494962     4B2     0.541064  
       4B1     0.560583    10A1     0.625293     1A2     0.636591  
      11A1     0.641013     5B2     0.712531     5B1     0.734669  
      12A1     0.868315     6B2     1.061632     6B1     1.076277  
      13A1     1.193605    14A1     1.518145    15A1     2.086513  
       2A2     2.086528     7B2     2.231183     7B1     2.247545  
      16A1     2.636572  

    Final Occupation by Irrep:
             A1    A2    B1    B2 
    DOCC [     6,    0,    2,    2 ]
    SOCC [     1,    0,    1,    0 ]
    NA   [     7,    0,    3,    2 ]
    NB   [     6,    0,    2,    2 ]

  @DF-UKS Final Energy:  -344.10815020778352

   => Energetics <=

    Nuclear Repulsion Energy =             31.4331990128879042
    One-Electron Energy =                -543.4137034310454055
    Two-Electron Energy =                 190.4114190425900119
    DFT Exchange-Correlation Energy =     -22.5390648322160168
    Empirical Dispersion Energy =           0.0000000000000000
    VV10 Nonlocal Energy =                  0.0000000000000000
    Total Energy =                       -344.1081502077835239

  UHF NO Occupations:
  HONO-2 :    2 B2 1.9933885
  HONO-1 :    3 B1 1.0000000
  HONO-0 :    7 A1 1.0000000
  LUNO+0 :    3 B2 0.0066115
  LUNO+1 :    8 A1 0.0021935
  LUNO+2 :    4 B1 0.0015699
  LUNO+3 :    9 A1 0.0004233


Computation Completed


Properties will be evaluated at   0.000000,   0.000000,   0.000000 [a0]

Properties computed using the SCF density matrix


 Multipole Moments:

 ------------------------------------------------------------------------------------
     Multipole            Electronic (a.u.)      Nuclear  (a.u.)        Total (a.u.)
 ------------------------------------------------------------------------------------

 L = 1.  Multiply by 2.5417464519 to convert [e a0] to [Debye]
 Dipole X            :          0.0000000            0.0000000            0.0000000
 Dipole Y            :          0.0000000            0.0000000            0.0000000
 Dipole Z            :         -0.2209269           -0.0151913           -0.2361182
 Magnitude           :                                                    0.2361182

 ------------------------------------------------------------------------------------

*** tstop() called on cics-quant-001 at Tue Dec 23 11:03:38 2025
Module time:
	user time   =       1.02 seconds =       0.02 minutes
	system time =       0.08 seconds =       0.00 minutes
	total time  =          0 seconds =       0.00 minutes
Total time:
	user time   =       7.89 seconds =       0.13 minutes
	system time =       1.34 seconds =       0.02 minutes
	total time  =          4 seconds =       0.07 minutes

*** tstart() called on cics-quant-001
*** at Tue Dec 23 11:03:38 2025


         ------------------------------------------------------------
                                   SCF GRAD                          
                          Rob Parrish, Justin Turney,                
                       Andy Simmonett, and Alex Sokolov              
         ------------------------------------------------------------

  ==> Geometry <==

    Molecular point group: c2v
    Full point group: C_inf_v

    Geometry (in Angstrom), charge = -1, multiplicity = 3:

       Center              X                  Y                   Z               Mass       
    ------------   -----------------  -----------------  -----------------  -----------------
         N            0.000000000000     0.000000000000     1.099502418203    14.003074004430
         SI           0.000000000000     0.000000000000    -0.550325415877    27.976926534650

  Nuclear repulsion =   31.433199012887904

  ==> Basis Set <==

  Basis Set: CC-PVDZ
    Blend: CC-PVDZ
    Number of shells: 14
    Number of basis functions: 32
    Number of Cartesian functions: 34
    Spherical Harmonics?: true
    Max angular momentum: 2

  ==> DFJKGrad: Density-Fitted SCF Gradients <==

    Gradient:                    1
    J tasked:                  Yes
    K tasked:                  Yes
    wK tasked:                  No
    OpenMP threads:              6
    Integrals threads:           6
    Memory [MiB]:             5722
    Schwarz Cutoff:          1E-12
    Fitting Condition:       1E-10

   => Auxiliary Basis Set <=

  Basis Set: (CC-PVDZ AUX)
    Blend: CC-PVDZ-JKFIT
    Number of shells: 60
    Number of basis functions: 182
    Number of Cartesian functions: 211
    Spherical Harmonics?: true
    Max angular momentum: 3

  ==> DFT Potential <==

   => LibXC <=

    Version 7.0.0
    S. Lehtola, C. Steigemann, M. J.T. Oliveira, and M. A.L. Marques.,  SoftwareX 7, 1–5 (2018) (10.1016/j.softx.2017.11.002)

   => Composite Functional: B3LYP <= 

    B3LYP Hyb-GGA Exchange-Correlation Functional

    P. J. Stephens, F. J. Devlin, C. F. Chabalowski, and M. J. Frisch.,  J. Phys. Chem. 98, 11623 (1994) (10.1021/j100096a001)

    Deriv               =              1
    GGA                 =           TRUE
    Meta                =          FALSE

    Exchange Hybrid     =           TRUE
    MP2 Hybrid          =          FALSE

   => Exchange Functionals <=

    0.0800   Slater exchange
    0.7200         Becke 88

   => Exact (HF) Exchange <=

    0.2000               HF 

   => Correlation Functionals <=

    0.1900   Vosko, Wilk & Nusair (VWN5_RPA)
    0.8100   Lee, Yang & Parr

   => LibXC Density Thresholds  <==

    XC_HYB_GGA_XC_B3LYP:  1.00E-15 

   => Molecular Quadrature <=

    Radial Scheme          =       TREUTLER
    Pruning Scheme         =           NONE
    Nuclear Scheme         =       TREUTLER

    Blocking Scheme        =         OCTREE
    BS radius alpha        =              1
    Pruning alpha          =              1
    Radial Points          =             75
    Spherical Points       =            302
    Total Points           =          42644
    Total Blocks           =            394
    Max Points             =            254
    Max Functions          =             32
    Weights Tolerance      =       1.00E-15


  -Total Gradient:
     Atom            X                  Y                   Z
    ------   -----------------  -----------------  -----------------
       1        0.000000000000    -0.000000000000    -0.015162535138
       2        0.000000000000    -0.000000000000     0.015139646431


*** tstop() called on cics-quant-001 at Tue Dec 23 11:03:38 2025
Module time:
	user time   =       0.18 seconds =       0.00 minutes
	system time =       0.14 seconds =       0.00 minutes
	total time  =          0 seconds =       0.00 minutes
Total time:
	user time   =       8.07 seconds =       0.13 minutes
	system time =       1.48 seconds =       0.02 minutes
	total time  =          4 seconds =       0.07 minutes

    			-----------------------------------------

    			 OPTKING 3.0: for geometry optimizations 

    			     By R.A. King, Bethel University     

    			        with contributions from          

    			    A.V. Copan, J. Cayton, A. Heide      

    			-----------------------------------------

    
	                            ===> Fragment 1 <== 

	 Z (Atomic Numbers)          Masses                          Geom                  
	       7.000000            14.003074          0.00000000  0.00000000  2.07775844   
	      14.000000            27.976927          0.00000000  0.00000000 -1.03996432   

	 - Coordinate -           - BOHR/RAD -       - ANG/DEG -
	 R(1,2)           =         3.117723           1.649828


	        --- Internal Coordinate Step in ANG or DEG, aJ/ANG or AJ/DEG ---
	-------------------------------------------------------------------------------
	           Coordinate      Previous         Force          Change          New 
	           ----------      --------        ------          ------        ------
	               R(1,2)       1.64983        0.12483        0.01332       1.66315
	-------------------------------------------------------------------------------

	                                 ==> Convergence Check <==                                  
    
	Measures of convergence in internal coordinates in au.
    
	Criteria marked as inactive (o), active & met (*), and active & unmet ( ).

	----------------------------------------------------------------------------------------------
	   Step    Total Energy     Delta E     Max Force     RMS Force      Max Disp      RMS Disp   
	----------------------------------------------------------------------------------------------
	  Convergence Criteria     1.00e-06 *    3.00e-04 *             o    1.20e-03 *             o
	----------------------------------------------------------------------------------------------
	     7    -344.10815021   -1.42e-03      1.52e-02      1.52e-02 o    2.52e-02      2.52e-02 o  ~
	----------------------------------------------------------------------------------------------

Next Geometry in Ang 
	Fragment 1 (Ang)

	    N   0.0000000000   0.0000000000   1.1061613250
	   Si   0.0000000000   0.0000000000  -0.5569843227


    Structure for next step:
    Molecular point group: c2v
    Full point group: C_inf_v

    Geometry (in Angstrom), charge = -1, multiplicity = 3:

    N            0.000000000000     0.000000000000     1.108377870499
    SI           0.000000000000     0.000000000000    -0.554767777162


Scratch directory: /tmp/
gradient() will perform analytic gradient computation.
   => Libint2 <=

    Primary   basis highest AM E, G, H:  6, 6, 3
    Auxiliary basis highest AM E, G, H:  7, 7, 4
    Onebody   basis highest AM E, G, H:  -, -, -
    Solid Harmonics ordering:            Gaussian

*** tstart() called on cics-quant-001
*** at Tue Dec 23 11:03:38 2025

   => Loading Basis Set <=

    Name: CC-PVDZ
    Role: ORBITAL
    Keyword: BASIS
    atoms 1 entry N          line   168 file /home/jrodriguesro/psi4conda/share/psi4/basis/cc-pvdz.gbs 
    atoms 2 entry SI         line   478 file /home/jrodriguesro/psi4conda/share/psi4/basis/cc-pvdz.gbs 


         ---------------------------------------------------------
                                   SCF
               by Justin Turney, Rob Parrish, Andy Simmonett
                          and Daniel G. A. Smith
                              UKS Reference
                        6 Threads,   7629 MiB Core
         ---------------------------------------------------------

  ==> Geometry <==

    Molecular point group: c2v
    Full point group: C_inf_v

    Geometry (in Angstrom), charge = -1, multiplicity = 3:

       Center              X                  Y                   Z               Mass       
    ------------   -----------------  -----------------  -----------------  -----------------
         N            0.000000000000     0.000000000000     1.108377870499    14.003074004430
         SI           0.000000000000     0.000000000000    -0.554767777162    27.976926534650

  Running in c2v symmetry.

  Rotational constants: A = ************  B =      0.65306  C =      0.65306 [cm^-1]
  Rotational constants: A = ************  B =  19578.33185  C =  19578.33185 [MHz]
  Nuclear repulsion =   31.181494367970053

  Charge       = -1
  Multiplicity = 3
  Electrons    = 22
  Nalpha       = 12
  Nbeta        = 10

  ==> Algorithm <==

  SCF Algorithm Type is DF.
  DIIS enabled.
  MOM disabled.
  Fractional occupation disabled.
  Guess Type is READ.
  Energy threshold   = 1.00e-08
  Density threshold  = 1.00e-08
  Integral threshold = 1.00e-12

  ==> Primary Basis <==

  Basis Set: CC-PVDZ
    Blend: CC-PVDZ
    Number of shells: 14
    Number of basis functions: 32
    Number of Cartesian functions: 34
    Spherical Harmonics?: true
    Max angular momentum: 2

  ==> DFT Potential <==

   => LibXC <=

    Version 7.0.0
    S. Lehtola, C. Steigemann, M. J.T. Oliveira, and M. A.L. Marques.,  SoftwareX 7, 1–5 (2018) (10.1016/j.softx.2017.11.002)

   => Composite Functional: B3LYP <= 

    B3LYP Hyb-GGA Exchange-Correlation Functional

    P. J. Stephens, F. J. Devlin, C. F. Chabalowski, and M. J. Frisch.,  J. Phys. Chem. 98, 11623 (1994) (10.1021/j100096a001)

    Deriv               =              1
    GGA                 =           TRUE
    Meta                =          FALSE

    Exchange Hybrid     =           TRUE
    MP2 Hybrid          =          FALSE

   => Exchange Functionals <=

    0.0800   Slater exchange
    0.7200         Becke 88

   => Exact (HF) Exchange <=

    0.2000               HF 

   => Correlation Functionals <=

    0.1900   Vosko, Wilk & Nusair (VWN5_RPA)
    0.8100   Lee, Yang & Parr

   => LibXC Density Thresholds  <==

    XC_HYB_GGA_XC_B3LYP:  1.00E-15 

   => Molecular Quadrature <=

    Radial Scheme          =       TREUTLER
    Pruning Scheme         =           NONE
    Nuclear Scheme         =       TREUTLER

    Blocking Scheme        =         OCTREE
    BS radius alpha        =              1
    Pruning alpha          =              1
    Radial Points          =             75
    Spherical Points       =            302
    Total Points           =          42644
    Total Blocks           =            392
    Max Points             =            254
    Max Functions          =             32
    Weights Tolerance      =       1.00E-15

   => Loading Basis Set <=

    Name: (CC-PVDZ AUX)
    Role: JKFIT
    Keyword: DF_BASIS_SCF
    atoms 1 entry N          line   171 file /home/jrodriguesro/psi4conda/share/psi4/basis/cc-pvdz-jkfit.gbs 
    atoms 2 entry SI         line   445 file /home/jrodriguesro/psi4conda/share/psi4/basis/cc-pvdz-jkfit.gbs 

   => Loading Basis Set <=

    Name: CC-PVDZ
    Role: ORBITAL
    Keyword: BASIS
    atoms 1 entry N          line   168 file /home/jrodriguesro/psi4conda/share/psi4/basis/cc-pvdz.gbs 
    atoms 2 entry SI         line   478 file /home/jrodriguesro/psi4conda/share/psi4/basis/cc-pvdz.gbs 

  Reading orbitals from file /tmp/triplet_NSi.default.378273.180.npy, no projection.

  ==> Integral Setup <==

  DFHelper Memory: AOs need 0.002 GiB; user supplied 5.549 GiB. 
  SCF_SUBTYPE=INCORE selected. In-core MEM_DF algorithm will be used.
  Using in-core AOs.

  ==> MemDFJK: Density-Fitted J/K Matrices <==

    J tasked:                   Yes
    K tasked:                   Yes
    wK tasked:                   No
    OpenMP threads:               6
    Memory [MiB]:              5682
    Algorithm:                 Core
    Schwarz Cutoff:           1E-12
    Mask sparsity (%):       0.0000
    Fitting Condition:        1E-10

   => Auxiliary Basis Set <=

  Basis Set: (CC-PVDZ AUX)
    Blend: CC-PVDZ-JKFIT
    Number of shells: 60
    Number of basis functions: 182
    Number of Cartesian functions: 211
    Spherical Harmonics?: true
    Max angular momentum: 3

  Cached 100.0% of DFT collocation blocks in 0.039 [GiB].

  Minimum eigenvalue in the overlap matrix is 2.5962420681E-02.
  Reciprocal condition number of the overlap matrix is 8.7989158003E-03.
    Using symmetric orthogonalization.

  ==> Pre-Iterations <==

  SCF Guess: Orbitals guess was supplied from a previous computation.

   -------------------------------------------------------
    Irrep   Nso     Nmo     Nalpha   Nbeta   Ndocc  Nsocc
   -------------------------------------------------------
     A1        16      16       7       6       6       1
     A2         2       2       0       0       0       0
     B1         7       7       3       2       2       1
     B2         7       7       2       2       2       0
   -------------------------------------------------------
    Total      32      32      12      10      10       2
   -------------------------------------------------------

  ==> Iterations <==

                           Total Energy        Delta E     RMS |[F,P]|

   @DF-UKS iter   0:  -344.10542141293223   -3.44105e+02   1.46443e-03 
   @DF-UKS iter   1:  -344.10836658003183   -2.94517e-03   4.78684e-04 ADIIS/DIIS
   @DF-UKS iter   2:  -344.10777038255219    5.96197e-04   1.76079e-03 ADIIS/DIIS/DAMP=1%
   @DF-UKS iter   3:  -344.10793794689022   -1.67564e-04   6.60299e-05 DIIS/DAMP=1%
   @DF-UKS iter   4:  -344.10837327844217   -4.35332e-04   3.85593e-05 DIIS/DAMP=1%
   @DF-UKS iter   5:  -344.10841596546425   -4.26870e-05   5.54173e-06 DIIS/DAMP=1%
   @DF-UKS iter   6:  -344.10842445557233   -8.49011e-06   3.42052e-06 DIIS/DAMP=1%
   @DF-UKS iter   7:  -344.10842573128213   -1.27571e-06   1.25661e-06 DIIS/DAMP=1%
   @DF-UKS iter   8:  -344.10842491849564    8.12786e-07   3.21038e-07 DIIS/DAMP=1%
   @DF-UKS iter   9:  -344.10842519542899   -2.76933e-07   1.23397e-07 DIIS/DAMP=1%
   @DF-UKS iter  10:  -344.10842506117007    1.34259e-07   4.18659e-08 DIIS/DAMP=1%
   @DF-UKS iter  11:  -344.10842510936789   -4.81978e-08   2.78038e-09 DIIS/DAMP=1%
   @DF-UKS iter  12:  -344.10842509333440    1.60335e-08   3.71618e-10 DIIS/DAMP=1%
   @DF-UKS iter  13:  -344.10842509487611   -1.54171e-09   1.45384e-10 DIIS/DAMP=1%
  Energy and wave function converged.


  ==> Post-Iterations <==

   Electrons on quadrature grid:
      Nalpha   =   12.0000006248 ; deviation = 6.248e-07
      Nbeta    =   10.0000003207 ; deviation = 3.207e-07
      Ntotal   =   22.0000009456 ; deviation = 9.456e-07 

   @Spin Contamination Metric:   2.306530999E-02
   @S^2 Expected:                2.000000000E+00
   @S^2 Observed:                2.023065310E+00
   @S   Expected:                1.000000000E+00
   @S   Observed:                1.000000000E+00

    Orbital Energies [Eh]
    ---------------------

    Alpha Occupied:                                                       

       1A1   -65.890262     2A1   -14.082989     3A1    -5.033414  
       4A1    -3.394571     1B2    -3.392084     1B1    -3.389552  
       5A1    -0.519130     6A1    -0.179826     7A1    -0.057217  
       2B1    -0.040014     2B2    -0.028024     3B1     0.117827  

    Alpha Virtual:                                                        

       3B2     0.176164     8A1     0.282005     9A1     0.474931  
       4B1     0.537461     4B2     0.539945    10A1     0.593465  
       1A2     0.615110    11A1     0.617446     5B1     0.688617  
       5B2     0.691521    12A1     0.831934     6B1     1.034026  
       6B2     1.037640    13A1     1.122794    14A1     1.477791  
       2A2     2.044777    15A1     2.045356     7B2     2.168585  
       7B1     2.169381    16A1     2.564243  

    Beta Occupied:                                                        

       1A1   -65.887916     2A1   -14.059657     3A1    -5.030898  
       1B2    -3.391762     4A1    -3.388666     1B1    -3.384072  
       5A1    -0.452892     6A1    -0.110094     2B2    -0.002769  
       2B1     0.017352  

    Beta Virtual:                                                         

       7A1     0.086228     3B2     0.196869     3B1     0.220745  
       8A1     0.301431     9A1     0.494220     4B2     0.540543  
       4B1     0.560115    10A1     0.623529     1A2     0.636024  
      11A1     0.639919     5B2     0.709399     5B1     0.731593  
      12A1     0.866279     6B2     1.061797     6B1     1.076338  
      13A1     1.184321    14A1     1.518687    15A1     2.086340  
       2A2     2.086356     7B2     2.226757     7B1     2.243005  
      16A1     2.629604  

    Final Occupation by Irrep:
             A1    A2    B1    B2 
    DOCC [     6,    0,    2,    2 ]
    SOCC [     1,    0,    1,    0 ]
    NA   [     7,    0,    3,    2 ]
    NB   [     6,    0,    2,    2 ]

  @DF-UKS Final Energy:  -344.10842509487611

   => Energetics <=

    Nuclear Repulsion Energy =             31.1814943679700534
    One-Electron Energy =                -542.9026757824333345
    Two-Electron Energy =                 190.1469589094123762
    DFT Exchange-Correlation Energy =     -22.5342025898252167
    Empirical Dispersion Energy =           0.0000000000000000
    VV10 Nonlocal Energy =                  0.0000000000000000
    Total Energy =                       -344.1084250948761110

  UHF NO Occupations:
  HONO-2 :    2 B2 1.9926995
  HONO-1 :    7 A1 1.0000000
  HONO-0 :    3 B1 1.0000000
  LUNO+0 :    3 B2 0.0073005
  LUNO+1 :    8 A1 0.0022465
  LUNO+2 :    4 B1 0.0015919
  LUNO+3 :    9 A1 0.0004240


Computation Completed


Properties will be evaluated at   0.000000,   0.000000,   0.000000 [a0]

Properties computed using the SCF density matrix


 Multipole Moments:

 ------------------------------------------------------------------------------------
     Multipole            Electronic (a.u.)      Nuclear  (a.u.)        Total (a.u.)
 ------------------------------------------------------------------------------------

 L = 1.  Multiply by 2.5417464519 to convert [e a0] to [Debye]
 Dipole X            :          0.0000000            0.0000000            0.0000000
 Dipole Y            :          0.0000000            0.0000000            0.0000000
 Dipole Z            :         -0.2299479           -0.0153139           -0.2452619
 Magnitude           :                                                    0.2452619

 ------------------------------------------------------------------------------------

*** tstop() called on cics-quant-001 at Tue Dec 23 11:03:39 2025
Module time:
	user time   =       0.94 seconds =       0.02 minutes
	system time =       0.11 seconds =       0.00 minutes
	total time  =          1 seconds =       0.02 minutes
Total time:
	user time   =       9.03 seconds =       0.15 minutes
	system time =       1.59 seconds =       0.03 minutes
	total time  =          5 seconds =       0.08 minutes

*** tstart() called on cics-quant-001
*** at Tue Dec 23 11:03:39 2025


         ------------------------------------------------------------
                                   SCF GRAD                          
                          Rob Parrish, Justin Turney,                
                       Andy Simmonett, and Alex Sokolov              
         ------------------------------------------------------------

  ==> Geometry <==

    Molecular point group: c2v
    Full point group: C_inf_v

    Geometry (in Angstrom), charge = -1, multiplicity = 3:

       Center              X                  Y                   Z               Mass       
    ------------   -----------------  -----------------  -----------------  -----------------
         N            0.000000000000     0.000000000000     1.108377870499    14.003074004430
         SI           0.000000000000     0.000000000000    -0.554767777162    27.976926534650

  Nuclear repulsion =   31.181494367970053

  ==> Basis Set <==

  Basis Set: CC-PVDZ
    Blend: CC-PVDZ
    Number of shells: 14
    Number of basis functions: 32
    Number of Cartesian functions: 34
    Spherical Harmonics?: true
    Max angular momentum: 2

  ==> DFJKGrad: Density-Fitted SCF Gradients <==

    Gradient:                    1
    J tasked:                  Yes
    K tasked:                  Yes
    wK tasked:                  No
    OpenMP threads:              6
    Integrals threads:           6
    Memory [MiB]:             5722
    Schwarz Cutoff:          1E-12
    Fitting Condition:       1E-10

   => Auxiliary Basis Set <=

  Basis Set: (CC-PVDZ AUX)
    Blend: CC-PVDZ-JKFIT
    Number of shells: 60
    Number of basis functions: 182
    Number of Cartesian functions: 211
    Spherical Harmonics?: true
    Max angular momentum: 3

  ==> DFT Potential <==

   => LibXC <=

    Version 7.0.0
    S. Lehtola, C. Steigemann, M. J.T. Oliveira, and M. A.L. Marques.,  SoftwareX 7, 1–5 (2018) (10.1016/j.softx.2017.11.002)

   => Composite Functional: B3LYP <= 

    B3LYP Hyb-GGA Exchange-Correlation Functional

    P. J. Stephens, F. J. Devlin, C. F. Chabalowski, and M. J. Frisch.,  J. Phys. Chem. 98, 11623 (1994) (10.1021/j100096a001)

    Deriv               =              1
    GGA                 =           TRUE
    Meta                =          FALSE

    Exchange Hybrid     =           TRUE
    MP2 Hybrid          =          FALSE

   => Exchange Functionals <=

    0.0800   Slater exchange
    0.7200         Becke 88

   => Exact (HF) Exchange <=

    0.2000               HF 

   => Correlation Functionals <=

    0.1900   Vosko, Wilk & Nusair (VWN5_RPA)
    0.8100   Lee, Yang & Parr

   => LibXC Density Thresholds  <==

    XC_HYB_GGA_XC_B3LYP:  1.00E-15 

   => Molecular Quadrature <=

    Radial Scheme          =       TREUTLER
    Pruning Scheme         =           NONE
    Nuclear Scheme         =       TREUTLER

    Blocking Scheme        =         OCTREE
    BS radius alpha        =              1
    Pruning alpha          =              1
    Radial Points          =             75
    Spherical Points       =            302
    Total Points           =          42644
    Total Blocks           =            392
    Max Points             =            254
    Max Functions          =             32
    Weights Tolerance      =       1.00E-15


  -Total Gradient:
     Atom            X                  Y                   Z
    ------   -----------------  -----------------  -----------------
       1        0.000000000000     0.000000000000    -0.006795338860
       2        0.000000000000     0.000000000000     0.006776401909


*** tstop() called on cics-quant-001 at Tue Dec 23 11:03:39 2025
Module time:
	user time   =       0.23 seconds =       0.00 minutes
	system time =       0.14 seconds =       0.00 minutes
	total time  =          0 seconds =       0.00 minutes
Total time:
	user time   =       9.26 seconds =       0.15 minutes
	system time =       1.73 seconds =       0.03 minutes
	total time  =          5 seconds =       0.08 minutes

    			-----------------------------------------

    			 OPTKING 3.0: for geometry optimizations 

    			     By R.A. King, Bethel University     

    			        with contributions from          

    			    A.V. Copan, J. Cayton, A. Heide      

    			-----------------------------------------

    
	                            ===> Fragment 1 <== 

	 Z (Atomic Numbers)          Masses                          Geom                  
	       7.000000            14.003074          0.00000000  0.00000000  2.09453062   
	      14.000000            27.976927          0.00000000  0.00000000 -1.04835916   

	 - Coordinate -           - BOHR/RAD -       - ANG/DEG -
	 R(1,2)           =         3.142890           1.663146


	        --- Internal Coordinate Step in ANG or DEG, aJ/ANG or AJ/DEG ---
	-------------------------------------------------------------------------------
	           Coordinate      Previous         Force          Change          New 
	           ----------      --------        ------          ------        ------
	               R(1,2)       1.66315        0.05591        0.00751       1.67066
	-------------------------------------------------------------------------------

	                                 ==> Convergence Check <==                                  
    
	Measures of convergence in internal coordinates in au.
    
	Criteria marked as inactive (o), active & met (*), and active & unmet ( ).

	----------------------------------------------------------------------------------------------
	   Step    Total Energy     Delta E     Max Force     RMS Force      Max Disp      RMS Disp   
	----------------------------------------------------------------------------------------------
	  Convergence Criteria     1.00e-06 *    3.00e-04 *             o    1.20e-03 *             o
	----------------------------------------------------------------------------------------------
	     8    -344.10842509   -2.75e-04      6.79e-03      6.79e-03 o    1.42e-02      1.42e-02 o  ~
	----------------------------------------------------------------------------------------------

Next Geometry in Ang 
	Fragment 1 (Ang)

	    N   0.0000000000   0.0000000000   1.1121337703
	   Si   0.0000000000   0.0000000000  -0.5585236770


    Structure for next step:
    Molecular point group: c2v
    Full point group: C_inf_v

    Geometry (in Angstrom), charge = -1, multiplicity = 3:

    N            0.000000000000     0.000000000000     1.113383993987
    SI           0.000000000000     0.000000000000    -0.557273453316


Scratch directory: /tmp/
gradient() will perform analytic gradient computation.
   => Libint2 <=

    Primary   basis highest AM E, G, H:  6, 6, 3
    Auxiliary basis highest AM E, G, H:  7, 7, 4
    Onebody   basis highest AM E, G, H:  -, -, -
    Solid Harmonics ordering:            Gaussian

*** tstart() called on cics-quant-001
*** at Tue Dec 23 11:03:39 2025

   => Loading Basis Set <=

    Name: CC-PVDZ
    Role: ORBITAL
    Keyword: BASIS
    atoms 1 entry N          line   168 file /home/jrodriguesro/psi4conda/share/psi4/basis/cc-pvdz.gbs 
    atoms 2 entry SI         line   478 file /home/jrodriguesro/psi4conda/share/psi4/basis/cc-pvdz.gbs 


         ---------------------------------------------------------
                                   SCF
               by Justin Turney, Rob Parrish, Andy Simmonett
                          and Daniel G. A. Smith
                              UKS Reference
                        6 Threads,   7629 MiB Core
         ---------------------------------------------------------

  ==> Geometry <==

    Molecular point group: c2v
    Full point group: C_inf_v

    Geometry (in Angstrom), charge = -1, multiplicity = 3:

       Center              X                  Y                   Z               Mass       
    ------------   -----------------  -----------------  -----------------  -----------------
         N            0.000000000000     0.000000000000     1.113383993987    14.003074004430
         SI           0.000000000000     0.000000000000    -0.557273453316    27.976926534650

  Running in c2v symmetry.

  Rotational constants: A = ************  B =      0.64720  C =      0.64720 [cm^-1]
  Rotational constants: A = ************  B =  19402.66703  C =  19402.66703 [MHz]
  Nuclear repulsion =   31.041292593748732

  Charge       = -1
  Multiplicity = 3
  Electrons    = 22
  Nalpha       = 12
  Nbeta        = 10

  ==> Algorithm <==

  SCF Algorithm Type is DF.
  DIIS enabled.
  MOM disabled.
  Fractional occupation disabled.
  Guess Type is READ.
  Energy threshold   = 1.00e-08
  Density threshold  = 1.00e-08
  Integral threshold = 1.00e-12

  ==> Primary Basis <==

  Basis Set: CC-PVDZ
    Blend: CC-PVDZ
    Number of shells: 14
    Number of basis functions: 32
    Number of Cartesian functions: 34
    Spherical Harmonics?: true
    Max angular momentum: 2

  ==> DFT Potential <==

   => LibXC <=

    Version 7.0.0
    S. Lehtola, C. Steigemann, M. J.T. Oliveira, and M. A.L. Marques.,  SoftwareX 7, 1–5 (2018) (10.1016/j.softx.2017.11.002)

   => Composite Functional: B3LYP <= 

    B3LYP Hyb-GGA Exchange-Correlation Functional

    P. J. Stephens, F. J. Devlin, C. F. Chabalowski, and M. J. Frisch.,  J. Phys. Chem. 98, 11623 (1994) (10.1021/j100096a001)

    Deriv               =              1
    GGA                 =           TRUE
    Meta                =          FALSE

    Exchange Hybrid     =           TRUE
    MP2 Hybrid          =          FALSE

   => Exchange Functionals <=

    0.0800   Slater exchange
    0.7200         Becke 88

   => Exact (HF) Exchange <=

    0.2000               HF 

   => Correlation Functionals <=

    0.1900   Vosko, Wilk & Nusair (VWN5_RPA)
    0.8100   Lee, Yang & Parr

   => LibXC Density Thresholds  <==

    XC_HYB_GGA_XC_B3LYP:  1.00E-15 

   => Molecular Quadrature <=

    Radial Scheme          =       TREUTLER
    Pruning Scheme         =           NONE
    Nuclear Scheme         =       TREUTLER

    Blocking Scheme        =         OCTREE
    BS radius alpha        =              1
    Pruning alpha          =              1
    Radial Points          =             75
    Spherical Points       =            302
    Total Points           =          42649
    Total Blocks           =            394
    Max Points             =            254
    Max Functions          =             32
    Weights Tolerance      =       1.00E-15

   => Loading Basis Set <=

    Name: (CC-PVDZ AUX)
    Role: JKFIT
    Keyword: DF_BASIS_SCF
    atoms 1 entry N          line   171 file /home/jrodriguesro/psi4conda/share/psi4/basis/cc-pvdz-jkfit.gbs 
    atoms 2 entry SI         line   445 file /home/jrodriguesro/psi4conda/share/psi4/basis/cc-pvdz-jkfit.gbs 

   => Loading Basis Set <=

    Name: CC-PVDZ
    Role: ORBITAL
    Keyword: BASIS
    atoms 1 entry N          line   168 file /home/jrodriguesro/psi4conda/share/psi4/basis/cc-pvdz.gbs 
    atoms 2 entry SI         line   478 file /home/jrodriguesro/psi4conda/share/psi4/basis/cc-pvdz.gbs 

  Reading orbitals from file /tmp/triplet_NSi.default.378273.180.npy, no projection.

  ==> Integral Setup <==

  DFHelper Memory: AOs need 0.002 GiB; user supplied 5.549 GiB. 
  SCF_SUBTYPE=INCORE selected. In-core MEM_DF algorithm will be used.
  Using in-core AOs.

  ==> MemDFJK: Density-Fitted J/K Matrices <==

    J tasked:                   Yes
    K tasked:                   Yes
    wK tasked:                   No
    OpenMP threads:               6
    Memory [MiB]:              5682
    Algorithm:                 Core
    Schwarz Cutoff:           1E-12
    Mask sparsity (%):       0.0000
    Fitting Condition:        1E-10

   => Auxiliary Basis Set <=

  Basis Set: (CC-PVDZ AUX)
    Blend: CC-PVDZ-JKFIT
    Number of shells: 60
    Number of basis functions: 182
    Number of Cartesian functions: 211
    Spherical Harmonics?: true
    Max angular momentum: 3

  Cached 100.0% of DFT collocation blocks in 0.039 [GiB].

  Minimum eigenvalue in the overlap matrix is 2.6349663097E-02.
  Reciprocal condition number of the overlap matrix is 8.9431964941E-03.
    Using symmetric orthogonalization.

  ==> Pre-Iterations <==

  SCF Guess: Orbitals guess was supplied from a previous computation.

   -------------------------------------------------------
    Irrep   Nso     Nmo     Nalpha   Nbeta   Ndocc  Nsocc
   -------------------------------------------------------
     A1        16      16       7       6       6       1
     A2         2       2       0       0       0       0
     B1         7       7       3       2       2       1
     B2         7       7       2       2       2       0
   -------------------------------------------------------
    Total      32      32      12      10      10       2
   -------------------------------------------------------

  ==> Iterations <==

                           Total Energy        Delta E     RMS |[F,P]|

   @DF-UKS iter   0:  -344.10680210074179   -3.44107e+02   8.12135e-04 
   @DF-UKS iter   1:  -344.10847085136402   -1.66875e-03   2.70831e-04 ADIIS/DIIS
   @DF-UKS iter   2:  -344.10827932899662    1.91522e-04   9.97595e-04 ADIIS/DIIS/DAMP=1%
   @DF-UKS iter   3:  -344.10821814492681    6.11841e-05   4.14687e-05 DIIS/DAMP=1%
   @DF-UKS iter   4:  -344.10845744979400   -2.39305e-04   2.19146e-05 DIIS/DAMP=1%
   @DF-UKS iter   5:  -344.10848434408291   -2.68943e-05   3.26590e-06 DIIS/DAMP=1%
   @DF-UKS iter   6:  -344.10848920548000   -4.86140e-06   2.00228e-06 DIIS/DAMP=1%
   @DF-UKS iter   7:  -344.10848997099566   -7.65516e-07   7.27930e-07 DIIS/DAMP=1%
   @DF-UKS iter   8:  -344.10848948016087    4.90835e-07   1.84592e-07 DIIS/DAMP=1%
   @DF-UKS iter   9:  -344.10848964375253   -1.63592e-07   7.03910e-08 DIIS/DAMP=1%
   @DF-UKS iter  10:  -344.10848956528309    7.84694e-08   2.44577e-08 DIIS/DAMP=1%
   @DF-UKS iter  11:  -344.10848959352813   -2.82450e-08   1.58074e-09 DIIS/DAMP=1%
   @DF-UKS iter  12:  -344.10848958420752    9.32062e-09   2.09931e-10 DIIS/DAMP=1%
  Energy and wave function converged.


  ==> Post-Iterations <==

   Electrons on quadrature grid:
      Nalpha   =   12.0000007354 ; deviation = 7.354e-07
      Nbeta    =   10.0000003959 ; deviation = 3.959e-07
      Ntotal   =   22.0000011314 ; deviation = 1.131e-06 

   @Spin Contamination Metric:   2.400037690E-02
   @S^2 Expected:                2.000000000E+00
   @S^2 Observed:                2.024000377E+00
   @S   Expected:                1.000000000E+00
   @S   Observed:                1.000000000E+00

    Orbital Energies [Eh]
    ---------------------

    Alpha Occupied:                                                       

       1A1   -65.891154     2A1   -14.083893     3A1    -5.034052  
       4A1    -3.395190     1B2    -3.392740     1B1    -3.390215  
       5A1    -0.518198     6A1    -0.180293     7A1    -0.057365  
       2B1    -0.039578     2B2    -0.027576     3B1     0.117004  

    Alpha Virtual:                                                        

       3B2     0.175341     8A1     0.281329     9A1     0.474660  
       4B1     0.537295     4B2     0.539824    10A1     0.592300  
       1A2     0.614927    11A1     0.617274     5B1     0.686912  
       5B2     0.689862    12A1     0.830674     6B1     1.033913  
       6B2     1.037473    13A1     1.117495    14A1     1.478003  
       2A2     2.044379    15A1     2.044954     7B2     2.165833  
       7B1     2.166660    16A1     2.559870  

    Beta Occupied:                                                        

       1A1   -65.888818     2A1   -14.060475     3A1    -5.031546  
       1B2    -3.392448     4A1    -3.389319     1B1    -3.384717  
       5A1    -0.451566     6A1    -0.110976     2B2    -0.002023  
       2B1     0.018048  

    Beta Virtual:                                                         

       7A1     0.086175     3B2     0.196051     3B1     0.219910  
       8A1     0.301004     9A1     0.493803     4B2     0.540249  
       4B1     0.559854    10A1     0.622483     1A2     0.635697  
      11A1     0.639324     5B2     0.707652     5B1     0.729878  
      12A1     0.865092     6B2     1.061886     6B1     1.076362  
      13A1     1.179313    14A1     1.518983    15A1     2.086250  
       2A2     2.086267     7B2     2.224289     7B1     2.240466  
      16A1     2.625480  

    Final Occupation by Irrep:
             A1    A2    B1    B2 
    DOCC [     6,    0,    2,    2 ]
    SOCC [     1,    0,    1,    0 ]
    NA   [     7,    0,    3,    2 ]
    NB   [     6,    0,    2,    2 ]

  @DF-UKS Final Energy:  -344.10848958420752

   => Energetics <=

    Nuclear Repulsion Energy =             31.0412925937487323
    One-Electron Energy =                -542.6177699406589454
    Two-Electron Energy =                 189.9995118409298129
    DFT Exchange-Correlation Energy =     -22.5315240782271289
    Empirical Dispersion Energy =           0.0000000000000000
    VV10 Nonlocal Energy =                  0.0000000000000000
    Total Energy =                       -344.1084895842075184

  UHF NO Occupations:
  HONO-2 :    2 B2 1.9922721
  HONO-1 :    3 B1 1.0000000
  HONO-0 :    7 A1 1.0000000
  LUNO+0 :    3 B2 0.0077279
  LUNO+1 :    8 A1 0.0022771
  LUNO+2 :    4 B1 0.0016043
  LUNO+3 :    9 A1 0.0004244


Computation Completed


Properties will be evaluated at   0.000000,   0.000000,   0.000000 [a0]

Properties computed using the SCF density matrix


 Multipole Moments:

 ------------------------------------------------------------------------------------
     Multipole            Electronic (a.u.)      Nuclear  (a.u.)        Total (a.u.)
 ------------------------------------------------------------------------------------

 L = 1.  Multiply by 2.5417464519 to convert [e a0] to [Debye]
 Dipole X            :          0.0000000            0.0000000            0.0000000
 Dipole Y            :          0.0000000            0.0000000            0.0000000
 Dipole Z            :         -0.2349427           -0.0153831           -0.2503258
 Magnitude           :                                                    0.2503258

 ------------------------------------------------------------------------------------

*** tstop() called on cics-quant-001 at Tue Dec 23 11:03:39 2025
Module time:
	user time   =       0.80 seconds =       0.01 minutes
	system time =       0.10 seconds =       0.00 minutes
	total time  =          0 seconds =       0.00 minutes
Total time:
	user time   =      10.08 seconds =       0.17 minutes
	system time =       1.83 seconds =       0.03 minutes
	total time  =          5 seconds =       0.08 minutes

*** tstart() called on cics-quant-001
*** at Tue Dec 23 11:03:39 2025


         ------------------------------------------------------------
                                   SCF GRAD                          
                          Rob Parrish, Justin Turney,                
                       Andy Simmonett, and Alex Sokolov              
         ------------------------------------------------------------

  ==> Geometry <==

    Molecular point group: c2v
    Full point group: C_inf_v

    Geometry (in Angstrom), charge = -1, multiplicity = 3:

       Center              X                  Y                   Z               Mass       
    ------------   -----------------  -----------------  -----------------  -----------------
         N            0.000000000000     0.000000000000     1.113383993987    14.003074004430
         SI           0.000000000000     0.000000000000    -0.557273453316    27.976926534650

  Nuclear repulsion =   31.041292593748732

  ==> Basis Set <==

  Basis Set: CC-PVDZ
    Blend: CC-PVDZ
    Number of shells: 14
    Number of basis functions: 32
    Number of Cartesian functions: 34
    Spherical Harmonics?: true
    Max angular momentum: 2

  ==> DFJKGrad: Density-Fitted SCF Gradients <==

    Gradient:                    1
    J tasked:                  Yes
    K tasked:                  Yes
    wK tasked:                  No
    OpenMP threads:              6
    Integrals threads:           6
    Memory [MiB]:             5722
    Schwarz Cutoff:          1E-12
    Fitting Condition:       1E-10

   => Auxiliary Basis Set <=

  Basis Set: (CC-PVDZ AUX)
    Blend: CC-PVDZ-JKFIT
    Number of shells: 60
    Number of basis functions: 182
    Number of Cartesian functions: 211
    Spherical Harmonics?: true
    Max angular momentum: 3

  ==> DFT Potential <==

   => LibXC <=

    Version 7.0.0
    S. Lehtola, C. Steigemann, M. J.T. Oliveira, and M. A.L. Marques.,  SoftwareX 7, 1–5 (2018) (10.1016/j.softx.2017.11.002)

   => Composite Functional: B3LYP <= 

    B3LYP Hyb-GGA Exchange-Correlation Functional

    P. J. Stephens, F. J. Devlin, C. F. Chabalowski, and M. J. Frisch.,  J. Phys. Chem. 98, 11623 (1994) (10.1021/j100096a001)

    Deriv               =              1
    GGA                 =           TRUE
    Meta                =          FALSE

    Exchange Hybrid     =           TRUE
    MP2 Hybrid          =          FALSE

   => Exchange Functionals <=

    0.0800   Slater exchange
    0.7200         Becke 88

   => Exact (HF) Exchange <=

    0.2000               HF 

   => Correlation Functionals <=

    0.1900   Vosko, Wilk & Nusair (VWN5_RPA)
    0.8100   Lee, Yang & Parr

   => LibXC Density Thresholds  <==

    XC_HYB_GGA_XC_B3LYP:  1.00E-15 

   => Molecular Quadrature <=

    Radial Scheme          =       TREUTLER
    Pruning Scheme         =           NONE
    Nuclear Scheme         =       TREUTLER

    Blocking Scheme        =         OCTREE
    BS radius alpha        =              1
    Pruning alpha          =              1
    Radial Points          =             75
    Spherical Points       =            302
    Total Points           =          42649
    Total Blocks           =            394
    Max Points             =            254
    Max Functions          =             32
    Weights Tolerance      =       1.00E-15


  -Total Gradient:
     Atom            X                  Y                   Z
    ------   -----------------  -----------------  -----------------
       1        0.000000000000     0.000000000000    -0.002334718574
       2        0.000000000000    -0.000000000000     0.002317845228


*** tstop() called on cics-quant-001 at Tue Dec 23 11:03:40 2025
Module time:
	user time   =       0.21 seconds =       0.00 minutes
	system time =       0.14 seconds =       0.00 minutes
	total time  =          1 seconds =       0.02 minutes
Total time:
	user time   =      10.29 seconds =       0.17 minutes
	system time =       1.97 seconds =       0.03 minutes
	total time  =          6 seconds =       0.10 minutes

    			-----------------------------------------

    			 OPTKING 3.0: for geometry optimizations 

    			     By R.A. King, Bethel University     

    			        with contributions from          

    			    A.V. Copan, J. Cayton, A. Heide      

    			-----------------------------------------

    
	                            ===> Fragment 1 <== 

	 Z (Atomic Numbers)          Masses                          Geom                  
	       7.000000            14.003074          0.00000000  0.00000000  2.10399082   
	      14.000000            27.976927          0.00000000  0.00000000 -1.05309420   

	 - Coordinate -           - BOHR/RAD -       - ANG/DEG -
	 R(1,2)           =         3.157085           1.670657


	        --- Internal Coordinate Step in ANG or DEG, aJ/ANG or AJ/DEG ---
	-------------------------------------------------------------------------------
	           Coordinate      Previous         Force          Change          New 
	           ----------      --------        ------          ------        ------
	               R(1,2)       1.67066        0.01917        0.00315       1.67381
	-------------------------------------------------------------------------------

	                                 ==> Convergence Check <==                                  
    
	Measures of convergence in internal coordinates in au.
    
	Criteria marked as inactive (o), active & met (*), and active & unmet ( ).

	----------------------------------------------------------------------------------------------
	   Step    Total Energy     Delta E     Max Force     RMS Force      Max Disp      RMS Disp   
	----------------------------------------------------------------------------------------------
	  Convergence Criteria     1.00e-06 *    3.00e-04 *             o    1.20e-03 *             o
	----------------------------------------------------------------------------------------------
	     9    -344.10848958   -6.45e-05      2.33e-03      2.33e-03 o    5.95e-03      5.95e-03 o  ~
	----------------------------------------------------------------------------------------------

Next Geometry in Ang 
	Fragment 1 (Ang)

	    N   0.0000000000   0.0000000000   1.1149581485
	   Si   0.0000000000   0.0000000000  -0.5588476078


    Structure for next step:
    Molecular point group: c2v
    Full point group: C_inf_v

    Geometry (in Angstrom), charge = -1, multiplicity = 3:

    N            0.000000000000     0.000000000000     1.115482136186
    SI           0.000000000000     0.000000000000    -0.558323620155


Scratch directory: /tmp/
gradient() will perform analytic gradient computation.
   => Libint2 <=

    Primary   basis highest AM E, G, H:  6, 6, 3
    Auxiliary basis highest AM E, G, H:  7, 7, 4
    Onebody   basis highest AM E, G, H:  -, -, -
    Solid Harmonics ordering:            Gaussian

*** tstart() called on cics-quant-001
*** at Tue Dec 23 11:03:40 2025

   => Loading Basis Set <=

    Name: CC-PVDZ
    Role: ORBITAL
    Keyword: BASIS
    atoms 1 entry N          line   168 file /home/jrodriguesro/psi4conda/share/psi4/basis/cc-pvdz.gbs 
    atoms 2 entry SI         line   478 file /home/jrodriguesro/psi4conda/share/psi4/basis/cc-pvdz.gbs 


         ---------------------------------------------------------
                                   SCF
               by Justin Turney, Rob Parrish, Andy Simmonett
                          and Daniel G. A. Smith
                              UKS Reference
                        6 Threads,   7629 MiB Core
         ---------------------------------------------------------

  ==> Geometry <==

    Molecular point group: c2v
    Full point group: C_inf_v

    Geometry (in Angstrom), charge = -1, multiplicity = 3:

       Center              X                  Y                   Z               Mass       
    ------------   -----------------  -----------------  -----------------  -----------------
         N            0.000000000000     0.000000000000     1.115482136186    14.003074004430
         SI           0.000000000000     0.000000000000    -0.558323620155    27.976926534650

  Running in c2v symmetry.

  Rotational constants: A = ************  B =      0.64477  C =      0.64477 [cm^-1]
  Rotational constants: A = ************  B =  19329.74561  C =  19329.74561 [MHz]
  Nuclear repulsion =   30.982906140228053

  Charge       = -1
  Multiplicity = 3
  Electrons    = 22
  Nalpha       = 12
  Nbeta        = 10

  ==> Algorithm <==

  SCF Algorithm Type is DF.
  DIIS enabled.
  MOM disabled.
  Fractional occupation disabled.
  Guess Type is READ.
  Energy threshold   = 1.00e-08
  Density threshold  = 1.00e-08
  Integral threshold = 1.00e-12

  ==> Primary Basis <==

  Basis Set: CC-PVDZ
    Blend: CC-PVDZ
    Number of shells: 14
    Number of basis functions: 32
    Number of Cartesian functions: 34
    Spherical Harmonics?: true
    Max angular momentum: 2

  ==> DFT Potential <==

   => LibXC <=

    Version 7.0.0
    S. Lehtola, C. Steigemann, M. J.T. Oliveira, and M. A.L. Marques.,  SoftwareX 7, 1–5 (2018) (10.1016/j.softx.2017.11.002)

   => Composite Functional: B3LYP <= 

    B3LYP Hyb-GGA Exchange-Correlation Functional

    P. J. Stephens, F. J. Devlin, C. F. Chabalowski, and M. J. Frisch.,  J. Phys. Chem. 98, 11623 (1994) (10.1021/j100096a001)

    Deriv               =              1
    GGA                 =           TRUE
    Meta                =          FALSE

    Exchange Hybrid     =           TRUE
    MP2 Hybrid          =          FALSE

   => Exchange Functionals <=

    0.0800   Slater exchange
    0.7200         Becke 88

   => Exact (HF) Exchange <=

    0.2000               HF 

   => Correlation Functionals <=

    0.1900   Vosko, Wilk & Nusair (VWN5_RPA)
    0.8100   Lee, Yang & Parr

   => LibXC Density Thresholds  <==

    XC_HYB_GGA_XC_B3LYP:  1.00E-15 

   => Molecular Quadrature <=

    Radial Scheme          =       TREUTLER
    Pruning Scheme         =           NONE
    Nuclear Scheme         =       TREUTLER

    Blocking Scheme        =         OCTREE
    BS radius alpha        =              1
    Pruning alpha          =              1
    Radial Points          =             75
    Spherical Points       =            302
    Total Points           =          42648
    Total Blocks           =            393
    Max Points             =            255
    Max Functions          =             32
    Weights Tolerance      =       1.00E-15

   => Loading Basis Set <=

    Name: (CC-PVDZ AUX)
    Role: JKFIT
    Keyword: DF_BASIS_SCF
    atoms 1 entry N          line   171 file /home/jrodriguesro/psi4conda/share/psi4/basis/cc-pvdz-jkfit.gbs 
    atoms 2 entry SI         line   445 file /home/jrodriguesro/psi4conda/share/psi4/basis/cc-pvdz-jkfit.gbs 

   => Loading Basis Set <=

    Name: CC-PVDZ
    Role: ORBITAL
    Keyword: BASIS
    atoms 1 entry N          line   168 file /home/jrodriguesro/psi4conda/share/psi4/basis/cc-pvdz.gbs 
    atoms 2 entry SI         line   478 file /home/jrodriguesro/psi4conda/share/psi4/basis/cc-pvdz.gbs 

  Reading orbitals from file /tmp/triplet_NSi.default.378273.180.npy, no projection.

  ==> Integral Setup <==

  DFHelper Memory: AOs need 0.002 GiB; user supplied 5.549 GiB. 
  SCF_SUBTYPE=INCORE selected. In-core MEM_DF algorithm will be used.
  Using in-core AOs.

  ==> MemDFJK: Density-Fitted J/K Matrices <==

    J tasked:                   Yes
    K tasked:                   Yes
    wK tasked:                   No
    OpenMP threads:               6
    Memory [MiB]:              5682
    Algorithm:                 Core
    Schwarz Cutoff:           1E-12
    Mask sparsity (%):       0.0000
    Fitting Condition:        1E-10

   => Auxiliary Basis Set <=

  Basis Set: (CC-PVDZ AUX)
    Blend: CC-PVDZ-JKFIT
    Number of shells: 60
    Number of basis functions: 182
    Number of Cartesian functions: 211
    Spherical Harmonics?: true
    Max angular momentum: 3

  Cached 100.0% of DFT collocation blocks in 0.039 [GiB].

  Minimum eigenvalue in the overlap matrix is 2.6512484056E-02.
  Reciprocal condition number of the overlap matrix is 9.0040035618E-03.
    Using symmetric orthogonalization.

  ==> Pre-Iterations <==

  SCF Guess: Orbitals guess was supplied from a previous computation.

   -------------------------------------------------------
    Irrep   Nso     Nmo     Nalpha   Nbeta   Ndocc  Nsocc
   -------------------------------------------------------
     A1        16      16       7       6       6       1
     A2         2       2       0       0       0       0
     B1         7       7       3       2       2       1
     B2         7       7       2       2       2       0
   -------------------------------------------------------
    Total      32      32      12      10      10       2
   -------------------------------------------------------

  ==> Iterations <==

                           Total Energy        Delta E     RMS |[F,P]|

   @DF-UKS iter   0:  -344.10779170193103   -3.44108e+02   3.37529e-04 
   @DF-UKS iter   1:  -344.10849472479748   -7.03023e-04   1.13457e-04 ADIIS/DIIS
   @DF-UKS iter   2:  -344.10846113162847    3.35932e-05   4.17845e-04 ADIIS/DIIS/DAMP=1%
   @DF-UKS iter   3:  -344.10838567052184    7.54611e-05   1.91757e-05 DIIS/DAMP=1%
   @DF-UKS iter   4:  -344.10848363839045   -9.79679e-05   9.21666e-06 DIIS/DAMP=1%
   @DF-UKS iter   5:  -344.10849581150495   -1.21731e-05   1.40519e-06 DIIS/DAMP=1%
   @DF-UKS iter   6:  -344.10849784334823   -2.03184e-06   8.54816e-07 DIIS/DAMP=1%
   @DF-UKS iter   7:  -344.10849818237693   -3.39029e-07   3.11972e-07 DIIS/DAMP=1%
   @DF-UKS iter   8:  -344.10849797050491    2.11872e-07   7.78186e-08 DIIS/DAMP=1%
   @DF-UKS iter   9:  -344.10849803955159   -6.90467e-08   2.90824e-08 DIIS/DAMP=1%
   @DF-UKS iter  10:  -344.10849800582696    3.37246e-08   1.04909e-08 DIIS/DAMP=1%
   @DF-UKS iter  11:  -344.10849801808405   -1.22571e-08   6.67094e-10 DIIS/DAMP=1%
   @DF-UKS iter  12:  -344.10849801410478    3.97927e-09   9.65974e-11 DIIS/DAMP=1%
  Energy and wave function converged.


  ==> Post-Iterations <==

   Electrons on quadrature grid:
      Nalpha   =   12.0000007813 ; deviation = 7.813e-07
      Nbeta    =   10.0000004266 ; deviation = 4.266e-07
      Ntotal   =   22.0000012079 ; deviation = 1.208e-06 

   @Spin Contamination Metric:   2.441048557E-02
   @S^2 Expected:                2.000000000E+00
   @S^2 Observed:                2.024410486E+00
   @S   Expected:                1.000000000E+00
   @S   Observed:                1.000000000E+00

    Orbital Energies [Eh]
    ---------------------

    Alpha Occupied:                                                       

       1A1   -65.891525     2A1   -14.084269     3A1    -5.034318  
       4A1    -3.395449     1B2    -3.393014     1B1    -3.390491  
       5A1    -0.517813     6A1    -0.180487     7A1    -0.057426  
       2B1    -0.039398     2B2    -0.027394     3B1     0.116660  

    Alpha Virtual:                                                        

       3B2     0.174997     8A1     0.281042     9A1     0.474547  
       4B1     0.537226     4B2     0.539775    10A1     0.591807  
       1A2     0.614850    11A1     0.617203     5B1     0.686202  
       5B2     0.689172    12A1     0.830139     6B1     1.033862  
       6B2     1.037399    13A1     1.115322    14A1     1.478089  
       2A2     2.044211    15A1     2.044784     7B2     2.164683  
       7B1     2.165524    16A1     2.557996  

    Beta Occupied:                                                        

       1A1   -65.889192     2A1   -14.060814     3A1    -5.031816  
       1B2    -3.392734     4A1    -3.389592     1B1    -3.384987  
       5A1    -0.451013     6A1    -0.111346     2B2    -0.001711  
       2B1     0.018338  

    Beta Virtual:                                                         

       7A1     0.086153     3B2     0.195709     3B1     0.219561  
       8A1     0.300823     9A1     0.493628     4B2     0.540126  
       4B1     0.559745    10A1     0.622034     1A2     0.635559  
      11A1     0.639079     5B2     0.706924     5B1     0.729163  
      12A1     0.864586     6B2     1.061922     6B1     1.076370  
      13A1     1.177263    14A1     1.519105    15A1     2.086214  
       2A2     2.086231     7B2     2.223261     7B1     2.239407  
      16A1     2.623712  

    Final Occupation by Irrep:
             A1    A2    B1    B2 
    DOCC [     6,    0,    2,    2 ]
    SOCC [     1,    0,    1,    0 ]
    NA   [     7,    0,    3,    2 ]
    NB   [     6,    0,    2,    2 ]

  @DF-UKS Final Energy:  -344.10849801410478

   => Energetics <=

    Nuclear Repulsion Energy =             30.9829061402280530
    One-Electron Energy =                -542.4990678363941470
    Two-Electron Energy =                 189.9380787156367205
    DFT Exchange-Correlation Energy =     -22.5304150335754478
    Empirical Dispersion Energy =           0.0000000000000000
    VV10 Nonlocal Energy =                  0.0000000000000000
    Total Energy =                       -344.1084980141047822

  UHF NO Occupations:
  HONO-2 :    2 B2 1.9920838
  HONO-1 :    7 A1 1.0000000
  HONO-0 :    3 B1 1.0000000
  LUNO+0 :    3 B2 0.0079162
  LUNO+1 :    8 A1 0.0022900
  LUNO+2 :    4 B1 0.0016095
  LUNO+3 :    9 A1 0.0004246


Computation Completed


Properties will be evaluated at   0.000000,   0.000000,   0.000000 [a0]

Properties computed using the SCF density matrix


 Multipole Moments:

 ------------------------------------------------------------------------------------
     Multipole            Electronic (a.u.)      Nuclear  (a.u.)        Total (a.u.)
 ------------------------------------------------------------------------------------

 L = 1.  Multiply by 2.5417464519 to convert [e a0] to [Debye]
 Dipole X            :          0.0000000            0.0000000            0.0000000
 Dipole Y            :          0.0000000            0.0000000            0.0000000
 Dipole Z            :         -0.2370153           -0.0154121           -0.2524273
 Magnitude           :                                                    0.2524273

 ------------------------------------------------------------------------------------

*** tstop() called on cics-quant-001 at Tue Dec 23 11:03:40 2025
Module time:
	user time   =       0.77 seconds =       0.01 minutes
	system time =       0.08 seconds =       0.00 minutes
	total time  =          0 seconds =       0.00 minutes
Total time:
	user time   =      11.08 seconds =       0.18 minutes
	system time =       2.05 seconds =       0.03 minutes
	total time  =          6 seconds =       0.10 minutes

*** tstart() called on cics-quant-001
*** at Tue Dec 23 11:03:40 2025


         ------------------------------------------------------------
                                   SCF GRAD                          
                          Rob Parrish, Justin Turney,                
                       Andy Simmonett, and Alex Sokolov              
         ------------------------------------------------------------

  ==> Geometry <==

    Molecular point group: c2v
    Full point group: C_inf_v

    Geometry (in Angstrom), charge = -1, multiplicity = 3:

       Center              X                  Y                   Z               Mass       
    ------------   -----------------  -----------------  -----------------  -----------------
         N            0.000000000000     0.000000000000     1.115482136186    14.003074004430
         SI           0.000000000000     0.000000000000    -0.558323620155    27.976926534650

  Nuclear repulsion =   30.982906140228053

  ==> Basis Set <==

  Basis Set: CC-PVDZ
    Blend: CC-PVDZ
    Number of shells: 14
    Number of basis functions: 32
    Number of Cartesian functions: 34
    Spherical Harmonics?: true
    Max angular momentum: 2

  ==> DFJKGrad: Density-Fitted SCF Gradients <==

    Gradient:                    1
    J tasked:                  Yes
    K tasked:                  Yes
    wK tasked:                  No
    OpenMP threads:              6
    Integrals threads:           6
    Memory [MiB]:             5722
    Schwarz Cutoff:          1E-12
    Fitting Condition:       1E-10

   => Auxiliary Basis Set <=

  Basis Set: (CC-PVDZ AUX)
    Blend: CC-PVDZ-JKFIT
    Number of shells: 60
    Number of basis functions: 182
    Number of Cartesian functions: 211
    Spherical Harmonics?: true
    Max angular momentum: 3

  ==> DFT Potential <==

   => LibXC <=

    Version 7.0.0
    S. Lehtola, C. Steigemann, M. J.T. Oliveira, and M. A.L. Marques.,  SoftwareX 7, 1–5 (2018) (10.1016/j.softx.2017.11.002)

   => Composite Functional: B3LYP <= 

    B3LYP Hyb-GGA Exchange-Correlation Functional

    P. J. Stephens, F. J. Devlin, C. F. Chabalowski, and M. J. Frisch.,  J. Phys. Chem. 98, 11623 (1994) (10.1021/j100096a001)

    Deriv               =              1
    GGA                 =           TRUE
    Meta                =          FALSE

    Exchange Hybrid     =           TRUE
    MP2 Hybrid          =          FALSE

   => Exchange Functionals <=

    0.0800   Slater exchange
    0.7200         Becke 88

   => Exact (HF) Exchange <=

    0.2000               HF 

   => Correlation Functionals <=

    0.1900   Vosko, Wilk & Nusair (VWN5_RPA)
    0.8100   Lee, Yang & Parr

   => LibXC Density Thresholds  <==

    XC_HYB_GGA_XC_B3LYP:  1.00E-15 

   => Molecular Quadrature <=

    Radial Scheme          =       TREUTLER
    Pruning Scheme         =           NONE
    Nuclear Scheme         =       TREUTLER

    Blocking Scheme        =         OCTREE
    BS radius alpha        =              1
    Pruning alpha          =              1
    Radial Points          =             75
    Spherical Points       =            302
    Total Points           =          42648
    Total Blocks           =            393
    Max Points             =            255
    Max Functions          =             32
    Weights Tolerance      =       1.00E-15


  -Total Gradient:
     Atom            X                  Y                   Z
    ------   -----------------  -----------------  -----------------
       1        0.000000000000     0.000000000000    -0.000518959980
       2       -0.000000000000     0.000000000000     0.000502829815


*** tstop() called on cics-quant-001 at Tue Dec 23 11:03:40 2025
Module time:
	user time   =       0.20 seconds =       0.00 minutes
	system time =       0.14 seconds =       0.00 minutes
	total time  =          0 seconds =       0.00 minutes
Total time:
	user time   =      11.29 seconds =       0.19 minutes
	system time =       2.19 seconds =       0.04 minutes
	total time  =          6 seconds =       0.10 minutes

    			-----------------------------------------

    			 OPTKING 3.0: for geometry optimizations 

    			     By R.A. King, Bethel University     

    			        with contributions from          

    			    A.V. Copan, J. Cayton, A. Heide      

    			-----------------------------------------

    
	                            ===> Fragment 1 <== 

	 Z (Atomic Numbers)          Masses                          Geom                  
	       7.000000            14.003074          0.00000000  0.00000000  2.10795574   
	      14.000000            27.976927          0.00000000  0.00000000 -1.05507873   

	 - Coordinate -           - BOHR/RAD -       - ANG/DEG -
	 R(1,2)           =         3.163034           1.673806


	        --- Internal Coordinate Step in ANG or DEG, aJ/ANG or AJ/DEG ---
	-------------------------------------------------------------------------------
	           Coordinate      Previous         Force          Change          New 
	           ----------      --------        ------          ------        ------
	               R(1,2)       1.67381        0.00421        0.00077       1.67458
	-------------------------------------------------------------------------------

	                                 ==> Convergence Check <==                                  
    
	Measures of convergence in internal coordinates in au.
    
	Criteria marked as inactive (o), active & met (*), and active & unmet ( ).

	----------------------------------------------------------------------------------------------
	   Step    Total Energy     Delta E     Max Force     RMS Force      Max Disp      RMS Disp   
	----------------------------------------------------------------------------------------------
	  Convergence Criteria     1.00e-06 *    3.00e-04 *             o    1.20e-03 *             o
	----------------------------------------------------------------------------------------------
	    10    -344.10849801   -8.43e-06      5.11e-04      5.11e-04 o    1.46e-03      1.46e-03 o  ~
	----------------------------------------------------------------------------------------------

Next Geometry in Ang 
	Fragment 1 (Ang)

	    N   0.0000000000   0.0000000000   1.1158676922
	   Si   0.0000000000   0.0000000000  -0.5587091761


    Structure for next step:
    Molecular point group: c2v
    Full point group: C_inf_v

    Geometry (in Angstrom), charge = -1, multiplicity = 3:

    N            0.000000000000     0.000000000000     1.115996031910
    SI           0.000000000000     0.000000000000    -0.558580836395


Scratch directory: /tmp/
gradient() will perform analytic gradient computation.
   => Libint2 <=

    Primary   basis highest AM E, G, H:  6, 6, 3
    Auxiliary basis highest AM E, G, H:  7, 7, 4
    Onebody   basis highest AM E, G, H:  -, -, -
    Solid Harmonics ordering:            Gaussian

*** tstart() called on cics-quant-001
*** at Tue Dec 23 11:03:40 2025

   => Loading Basis Set <=

    Name: CC-PVDZ
    Role: ORBITAL
    Keyword: BASIS
    atoms 1 entry N          line   168 file /home/jrodriguesro/psi4conda/share/psi4/basis/cc-pvdz.gbs 
    atoms 2 entry SI         line   478 file /home/jrodriguesro/psi4conda/share/psi4/basis/cc-pvdz.gbs 


         ---------------------------------------------------------
                                   SCF
               by Justin Turney, Rob Parrish, Andy Simmonett
                          and Daniel G. A. Smith
                              UKS Reference
                        6 Threads,   7629 MiB Core
         ---------------------------------------------------------

  ==> Geometry <==

    Molecular point group: c2v
    Full point group: C_inf_v

    Geometry (in Angstrom), charge = -1, multiplicity = 3:

       Center              X                  Y                   Z               Mass       
    ------------   -----------------  -----------------  -----------------  -----------------
         N            0.000000000000     0.000000000000     1.115996031910    14.003074004430
         SI           0.000000000000     0.000000000000    -0.558580836395    27.976926534650

  Running in c2v symmetry.

  Rotational constants: A = ************  B =      0.64418  C =      0.64418 [cm^-1]
  Rotational constants: A = ************  B =  19311.94772  C =  19311.94772 [MHz]
  Nuclear repulsion =   30.968639079639139

  Charge       = -1
  Multiplicity = 3
  Electrons    = 22
  Nalpha       = 12
  Nbeta        = 10

  ==> Algorithm <==

  SCF Algorithm Type is DF.
  DIIS enabled.
  MOM disabled.
  Fractional occupation disabled.
  Guess Type is READ.
  Energy threshold   = 1.00e-08
  Density threshold  = 1.00e-08
  Integral threshold = 1.00e-12

  ==> Primary Basis <==

  Basis Set: CC-PVDZ
    Blend: CC-PVDZ
    Number of shells: 14
    Number of basis functions: 32
    Number of Cartesian functions: 34
    Spherical Harmonics?: true
    Max angular momentum: 2

  ==> DFT Potential <==

   => LibXC <=

    Version 7.0.0
    S. Lehtola, C. Steigemann, M. J.T. Oliveira, and M. A.L. Marques.,  SoftwareX 7, 1–5 (2018) (10.1016/j.softx.2017.11.002)

   => Composite Functional: B3LYP <= 

    B3LYP Hyb-GGA Exchange-Correlation Functional

    P. J. Stephens, F. J. Devlin, C. F. Chabalowski, and M. J. Frisch.,  J. Phys. Chem. 98, 11623 (1994) (10.1021/j100096a001)

    Deriv               =              1
    GGA                 =           TRUE
    Meta                =          FALSE

    Exchange Hybrid     =           TRUE
    MP2 Hybrid          =          FALSE

   => Exchange Functionals <=

    0.0800   Slater exchange
    0.7200         Becke 88

   => Exact (HF) Exchange <=

    0.2000               HF 

   => Correlation Functionals <=

    0.1900   Vosko, Wilk & Nusair (VWN5_RPA)
    0.8100   Lee, Yang & Parr

   => LibXC Density Thresholds  <==

    XC_HYB_GGA_XC_B3LYP:  1.00E-15 

   => Molecular Quadrature <=

    Radial Scheme          =       TREUTLER
    Pruning Scheme         =           NONE
    Nuclear Scheme         =       TREUTLER

    Blocking Scheme        =         OCTREE
    BS radius alpha        =              1
    Pruning alpha          =              1
    Radial Points          =             75
    Spherical Points       =            302
    Total Points           =          42648
    Total Blocks           =            393
    Max Points             =            255
    Max Functions          =             32
    Weights Tolerance      =       1.00E-15

   => Loading Basis Set <=

    Name: (CC-PVDZ AUX)
    Role: JKFIT
    Keyword: DF_BASIS_SCF
    atoms 1 entry N          line   171 file /home/jrodriguesro/psi4conda/share/psi4/basis/cc-pvdz-jkfit.gbs 
    atoms 2 entry SI         line   445 file /home/jrodriguesro/psi4conda/share/psi4/basis/cc-pvdz-jkfit.gbs 

   => Loading Basis Set <=

    Name: CC-PVDZ
    Role: ORBITAL
    Keyword: BASIS
    atoms 1 entry N          line   168 file /home/jrodriguesro/psi4conda/share/psi4/basis/cc-pvdz.gbs 
    atoms 2 entry SI         line   478 file /home/jrodriguesro/psi4conda/share/psi4/basis/cc-pvdz.gbs 

  Reading orbitals from file /tmp/triplet_NSi.default.378273.180.npy, no projection.

  ==> Integral Setup <==

  DFHelper Memory: AOs need 0.002 GiB; user supplied 5.549 GiB. 
  SCF_SUBTYPE=INCORE selected. In-core MEM_DF algorithm will be used.
  Using in-core AOs.

  ==> MemDFJK: Density-Fitted J/K Matrices <==

    J tasked:                   Yes
    K tasked:                   Yes
    wK tasked:                   No
    OpenMP threads:               6
    Memory [MiB]:              5682
    Algorithm:                 Core
    Schwarz Cutoff:           1E-12
    Mask sparsity (%):       0.0000
    Fitting Condition:        1E-10

   => Auxiliary Basis Set <=

  Basis Set: (CC-PVDZ AUX)
    Blend: CC-PVDZ-JKFIT
    Number of shells: 60
    Number of basis functions: 182
    Number of Cartesian functions: 211
    Spherical Harmonics?: true
    Max angular momentum: 3

  Cached 100.0% of DFT collocation blocks in 0.039 [GiB].

  Minimum eigenvalue in the overlap matrix is 2.6552409683E-02.
  Reciprocal condition number of the overlap matrix is 9.0189271182E-03.
    Using symmetric orthogonalization.

  ==> Pre-Iterations <==

  SCF Guess: Orbitals guess was supplied from a previous computation.

   -------------------------------------------------------
    Irrep   Nso     Nmo     Nalpha   Nbeta   Ndocc  Nsocc
   -------------------------------------------------------
     A1        16      16       7       6       6       1
     A2         2       2       0       0       0       0
     B1         7       7       3       2       2       1
     B2         7       7       2       2       2       0
   -------------------------------------------------------
    Total      32      32      12      10      10       2
   -------------------------------------------------------

  ==> Iterations <==

                           Total Energy        Delta E     RMS |[F,P]|

   @DF-UKS iter   0:  -344.10832543902410   -3.44108e+02   8.24252e-05 
   @DF-UKS iter   1:  -344.10849824170208   -1.72803e-04   2.77575e-05 DIIS
   @DF-UKS iter   2:  -344.10849623396768    2.00773e-06   1.02172e-04 ADIIS/DIIS/DAMP=1%
   @DF-UKS iter   3:  -344.10847114014047    2.50938e-05   4.97030e-06 DIIS/DAMP=1%
   @DF-UKS iter   4:  -344.10849479868762   -2.36585e-05   2.25993e-06 DIIS/DAMP=1%
   @DF-UKS iter   5:  -344.10849789998946   -3.10130e-06   3.48142e-07 DIIS/DAMP=1%
   @DF-UKS iter   6:  -344.10849839469489   -4.94705e-07   2.10685e-07 DIIS/DAMP=1%
   @DF-UKS iter   7:  -344.10849848040903   -8.57141e-08   7.73860e-08 DIIS/DAMP=1%
   @DF-UKS iter   8:  -344.10849842809250    5.23165e-08   1.90573e-08 DIIS/DAMP=1%
   @DF-UKS iter   9:  -344.10849844489354   -1.68010e-08   7.01364e-09 DIIS/DAMP=1%
   @DF-UKS iter  10:  -344.10849843652943    8.36411e-09   2.59762e-09 DIIS/DAMP=1%
  Energy and wave function converged.


  ==> Post-Iterations <==

   Electrons on quadrature grid:
      Nalpha   =   12.0000007925 ; deviation = 7.925e-07
      Nbeta    =   10.0000004340 ; deviation = 4.340e-07
      Ntotal   =   22.0000012265 ; deviation = 1.226e-06 

   @Spin Contamination Metric:   2.451264475E-02
   @S^2 Expected:                2.000000000E+00
   @S^2 Observed:                2.024512645E+00
   @S   Expected:                1.000000000E+00
   @S   Observed:                1.000000000E+00

    Orbital Energies [Eh]
    ---------------------

    Alpha Occupied:                                                       

       1A1   -65.891616     2A1   -14.084361     3A1    -5.034383  
       4A1    -3.395512     1B2    -3.393081     1B1    -3.390559  
       5A1    -0.517719     6A1    -0.180535     7A1    -0.057441  
       2B1    -0.039355     2B2    -0.027349     3B1     0.116576  

    Alpha Virtual:                                                        

       3B2     0.174913     8A1     0.280971     9A1     0.474520  
       4B1     0.537209     4B2     0.539763    10A1     0.591686  
       1A2     0.614832    11A1     0.617185     5B1     0.686029  
       5B2     0.689004    12A1     0.830007     6B1     1.033850  
       6B2     1.037380    13A1     1.114794    14A1     1.478109  
       2A2     2.044170    15A1     2.044742     7B2     2.164402  
       7B1     2.165247    16A1     2.557533  

    Beta Occupied:                                                        

       1A1   -65.889284     2A1   -14.060896     3A1    -5.031883  
       1B2    -3.392804     4A1    -3.389659     1B1    -3.385053  
       5A1    -0.450878     6A1    -0.111436     2B2    -0.001635  
       2B1     0.018408  

    Beta Virtual:                                                         

       7A1     0.086148     3B2     0.195626     3B1     0.219475  
       8A1     0.300779     9A1     0.493585     4B2     0.540095  
       4B1     0.559719    10A1     0.621923     1A2     0.635525  
      11A1     0.639019     5B2     0.706746     5B1     0.728988  
      12A1     0.864462     6B2     1.061931     6B1     1.076371  
      13A1     1.176765    14A1     1.519135    15A1     2.086205  
       2A2     2.086222     7B2     2.223010     7B1     2.239148  
      16A1     2.623275  

    Final Occupation by Irrep:
             A1    A2    B1    B2 
    DOCC [     6,    0,    2,    2 ]
    SOCC [     1,    0,    1,    0 ]
    NA   [     7,    0,    3,    2 ]
    NB   [     6,    0,    2,    2 ]

  @DF-UKS Final Energy:  -344.10849843652943

   => Energetics <=

    Nuclear Repulsion Energy =             30.9686390796391393
    One-Electron Energy =                -542.4700576170234854
    Two-Electron Energy =                 189.9230647289329283
    DFT Exchange-Correlation Energy =     -22.5301446280780695
    Empirical Dispersion Energy =           0.0000000000000000
    VV10 Nonlocal Energy =                  0.0000000000000000
    Total Energy =                       -344.1084984365294872

  UHF NO Occupations:
  HONO-2 :    2 B2 1.9920369
  HONO-1 :    7 A1 1.0000000
  HONO-0 :    3 B1 1.0000000
  LUNO+0 :    3 B2 0.0079631
  LUNO+1 :    8 A1 0.0022932
  LUNO+2 :    4 B1 0.0016108
  LUNO+3 :    9 A1 0.0004247


Computation Completed


Properties will be evaluated at   0.000000,   0.000000,   0.000000 [a0]

Properties computed using the SCF density matrix


 Multipole Moments:

 ------------------------------------------------------------------------------------
     Multipole            Electronic (a.u.)      Nuclear  (a.u.)        Total (a.u.)
 ------------------------------------------------------------------------------------

 L = 1.  Multiply by 2.5417464519 to convert [e a0] to [Debye]
 Dipole X            :          0.0000000            0.0000000            0.0000000
 Dipole Y            :          0.0000000            0.0000000            0.0000000
 Dipole Z            :         -0.2375210           -0.0154192           -0.2529402
 Magnitude           :                                                    0.2529402

 ------------------------------------------------------------------------------------

*** tstop() called on cics-quant-001 at Tue Dec 23 11:03:40 2025
Module time:
	user time   =       0.65 seconds =       0.01 minutes
	system time =       0.10 seconds =       0.00 minutes
	total time  =          0 seconds =       0.00 minutes
Total time:
	user time   =      11.96 seconds =       0.20 minutes
	system time =       2.29 seconds =       0.04 minutes
	total time  =          6 seconds =       0.10 minutes

*** tstart() called on cics-quant-001
*** at Tue Dec 23 11:03:40 2025


         ------------------------------------------------------------
                                   SCF GRAD                          
                          Rob Parrish, Justin Turney,                
                       Andy Simmonett, and Alex Sokolov              
         ------------------------------------------------------------

  ==> Geometry <==

    Molecular point group: c2v
    Full point group: C_inf_v

    Geometry (in Angstrom), charge = -1, multiplicity = 3:

       Center              X                  Y                   Z               Mass       
    ------------   -----------------  -----------------  -----------------  -----------------
         N            0.000000000000     0.000000000000     1.115996031910    14.003074004430
         SI           0.000000000000     0.000000000000    -0.558580836395    27.976926534650

  Nuclear repulsion =   30.968639079639139

  ==> Basis Set <==

  Basis Set: CC-PVDZ
    Blend: CC-PVDZ
    Number of shells: 14
    Number of basis functions: 32
    Number of Cartesian functions: 34
    Spherical Harmonics?: true
    Max angular momentum: 2

  ==> DFJKGrad: Density-Fitted SCF Gradients <==

    Gradient:                    1
    J tasked:                  Yes
    K tasked:                  Yes
    wK tasked:                  No
    OpenMP threads:              6
    Integrals threads:           6
    Memory [MiB]:             5722
    Schwarz Cutoff:          1E-12
    Fitting Condition:       1E-10

   => Auxiliary Basis Set <=

  Basis Set: (CC-PVDZ AUX)
    Blend: CC-PVDZ-JKFIT
    Number of shells: 60
    Number of basis functions: 182
    Number of Cartesian functions: 211
    Spherical Harmonics?: true
    Max angular momentum: 3

  ==> DFT Potential <==

   => LibXC <=

    Version 7.0.0
    S. Lehtola, C. Steigemann, M. J.T. Oliveira, and M. A.L. Marques.,  SoftwareX 7, 1–5 (2018) (10.1016/j.softx.2017.11.002)

   => Composite Functional: B3LYP <= 

    B3LYP Hyb-GGA Exchange-Correlation Functional

    P. J. Stephens, F. J. Devlin, C. F. Chabalowski, and M. J. Frisch.,  J. Phys. Chem. 98, 11623 (1994) (10.1021/j100096a001)

    Deriv               =              1
    GGA                 =           TRUE
    Meta                =          FALSE

    Exchange Hybrid     =           TRUE
    MP2 Hybrid          =          FALSE

   => Exchange Functionals <=

    0.0800   Slater exchange
    0.7200         Becke 88

   => Exact (HF) Exchange <=

    0.2000               HF 

   => Correlation Functionals <=

    0.1900   Vosko, Wilk & Nusair (VWN5_RPA)
    0.8100   Lee, Yang & Parr

   => LibXC Density Thresholds  <==

    XC_HYB_GGA_XC_B3LYP:  1.00E-15 

   => Molecular Quadrature <=

    Radial Scheme          =       TREUTLER
    Pruning Scheme         =           NONE
    Nuclear Scheme         =       TREUTLER

    Blocking Scheme        =         OCTREE
    BS radius alpha        =              1
    Pruning alpha          =              1
    Radial Points          =             75
    Spherical Points       =            302
    Total Points           =          42648
    Total Blocks           =            393
    Max Points             =            255
    Max Functions          =             32
    Weights Tolerance      =       1.00E-15


  -Total Gradient:
     Atom            X                  Y                   Z
    ------   -----------------  -----------------  -----------------
       1       -0.000000000000    -0.000000000000    -0.000078995130
       2       -0.000000000000     0.000000000000     0.000063032982


*** tstop() called on cics-quant-001 at Tue Dec 23 11:03:41 2025
Module time:
	user time   =       0.19 seconds =       0.00 minutes
	system time =       0.15 seconds =       0.00 minutes
	total time  =          1 seconds =       0.02 minutes
Total time:
	user time   =      12.15 seconds =       0.20 minutes
	system time =       2.44 seconds =       0.04 minutes
	total time  =          7 seconds =       0.12 minutes

    			-----------------------------------------

    			 OPTKING 3.0: for geometry optimizations 

    			     By R.A. King, Bethel University     

    			        with contributions from          

    			    A.V. Copan, J. Cayton, A. Heide      

    			-----------------------------------------

    
	                            ===> Fragment 1 <== 

	 Z (Atomic Numbers)          Masses                          Geom                  
	       7.000000            14.003074          0.00000000  0.00000000  2.10892686   
	      14.000000            27.976927          0.00000000  0.00000000 -1.05556480   

	 - Coordinate -           - BOHR/RAD -       - ANG/DEG -
	 R(1,2)           =         3.164492           1.674577


	        --- Internal Coordinate Step in ANG or DEG, aJ/ANG or AJ/DEG ---
	-------------------------------------------------------------------------------
	           Coordinate      Previous         Force          Change          New 
	           ----------      --------        ------          ------        ------
	               R(1,2)       1.67458        0.00059        0.00012       1.67469
	-------------------------------------------------------------------------------

	                                 ==> Convergence Check <==                                  
    
	Measures of convergence in internal coordinates in au.
    
	Criteria marked as inactive (o), active & met (*), and active & unmet ( ).

	----------------------------------------------------------------------------------------------
	   Step    Total Energy     Delta E     Max Force     RMS Force      Max Disp      RMS Disp   
	----------------------------------------------------------------------------------------------
	  Convergence Criteria     1.00e-06 *    3.00e-04 *             o    1.20e-03 *             o
	----------------------------------------------------------------------------------------------
	    11    -344.10849844   -4.22e-07 *    7.10e-05 *    7.10e-05 o    2.20e-04 *    2.20e-04 o  ~
	----------------------------------------------------------------------------------------------

Next Geometry in Ang 
	Fragment 1 (Ang)

	    N   0.0000000000   0.0000000000   1.1160543051
	   Si   0.0000000000   0.0000000000  -0.5586391096


    Final optimized geometry and variables:
    Molecular point group: c2v
    Full point group: C_inf_v

    Geometry (in Angstrom), charge = -1, multiplicity = 3:

    N            0.000000000000     0.000000000000     1.115996031910
    SI           0.000000000000     0.000000000000    -0.558580836395


    Psi4 stopped on: Tuesday, 23 December 2025 11:03AM
    Psi4 wall time for execution: 0:00:06.82

*** Psi4 exiting successfully. Buy a developer a beer!
