
    -----------------------------------------------------------------------
          Psi4: An Open-Source Ab Initio Electronic Structure Package
                               Psi4 1.10 release

                         Git: Rev {} zzzzzzz 


    D. G. A. Smith, L. A. Burns, A. C. Simmonett, R. M. Parrish,
    M. C. Schieber, R. Galvelis, P. Kraus, H. Kruse, R. Di Remigio,
    A. Alenaizan, A. M. James, S. Lehtola, J. P. Misiewicz, M. Scheurer,
    R. A. Shaw, J. B. Schriber, Y. Xie, Z. L. Glick, D. A. Sirianni,
    J. S. O'Brien, J. M. Waldrop, A. Kumar, E. G. Hohenstein,
    B. P. Pritchard, B. R. Brooks, H. F. Schaefer III, A. Yu. Sokolov,
    K. Patkowski, A. E. DePrince III, U. Bozkaya, R. A. King,
    F. A. Evangelista, J. M. Turney, T. D. Crawford, C. D. Sherrill,
    J. Chem. Phys. 152(18) 184108 (2020). https://doi.org/10.1063/5.0006002

                            Additional Code Authors
    E. T. Seidl, C. L. Janssen, E. F. Valeev, M. L. Leininger,
    J. F. Gonthier, R. M. Richard, H. R. McAlexander, M. Saitow, X. Wang,
    P. Verma, M. H. Lechner, A. Jiang, S. Behnle, A. G. Heide,
    M. F. Herbst, D. L. Poole, T. Győri, E. C. Mitchell, J. P. Pederson,
    and A. M. Wallace

             Previous Authors, Complete List of Code Contributors,
                       and Citations for Specific Modules
    https://github.com/psi4/psi4/blob/master/codemeta.json
    https://github.com/psi4/psi4/graphs/contributors
    https://psicode.org/psi4manual/master/introduction.html#citing-psifour

    -----------------------------------------------------------------------


    Psi4 started on: Tuesday, 23 December 2025 01:36PM

    Process ID: 490265
    Host:       cics-quant-001
    PSIDATADIR: /home/jrodriguesro/psi4conda/share/psi4
    Memory:     500.0 MiB
    Threads:    5
    Addons:     adcc, a̶m̶b̶i̶t̶, b̶s̶e̶, c̶c̶t̶3̶, c̶f̶o̶u̶r̶, c̶h̶e̶m̶p̶s̶2̶, c̶p̶p̶e̶, ddx, dftd3, dftd4,
                dkh, ecpint, einsums, f̶o̶r̶t̶e̶, g̶a̶u̶x̶c̶, gcp, g̶d̶m̶a̶, geometric,
                g̶p̶u̶_̶d̶f̶c̶c̶, i̶n̶t̶e̶g̶r̶a̶t̶o̶r̶x̶x̶, i̶p̶i̶, libefp, m̶d̶i̶, m̶p̶2̶d̶,
                m̶r̶c̶c̶, ooo, o̶p̶e̶n̶f̶e̶r̶m̶i̶o̶n̶p̶s̶i̶4̶, pcmsolver, p̶s̶i̶4̶f̶o̶c̶k̶c̶i̶,
                p̶s̶i̶x̶a̶s̶, r̶e̶s̶p̶, s̶i̶m̶i̶n̶t̶, s̶n̶s̶m̶p̶2̶, v̶2̶r̶d̶m̶_̶c̶a̶s̶s̶c̶f̶

  ==> Input File <==

--------------------------------------------------------------------------
molecule { 
1 2
O           0.000000           0.000000           0.000000
O           0.000000           0.000000           1.636892
}

set { 
basis              cc-pvtz
reference          uks
maxiter            500
DAMPING_PERCENTAGE 1
E_CONVERGENCE      1.0E-8
D_CONVERGENCE      1.0E-8
DIIS_MAX_VECS      400
MBIS_MAXITER       8000
guess              read
}

E, wfn = energy('b3lyp', restart_file='last_wfn', return_wfn=True)
properties('b3lyp','MBIS_CHARGES', wfn=wfn)
wfn.to_file('last_wfn')
--------------------------------------------------------------------------

Scratch directory: /tmp/
 Found user provided orbital data. Setting orbital guess to READ 
 Copying restart file <last_wfn.npy> to </tmp/scan_OO_35.default.490265.180.npy> for internal processing
   => Libint2 <=

    Primary   basis highest AM E, G, H:  6, 6, 3
    Auxiliary basis highest AM E, G, H:  7, 7, 4
    Onebody   basis highest AM E, G, H:  -, -, -
    Solid Harmonics ordering:            Gaussian

*** tstart() called on cics-quant-001
*** at Tue Dec 23 13:36:52 2025

   => Loading Basis Set <=

    Name: CC-PVTZ
    Role: ORBITAL
    Keyword: BASIS
    atoms 1-2 entry O          line   262 file /home/jrodriguesro/psi4conda/share/psi4/basis/cc-pvtz.gbs 


         ---------------------------------------------------------
                                   SCF
               by Justin Turney, Rob Parrish, Andy Simmonett
                          and Daniel G. A. Smith
                              UKS Reference
                        5 Threads,    500 MiB Core
         ---------------------------------------------------------

  ==> Geometry <==

    Molecular point group: d2h
    Full point group: D_inf_h

    Geometry (in Angstrom), charge = 1, multiplicity = 2:

       Center              X                  Y                   Z               Mass       
    ------------   -----------------  -----------------  -----------------  -----------------
         O            0.000000000000     0.000000000000    -0.818446000000    15.994914619570
         O            0.000000000000     0.000000000000     0.818446000000    15.994914619570

  Running in d2h symmetry.

  Rotational constants: A = ************  B =      0.78669  C =      0.78669 [cm^-1]
  Rotational constants: A = ************  B =  23584.42088  C =  23584.42088 [MHz]
  Nuclear repulsion =   20.690028103796710

  Charge       = 1
  Multiplicity = 2
  Electrons    = 15
  Nalpha       = 8
  Nbeta        = 7

  ==> Algorithm <==

  SCF Algorithm Type is DF.
  DIIS enabled.
  MOM disabled.
  Fractional occupation disabled.
  Guess Type is READ.
  Energy threshold   = 1.00e-08
  Density threshold  = 1.00e-08
  Integral threshold = 1.00e-12

  ==> Primary Basis <==

  Basis Set: CC-PVTZ
    Blend: CC-PVTZ
    Number of shells: 20
    Number of basis functions: 60
    Number of Cartesian functions: 70
    Spherical Harmonics?: true
    Max angular momentum: 3

  ==> DFT Potential <==

   => LibXC <=

    Version 7.0.0
    S. Lehtola, C. Steigemann, M. J.T. Oliveira, and M. A.L. Marques.,  SoftwareX 7, 1–5 (2018) (10.1016/j.softx.2017.11.002)

   => Composite Functional: B3LYP <= 

    B3LYP Hyb-GGA Exchange-Correlation Functional

    P. J. Stephens, F. J. Devlin, C. F. Chabalowski, and M. J. Frisch.,  J. Phys. Chem. 98, 11623 (1994) (10.1021/j100096a001)

    Deriv               =              1
    GGA                 =           TRUE
    Meta                =          FALSE

    Exchange Hybrid     =           TRUE
    MP2 Hybrid          =          FALSE

   => Exchange Functionals <=

    0.0800   Slater exchange
    0.7200         Becke 88

   => Exact (HF) Exchange <=

    0.2000               HF 

   => Correlation Functionals <=

    0.1900   Vosko, Wilk & Nusair (VWN5_RPA)
    0.8100   Lee, Yang & Parr

   => LibXC Density Thresholds  <==

    XC_HYB_GGA_XC_B3LYP:  1.00E-15 

   => Molecular Quadrature <=

    Radial Scheme          =       TREUTLER
    Pruning Scheme         =           NONE
    Nuclear Scheme         =       TREUTLER

    Blocking Scheme        =         OCTREE
    BS radius alpha        =              1
    Pruning alpha          =              1
    Radial Points          =             75
    Spherical Points       =            302
    Total Points           =          42496
    Total Blocks           =            378
    Max Points             =            256
    Max Functions          =             60
    Weights Tolerance      =       1.00E-15

   => Loading Basis Set <=

    Name: (CC-PVTZ AUX)
    Role: JKFIT
    Keyword: DF_BASIS_SCF
    atoms 1-2 entry O          line   229 file /home/jrodriguesro/psi4conda/share/psi4/basis/cc-pvtz-jkfit.gbs 

   => Loading Basis Set <=

    Name: CC-PVTZ
    Role: ORBITAL
    Keyword: BASIS
    atoms 1-2 entry O          line   262 file /home/jrodriguesro/psi4conda/share/psi4/basis/cc-pvtz.gbs 

  Reading orbitals from file /tmp/scan_OO_35.default.490265.180.npy, no projection.

  ==> Integral Setup <==

  DFHelper Memory: AOs need 0.005 GiB; user supplied 0.297 GiB. 
  SCF_SUBTYPE=INCORE selected. In-core MEM_DF algorithm will be used.
  Using in-core AOs.

  ==> MemDFJK: Density-Fitted J/K Matrices <==

    J tasked:                   Yes
    K tasked:                   Yes
    wK tasked:                   No
    OpenMP threads:               5
    Memory [MiB]:               304
    Algorithm:                 Core
    Schwarz Cutoff:           1E-12
    Mask sparsity (%):       0.0000
    Fitting Condition:        1E-10

   => Auxiliary Basis Set <=

  Basis Set: (CC-PVTZ AUX)
    Blend: CC-PVTZ-JKFIT
    Number of shells: 50
    Number of basis functions: 158
    Number of Cartesian functions: 192
    Spherical Harmonics?: true
    Max angular momentum: 4

  Cached 100.0% of DFT collocation blocks in 0.069 [GiB].

  Minimum eigenvalue in the overlap matrix is 2.0211271070E-02.
  Reciprocal condition number of the overlap matrix is 7.0680015518E-03.
    Using symmetric orthogonalization.

  ==> Pre-Iterations <==

  SCF Guess: Orbitals guess was supplied from a previous computation.

   -------------------------------------------------------
    Irrep   Nso     Nmo     Nalpha   Nbeta   Ndocc  Nsocc
   -------------------------------------------------------
     Ag        13      13       3       3       3       0
     B1g        3       3       0       0       0       0
     B2g        7       7       1       0       0       1
     B3g        7       7       0       0       0       0
     Au         3       3       0       0       0       0
     B1u       13      13       2       2       2       0
     B2u        7       7       1       1       1       0
     B3u        7       7       1       1       1       0
   -------------------------------------------------------
    Total      60      60       8       7       7       1
   -------------------------------------------------------

  ==> Iterations <==

                           Total Energy        Delta E     RMS |[F,P]|

   @DF-UKS iter   0:  -149.68602300784866   -1.49686e+02   2.12703e-03 
   @DF-UKS iter   1:  -149.71563313048921   -2.96101e-02   9.16843e-04 DIIS/ADIIS
   @DF-UKS iter   2:  -149.71574370997737   -1.10579e-04   5.57074e-04 DIIS/ADIIS/DAMP=1%
   @DF-UKS iter   3:  -149.71555749072837    1.86219e-04   2.42980e-05 DIIS/DAMP=1%
   @DF-UKS iter   4:  -149.71581414707214   -2.56656e-04   6.47333e-06 DIIS/DAMP=1%
   @DF-UKS iter   5:  -149.71579872476045    1.54223e-05   2.90141e-07 DIIS/DAMP=1%
   @DF-UKS iter   6:  -149.71580251604095   -3.79128e-06   8.20811e-08 DIIS/DAMP=1%
   @DF-UKS iter   7:  -149.71580253532630   -1.92854e-08   1.36938e-08 DIIS/DAMP=1%
   @DF-UKS iter   8:  -149.71580252811341    7.21289e-09   8.32608e-10 DIIS/DAMP=1%
  Energy and wave function converged.


  ==> Post-Iterations <==

   Electrons on quadrature grid:
      Nalpha   =    7.9999992802 ; deviation = -7.198e-07
      Nbeta    =    6.9999996746 ; deviation = -3.254e-07
      Ntotal   =   14.9999989548 ; deviation = -1.045e-06 

   @Spin Contamination Metric:   3.814558079E-03
   @S^2 Expected:                7.500000000E-01
   @S^2 Observed:                7.538145581E-01
   @S   Expected:                5.000000000E-01
   @S   Observed:                5.000000000E-01

    Orbital Energies [Eh]
    ---------------------

    Alpha Occupied:                                                       

       1Ag   -19.814144     1B1u  -19.814076     2Ag    -1.520895  
       2B1u   -1.356772     3Ag    -0.912565     1B3u   -0.901020  
       1B2u   -0.850644     1B2g   -0.821080  

    Alpha Virtual:                                                        

       1B3g   -0.705044     3B1u   -0.577084     2B3u    0.160643  
       2B2u    0.167738     4B1u    0.179715     4Ag     0.272771  
       2B2g    0.287955     2B3g    0.294206     5Ag     0.329191  
       5B1u    0.738775     3B2u    0.798385     3B3u    0.800525  
       1B1g    0.934272     6Ag     0.935566     7Ag     1.084981  
       1Au     1.093853     6B1u    1.095308     3B2g    1.447983  
       3B3g    1.449213     7B1u    1.903505     8Ag     2.920099  
       4B3u    2.988395     4B2u    3.004841     4B2g    3.103209  
       4B3g    3.119268     8B1u    3.497245     5B2u    4.315414  
       5B3u    4.317420     9Ag     4.354686     2B1g    4.491265  
      10Ag     4.492734     6B3u    4.588678     6B2u    4.588937  
       5B2g    4.608279     5B3g    4.608547     2Au     4.692570  
       9B1u    4.694082     6B2g    4.949248     6B3g    4.949747  
      10B1u    5.203361     3B1g    5.553120    11Ag     5.556922  
       7B3u    5.565977     7B2u    5.576895     3Au     5.664743  
      11B1u    5.668537    12Ag     5.852073     7B2g    6.071064  
       7B3g    6.079478    13Ag     6.745128    12B1u    6.789491  
      13B1u    7.421372  

    Beta Occupied:                                                        

       1Ag   -19.798462     1B1u  -19.798367     2Ag    -1.484183  
       2B1u   -1.310428     3Ag    -0.897318     1B2u   -0.836451  
       1B3u   -0.793475  

    Beta Virtual:                                                         

       1B3g   -0.688683     1B2g   -0.641975     3B1u   -0.558552  
       2B2u    0.172641     4B1u    0.185624     2B3u    0.194068  
       4Ag     0.280391     2B3g    0.298739     2B2g    0.317009  
       5Ag     0.338708     5B1u    0.753100     3B2u    0.800031  
       3B3u    0.821667     6Ag     0.958686     1B1g    0.959588  
       7Ag     1.099554     1Au     1.123217     6B1u    1.123428  
       3B3g    1.452974     3B2g    1.478440     7B1u    1.915729  
       8Ag     2.929130     4B2u    3.015611     4B3u    3.052632  
       4B3g    3.130721     4B2g    3.169245     8B1u    3.512298  
       5B2u    4.319453     5B3u    4.349747     9Ag     4.369998  
       2B1g    4.516778    10Ag     4.519329     6B2u    4.626578  
       6B3u    4.626632     5B3g    4.645821     5B2g    4.645860  
       9B1u    4.718795     2Au     4.719079     6B3g    4.954859  
       6B2g    4.985558    10B1u    5.219919     7B2u    5.584256  
      11Ag     5.610014     3B1g    5.610970     7B3u    5.622116  
       3Au     5.721876    11B1u    5.721904    12Ag     5.866665  
       7B3g    6.085710     7B2g    6.121896    13Ag     6.777915  
      12B1u    6.802300    13B1u    7.450638  

    Final Occupation by Irrep:
             Ag   B1g   B2g   B3g    Au   B1u   B2u   B3u 
    DOCC [     3,    0,    0,    0,    0,    2,    1,    1 ]
    SOCC [     0,    0,    1,    0,    0,    0,    0,    0 ]
    NA   [     3,    0,    1,    0,    0,    2,    1,    1 ]
    NB   [     3,    0,    0,    0,    0,    2,    1,    1 ]

  @DF-UKS Final Energy:  -149.71580252811341

   => Energetics <=

    Nuclear Repulsion Energy =             20.6900281037967098
    One-Electron Energy =                -240.4180434629381011
    Two-Electron Energy =                  83.1920048634096787
    DFT Exchange-Correlation Energy =     -13.1797920323816982
    Empirical Dispersion Energy =           0.0000000000000000
    VV10 Nonlocal Energy =                  0.0000000000000000
    Total Energy =                       -149.7158025281134144

  UHF NO Occupations:
  HONO-2 :    2B1u 1.9997962
  HONO-1 :    1B3u 1.9985148
  HONO-0 :    1B2g 1.0000000
  LUNO+0 :    2B3u 0.0014852
  LUNO+1 :    3B1u 0.0002038
  LUNO+2 :    4 Ag 0.0001529
  LUNO+3 :    2B2u 0.0000425


Computation Completed


Properties will be evaluated at   0.000000,   0.000000,   0.000000 [a0]

Properties computed using the SCF density matrix


 Multipole Moments:

 ------------------------------------------------------------------------------------
     Multipole            Electronic (a.u.)      Nuclear  (a.u.)        Total (a.u.)
 ------------------------------------------------------------------------------------

 L = 1.  Multiply by 2.5417464519 to convert [e a0] to [Debye]
 Dipole X            :          0.0000000            0.0000000            0.0000000
 Dipole Y            :          0.0000000            0.0000000            0.0000000
 Dipole Z            :          0.0000000            0.0000000            0.0000000
 Magnitude           :                                                    0.0000000

 ------------------------------------------------------------------------------------

*** tstop() called on cics-quant-001 at Tue Dec 23 13:36:52 2025
Module time:
	user time   =       0.90 seconds =       0.02 minutes
	system time =       0.06 seconds =       0.00 minutes
	total time  =          0 seconds =       0.00 minutes
Total time:
	user time   =       0.90 seconds =       0.02 minutes
	system time =       0.06 seconds =       0.00 minutes
	total time  =          0 seconds =       0.00 minutes

*** tstart() called on cics-quant-001
*** at Tue Dec 23 13:36:52 2025

   => Libint2 <=

    Primary   basis highest AM E, G, H:  6, 6, 3
    Auxiliary basis highest AM E, G, H:  7, 7, 4
    Onebody   basis highest AM E, G, H:  -, -, -
    Solid Harmonics ordering:            Gaussian
   => Loading Basis Set <=

    Name: CC-PVTZ
    Role: ORBITAL
    Keyword: BASIS
    atoms 1-2 entry O          line   262 file /home/jrodriguesro/psi4conda/share/psi4/basis/cc-pvtz.gbs 


         ---------------------------------------------------------
                                   SCF
               by Justin Turney, Rob Parrish, Andy Simmonett
                          and Daniel G. A. Smith
                              UKS Reference
                        5 Threads,    500 MiB Core
         ---------------------------------------------------------

  ==> Geometry <==

    Molecular point group: d2h
    Full point group: D_inf_h

    Geometry (in Angstrom), charge = 1, multiplicity = 2:

       Center              X                  Y                   Z               Mass       
    ------------   -----------------  -----------------  -----------------  -----------------
         O            0.000000000000     0.000000000000    -0.818446000000    15.994914619570
         O            0.000000000000     0.000000000000     0.818446000000    15.994914619570

  Running in d2h symmetry.

  Rotational constants: A = ************  B =      0.78669  C =      0.78669 [cm^-1]
  Rotational constants: A = ************  B =  23584.42088  C =  23584.42088 [MHz]
  Nuclear repulsion =   20.690028103796710

  Charge       = 1
  Multiplicity = 2
  Electrons    = 15
  Nalpha       = 8
  Nbeta        = 7

  ==> Algorithm <==

  SCF Algorithm Type is DF.
  DIIS enabled.
  MOM disabled.
  Fractional occupation disabled.
  Guess Type is READ.
  Energy threshold   = 1.00e-08
  Density threshold  = 1.00e-08
  Integral threshold = 1.00e-12

  ==> Primary Basis <==

  Basis Set: CC-PVTZ
    Blend: CC-PVTZ
    Number of shells: 20
    Number of basis functions: 60
    Number of Cartesian functions: 70
    Spherical Harmonics?: true
    Max angular momentum: 3

  ==> DFT Potential <==

   => LibXC <=

    Version 7.0.0
    S. Lehtola, C. Steigemann, M. J.T. Oliveira, and M. A.L. Marques.,  SoftwareX 7, 1–5 (2018) (10.1016/j.softx.2017.11.002)

   => Composite Functional: B3LYP <= 

    B3LYP Hyb-GGA Exchange-Correlation Functional

    P. J. Stephens, F. J. Devlin, C. F. Chabalowski, and M. J. Frisch.,  J. Phys. Chem. 98, 11623 (1994) (10.1021/j100096a001)

    Deriv               =              1
    GGA                 =           TRUE
    Meta                =          FALSE

    Exchange Hybrid     =           TRUE
    MP2 Hybrid          =          FALSE

   => Exchange Functionals <=

    0.0800   Slater exchange
    0.7200         Becke 88

   => Exact (HF) Exchange <=

    0.2000               HF 

   => Correlation Functionals <=

    0.1900   Vosko, Wilk & Nusair (VWN5_RPA)
    0.8100   Lee, Yang & Parr

   => LibXC Density Thresholds  <==

    XC_HYB_GGA_XC_B3LYP:  1.00E-15 

   => Molecular Quadrature <=

    Radial Scheme          =       TREUTLER
    Pruning Scheme         =           NONE
    Nuclear Scheme         =       TREUTLER

    Blocking Scheme        =         OCTREE
    BS radius alpha        =              1
    Pruning alpha          =              1
    Radial Points          =             75
    Spherical Points       =            302
    Total Points           =          42496
    Total Blocks           =            378
    Max Points             =            256
    Max Functions          =             60
    Weights Tolerance      =       1.00E-15

   => Loading Basis Set <=

    Name: (CC-PVTZ AUX)
    Role: JKFIT
    Keyword: DF_BASIS_SCF
    atoms 1-2 entry O          line   229 file /home/jrodriguesro/psi4conda/share/psi4/basis/cc-pvtz-jkfit.gbs 

   => Loading Basis Set <=

    Name: CC-PVTZ
    Role: ORBITAL
    Keyword: BASIS
    atoms 1-2 entry O          line   262 file /home/jrodriguesro/psi4conda/share/psi4/basis/cc-pvtz.gbs 

  Reading orbitals from file /tmp/scan_OO_35.default.490265.180.npy, no projection.

  ==> Integral Setup <==

  DFHelper Memory: AOs need 0.005 GiB; user supplied 0.297 GiB. 
  SCF_SUBTYPE=INCORE selected. In-core MEM_DF algorithm will be used.
  Using in-core AOs.

  ==> MemDFJK: Density-Fitted J/K Matrices <==

    J tasked:                   Yes
    K tasked:                   Yes
    wK tasked:                   No
    OpenMP threads:               5
    Memory [MiB]:               304
    Algorithm:                 Core
    Schwarz Cutoff:           1E-12
    Mask sparsity (%):       0.0000
    Fitting Condition:        1E-10

   => Auxiliary Basis Set <=

  Basis Set: (CC-PVTZ AUX)
    Blend: CC-PVTZ-JKFIT
    Number of shells: 50
    Number of basis functions: 158
    Number of Cartesian functions: 192
    Spherical Harmonics?: true
    Max angular momentum: 4

  Cached 100.0% of DFT collocation blocks in 0.069 [GiB].

  Minimum eigenvalue in the overlap matrix is 2.0211271070E-02.
  Reciprocal condition number of the overlap matrix is 7.0680015518E-03.
    Using symmetric orthogonalization.

  ==> Pre-Iterations <==

  SCF Guess: Orbitals guess was supplied from a previous computation.

   -------------------------------------------------------
    Irrep   Nso     Nmo     Nalpha   Nbeta   Ndocc  Nsocc
   -------------------------------------------------------
     Ag        13      13       3       3       3       0
     B1g        3       3       0       0       0       0
     B2g        7       7       1       0       0       1
     B3g        7       7       0       0       0       0
     Au         3       3       0       0       0       0
     B1u       13      13       2       2       2       0
     B2u        7       7       1       1       1       0
     B3u        7       7       1       1       1       0
   -------------------------------------------------------
    Total      60      60       8       7       7       1
   -------------------------------------------------------

  ==> Iterations <==

                           Total Energy        Delta E     RMS |[F,P]|

   @DF-UKS iter   0:  -149.71580252881847   -1.49716e+02   7.99229e-11 
   @DF-UKS iter   1:  -149.71580252881861   -1.42109e-13   4.75524e-11 DIIS
  Energy and wave function converged.


  ==> Post-Iterations <==

   Electrons on quadrature grid:
      Nalpha   =    7.9999992802 ; deviation = -7.198e-07
      Nbeta    =    6.9999996746 ; deviation = -3.254e-07
      Ntotal   =   14.9999989548 ; deviation = -1.045e-06 

   @Spin Contamination Metric:   3.814558159E-03
   @S^2 Expected:                7.500000000E-01
   @S^2 Observed:                7.538145582E-01
   @S   Expected:                5.000000000E-01
   @S   Observed:                5.000000000E-01

    Orbital Energies [Eh]
    ---------------------

    Alpha Occupied:                                                       

       1Ag   -19.814144     1B1u  -19.814076     2Ag    -1.520895  
       2B1u   -1.356772     3Ag    -0.912565     1B3u   -0.901020  
       1B2u   -0.850644     1B2g   -0.821080  

    Alpha Virtual:                                                        

       1B3g   -0.705044     3B1u   -0.577084     2B3u    0.160643  
       2B2u    0.167738     4B1u    0.179715     4Ag     0.272771  
       2B2g    0.287955     2B3g    0.294206     5Ag     0.329191  
       5B1u    0.738775     3B2u    0.798385     3B3u    0.800525  
       1B1g    0.934272     6Ag     0.935566     7Ag     1.084981  
       1Au     1.093853     6B1u    1.095308     3B2g    1.447983  
       3B3g    1.449213     7B1u    1.903505     8Ag     2.920099  
       4B3u    2.988395     4B2u    3.004841     4B2g    3.103209  
       4B3g    3.119268     8B1u    3.497245     5B2u    4.315414  
       5B3u    4.317420     9Ag     4.354686     2B1g    4.491265  
      10Ag     4.492734     6B3u    4.588678     6B2u    4.588937  
       5B2g    4.608279     5B3g    4.608547     2Au     4.692570  
       9B1u    4.694082     6B2g    4.949248     6B3g    4.949747  
      10B1u    5.203361     3B1g    5.553120    11Ag     5.556922  
       7B3u    5.565977     7B2u    5.576895     3Au     5.664743  
      11B1u    5.668537    12Ag     5.852073     7B2g    6.071064  
       7B3g    6.079478    13Ag     6.745128    12B1u    6.789491  
      13B1u    7.421372  

    Beta Occupied:                                                        

       1Ag   -19.798462     1B1u  -19.798367     2Ag    -1.484183  
       2B1u   -1.310428     3Ag    -0.897318     1B2u   -0.836451  
       1B3u   -0.793475  

    Beta Virtual:                                                         

       1B3g   -0.688683     1B2g   -0.641975     3B1u   -0.558552  
       2B2u    0.172641     4B1u    0.185624     2B3u    0.194068  
       4Ag     0.280391     2B3g    0.298739     2B2g    0.317009  
       5Ag     0.338708     5B1u    0.753100     3B2u    0.800031  
       3B3u    0.821667     6Ag     0.958686     1B1g    0.959588  
       7Ag     1.099554     1Au     1.123217     6B1u    1.123428  
       3B3g    1.452974     3B2g    1.478440     7B1u    1.915729  
       8Ag     2.929130     4B2u    3.015611     4B3u    3.052632  
       4B3g    3.130721     4B2g    3.169245     8B1u    3.512298  
       5B2u    4.319453     5B3u    4.349747     9Ag     4.369998  
       2B1g    4.516778    10Ag     4.519329     6B2u    4.626578  
       6B3u    4.626632     5B3g    4.645821     5B2g    4.645860  
       9B1u    4.718795     2Au     4.719079     6B3g    4.954859  
       6B2g    4.985558    10B1u    5.219919     7B2u    5.584256  
      11Ag     5.610014     3B1g    5.610970     7B3u    5.622116  
       3Au     5.721876    11B1u    5.721904    12Ag     5.866665  
       7B3g    6.085710     7B2g    6.121896    13Ag     6.777915  
      12B1u    6.802300    13B1u    7.450638  

    Final Occupation by Irrep:
             Ag   B1g   B2g   B3g    Au   B1u   B2u   B3u 
    DOCC [     3,    0,    0,    0,    0,    2,    1,    1 ]
    SOCC [     0,    0,    1,    0,    0,    0,    0,    0 ]
    NA   [     3,    0,    1,    0,    0,    2,    1,    1 ]
    NB   [     3,    0,    0,    0,    0,    2,    1,    1 ]

  @DF-UKS Final Energy:  -149.71580252881861

   => Energetics <=

    Nuclear Repulsion Energy =             20.6900281037967098
    One-Electron Energy =                -240.4180434357866147
    Two-Electron Energy =                  83.1920048335890669
    DFT Exchange-Correlation Energy =     -13.1797920304177794
    Empirical Dispersion Energy =           0.0000000000000000
    VV10 Nonlocal Energy =                  0.0000000000000000
    Total Energy =                       -149.7158025288186138

  UHF NO Occupations:
  HONO-2 :    2B1u 1.9997962
  HONO-1 :    1B3u 1.9985148
  HONO-0 :    1B2g 1.0000000
  LUNO+0 :    2B3u 0.0014852
  LUNO+1 :    3B1u 0.0002038
  LUNO+2 :    4 Ag 0.0001529
  LUNO+3 :    2B2u 0.0000425


Computation Completed


Properties will be evaluated at   0.000000,   0.000000,   0.000000 [a0]

Properties computed using the B3LYP density matrix


 Multipole Moments:

 ------------------------------------------------------------------------------------
     Multipole            Electronic (a.u.)      Nuclear  (a.u.)        Total (a.u.)
 ------------------------------------------------------------------------------------

 L = 1.  Multiply by 2.5417464519 to convert [e a0] to [Debye]
 Dipole X            :          0.0000000            0.0000000            0.0000000
 Dipole Y            :          0.0000000            0.0000000            0.0000000
 Dipole Z            :          0.0000000            0.0000000            0.0000000
 Magnitude           :                                                    0.0000000

 L = 2.  Multiply by 1.3450342976 to convert [e a0^2] to [Debye ang]
 Quadrupole XX       :         -6.6418765            0.0000000           -6.6418765
 Quadrupole XY       :          0.0000000            0.0000000            0.0000000
 Quadrupole XZ       :          0.0000000            0.0000000            0.0000000
 Quadrupole YY       :         -6.0786691            0.0000000           -6.0786691
 Quadrupole YZ       :          0.0000000            0.0000000            0.0000000
 Quadrupole ZZ       :        -41.3440709           38.2734647           -3.0706062
 Traceless XX        :         11.3796623          -12.7578216           -1.3781592
 Traceless YY        :         11.9428697          -12.7578216           -0.8149518
 Traceless ZZ        :        -23.3225321           25.5156431            2.1931110

 ------------------------------------------------------------------------------------
  ==> Computing MBIS Charges <==

  Electron Count from Grid (Expected Number): 15.00000 (15.00000)
  Difference: -0.00000

  MBIS Charges: (a.u.)
   Center  Symbol  Z      Pop.       Charge
      1       O    8    7.499999    0.500001
      2       O    8    7.499999    0.500001

  MBIS Dipoles: [e a0]
   Center  Symbol  Z        X           Y           Z
      1       O    8    0.000000   -0.000000   -0.136424
      2       O    8   -0.000000   -0.000000    0.136424

  MBIS Quadrupoles: [e a0^2]
   Center  Symbol  Z      XX        XY        XZ        YY        YZ        ZZ
      1       O    8   -3.3209   -0.0000    0.0000   -3.0393   -0.0000   -3.1533
      2       O    8   -3.3209   -0.0000   -0.0000   -3.0393    0.0000   -3.1533

  MBIS Octupoles: [e a0^3]
   Center  Symbol  Z      XXX       XXY       XXZ       XYY       XYZ       XZZ       YYY       YYZ       YZZ       ZZZ
      1       O    8   -0.0000   -0.0000   -0.1464    0.0000   -0.0000    0.0000   -0.0000   -0.1909   -0.0000   -0.5319
      2       O    8   -0.0000   -0.0000    0.1464    0.0000    0.0000    0.0000   -0.0000    0.1909   -0.0000    0.5319

  MBIS Radial Moments:
   Center  Symbol  Z      [a0^2]      [a0^3]      [a0^4]      
      1       O    8    9.513618   16.973747   36.387168
      2       O    8    9.513618   16.973747   36.387168

  MBIS Valence Widths: [a0]
   Center  Symbol  Z     Width
      1       O    8    0.369177
      2       O    8    0.369177


  MBIS Valence Charges: (a.u.)
   Center  Symbol  Z     Charge
      1       O    8   -5.891665
      2       O    8   -5.891665

*** tstop() called on cics-quant-001 at Tue Dec 23 13:36:53 2025
Module time:
	user time   =       0.62 seconds =       0.01 minutes
	system time =       0.03 seconds =       0.00 minutes
	total time  =          1 seconds =       0.02 minutes
Total time:
	user time   =       1.53 seconds =       0.03 minutes
	system time =       0.09 seconds =       0.00 minutes
	total time  =          1 seconds =       0.02 minutes

    Psi4 stopped on: Tuesday, 23 December 2025 01:36PM
    Psi4 wall time for execution: 0:00:00.68

*** Psi4 exiting successfully. Buy a developer a beer!
