
    -----------------------------------------------------------------------
          Psi4: An Open-Source Ab Initio Electronic Structure Package
                               Psi4 1.10 release

                         Git: Rev {} zzzzzzz 


    D. G. A. Smith, L. A. Burns, A. C. Simmonett, R. M. Parrish,
    M. C. Schieber, R. Galvelis, P. Kraus, H. Kruse, R. Di Remigio,
    A. Alenaizan, A. M. James, S. Lehtola, J. P. Misiewicz, M. Scheurer,
    R. A. Shaw, J. B. Schriber, Y. Xie, Z. L. Glick, D. A. Sirianni,
    J. S. O'Brien, J. M. Waldrop, A. Kumar, E. G. Hohenstein,
    B. P. Pritchard, B. R. Brooks, H. F. Schaefer III, A. Yu. Sokolov,
    K. Patkowski, A. E. DePrince III, U. Bozkaya, R. A. King,
    F. A. Evangelista, J. M. Turney, T. D. Crawford, C. D. Sherrill,
    J. Chem. Phys. 152(18) 184108 (2020). https://doi.org/10.1063/5.0006002

                            Additional Code Authors
    E. T. Seidl, C. L. Janssen, E. F. Valeev, M. L. Leininger,
    J. F. Gonthier, R. M. Richard, H. R. McAlexander, M. Saitow, X. Wang,
    P. Verma, M. H. Lechner, A. Jiang, S. Behnle, A. G. Heide,
    M. F. Herbst, D. L. Poole, T. Győri, E. C. Mitchell, J. P. Pederson,
    and A. M. Wallace

             Previous Authors, Complete List of Code Contributors,
                       and Citations for Specific Modules
    https://github.com/psi4/psi4/blob/master/codemeta.json
    https://github.com/psi4/psi4/graphs/contributors
    https://psicode.org/psi4manual/master/introduction.html#citing-psifour

    -----------------------------------------------------------------------


    Psi4 started on: Tuesday, 23 December 2025 01:37PM

    Process ID: 496887
    Host:       cics-quant-001
    PSIDATADIR: /home/jrodriguesro/psi4conda/share/psi4
    Memory:     500.0 MiB
    Threads:    5
    Addons:     adcc, a̶m̶b̶i̶t̶, b̶s̶e̶, c̶c̶t̶3̶, c̶f̶o̶u̶r̶, c̶h̶e̶m̶p̶s̶2̶, c̶p̶p̶e̶, ddx, dftd3, dftd4,
                dkh, ecpint, einsums, f̶o̶r̶t̶e̶, g̶a̶u̶x̶c̶, gcp, g̶d̶m̶a̶, geometric,
                g̶p̶u̶_̶d̶f̶c̶c̶, i̶n̶t̶e̶g̶r̶a̶t̶o̶r̶x̶x̶, i̶p̶i̶, libefp, m̶d̶i̶, m̶p̶2̶d̶,
                m̶r̶c̶c̶, ooo, o̶p̶e̶n̶f̶e̶r̶m̶i̶o̶n̶p̶s̶i̶4̶, pcmsolver, p̶s̶i̶4̶f̶o̶c̶k̶c̶i̶,
                p̶s̶i̶x̶a̶s̶, r̶e̶s̶p̶, s̶i̶m̶i̶n̶t̶, s̶n̶s̶m̶p̶2̶, v̶2̶r̶d̶m̶_̶c̶a̶s̶s̶c̶f̶

  ==> Input File <==

--------------------------------------------------------------------------
molecule { 
1 4
C           0.000000           0.000000           0.000000
C           0.000000           0.000000           1.667107
}

set { 
basis              cc-pvtz
reference          uks
maxiter            500
DAMPING_PERCENTAGE 1
E_CONVERGENCE      1.0E-8
D_CONVERGENCE      1.0E-8
DIIS_MAX_VECS      400
MBIS_MAXITER       8000
guess              read
}

E, wfn = energy('b3lyp', restart_file='last_wfn', return_wfn=True)
properties('b3lyp','MBIS_CHARGES', wfn=wfn)
wfn.to_file('last_wfn')
--------------------------------------------------------------------------

Scratch directory: /tmp/
 Found user provided orbital data. Setting orbital guess to READ 
 Copying restart file <last_wfn.npy> to </tmp/scan_CC_31.default.496887.180.npy> for internal processing
   => Libint2 <=

    Primary   basis highest AM E, G, H:  6, 6, 3
    Auxiliary basis highest AM E, G, H:  7, 7, 4
    Onebody   basis highest AM E, G, H:  -, -, -
    Solid Harmonics ordering:            Gaussian

*** tstart() called on cics-quant-001
*** at Tue Dec 23 13:37:57 2025

   => Loading Basis Set <=

    Name: CC-PVTZ
    Role: ORBITAL
    Keyword: BASIS
    atoms 1-2 entry C          line   186 file /home/jrodriguesro/psi4conda/share/psi4/basis/cc-pvtz.gbs 


         ---------------------------------------------------------
                                   SCF
               by Justin Turney, Rob Parrish, Andy Simmonett
                          and Daniel G. A. Smith
                              UKS Reference
                        5 Threads,    500 MiB Core
         ---------------------------------------------------------

  ==> Geometry <==

    Molecular point group: d2h
    Full point group: D_inf_h

    Geometry (in Angstrom), charge = 1, multiplicity = 4:

       Center              X                  Y                   Z               Mass       
    ------------   -----------------  -----------------  -----------------  -----------------
         C            0.000000000000     0.000000000000    -0.833553500000    12.000000000000
         C            0.000000000000     0.000000000000     0.833553500000    12.000000000000

  Running in d2h symmetry.

  Rotational constants: A = ************  B =      1.01092  C =      1.01092 [cm^-1]
  Rotational constants: A = ************  B =  30306.72434  C =  30306.72434 [MHz]
  Nuclear repulsion =   11.427208681938232

  Charge       = 1
  Multiplicity = 4
  Electrons    = 11
  Nalpha       = 7
  Nbeta        = 4

  ==> Algorithm <==

  SCF Algorithm Type is DF.
  DIIS enabled.
  MOM disabled.
  Fractional occupation disabled.
  Guess Type is READ.
  Energy threshold   = 1.00e-08
  Density threshold  = 1.00e-08
  Integral threshold = 1.00e-12

  ==> Primary Basis <==

  Basis Set: CC-PVTZ
    Blend: CC-PVTZ
    Number of shells: 20
    Number of basis functions: 60
    Number of Cartesian functions: 70
    Spherical Harmonics?: true
    Max angular momentum: 3

  ==> DFT Potential <==

   => LibXC <=

    Version 7.0.0
    S. Lehtola, C. Steigemann, M. J.T. Oliveira, and M. A.L. Marques.,  SoftwareX 7, 1–5 (2018) (10.1016/j.softx.2017.11.002)

   => Composite Functional: B3LYP <= 

    B3LYP Hyb-GGA Exchange-Correlation Functional

    P. J. Stephens, F. J. Devlin, C. F. Chabalowski, and M. J. Frisch.,  J. Phys. Chem. 98, 11623 (1994) (10.1021/j100096a001)

    Deriv               =              1
    GGA                 =           TRUE
    Meta                =          FALSE

    Exchange Hybrid     =           TRUE
    MP2 Hybrid          =          FALSE

   => Exchange Functionals <=

    0.0800   Slater exchange
    0.7200         Becke 88

   => Exact (HF) Exchange <=

    0.2000               HF 

   => Correlation Functionals <=

    0.1900   Vosko, Wilk & Nusair (VWN5_RPA)
    0.8100   Lee, Yang & Parr

   => LibXC Density Thresholds  <==

    XC_HYB_GGA_XC_B3LYP:  1.00E-15 

   => Molecular Quadrature <=

    Radial Scheme          =       TREUTLER
    Pruning Scheme         =           NONE
    Nuclear Scheme         =       TREUTLER

    Blocking Scheme        =         OCTREE
    BS radius alpha        =              1
    Pruning alpha          =              1
    Radial Points          =             75
    Spherical Points       =            302
    Total Points           =          43038
    Total Blocks           =            388
    Max Points             =            251
    Max Functions          =             60
    Weights Tolerance      =       1.00E-15

   => Loading Basis Set <=

    Name: (CC-PVTZ AUX)
    Role: JKFIT
    Keyword: DF_BASIS_SCF
    atoms 1-2 entry C          line   125 file /home/jrodriguesro/psi4conda/share/psi4/basis/cc-pvtz-jkfit.gbs 

   => Loading Basis Set <=

    Name: CC-PVTZ
    Role: ORBITAL
    Keyword: BASIS
    atoms 1-2 entry C          line   186 file /home/jrodriguesro/psi4conda/share/psi4/basis/cc-pvtz.gbs 

  Reading orbitals from file /tmp/scan_CC_31.default.496887.180.npy, no projection.

  ==> Integral Setup <==

  DFHelper Memory: AOs need 0.005 GiB; user supplied 0.294 GiB. 
  SCF_SUBTYPE=INCORE selected. In-core MEM_DF algorithm will be used.
  Using in-core AOs.

  ==> MemDFJK: Density-Fitted J/K Matrices <==

    J tasked:                   Yes
    K tasked:                   Yes
    wK tasked:                   No
    OpenMP threads:               5
    Memory [MiB]:               300
    Algorithm:                 Core
    Schwarz Cutoff:           1E-12
    Mask sparsity (%):       0.0000
    Fitting Condition:        1E-10

   => Auxiliary Basis Set <=

  Basis Set: (CC-PVTZ AUX)
    Blend: CC-PVTZ-JKFIT
    Number of shells: 50
    Number of basis functions: 158
    Number of Cartesian functions: 192
    Spherical Harmonics?: true
    Max angular momentum: 4

  Cached 100.0% of DFT collocation blocks in 0.073 [GiB].

  Minimum eigenvalue in the overlap matrix is 6.3061463881E-03.
  Reciprocal condition number of the overlap matrix is 1.8627069050E-03.
    Using symmetric orthogonalization.

  ==> Pre-Iterations <==

  SCF Guess: Orbitals guess was supplied from a previous computation.

   -------------------------------------------------------
    Irrep   Nso     Nmo     Nalpha   Nbeta   Ndocc  Nsocc
   -------------------------------------------------------
     Ag        13      13       3       2       2       1
     B1g        3       3       0       0       0       0
     B2g        7       7       0       0       0       0
     B3g        7       7       0       0       0       0
     Au         3       3       0       0       0       0
     B1u       13      13       2       2       2       0
     B2u        7       7       1       0       0       1
     B3u        7       7       1       0       0       1
   -------------------------------------------------------
    Total      60      60       7       4       4       3
   -------------------------------------------------------

  ==> Iterations <==

                           Total Energy        Delta E     RMS |[F,P]|

   @DF-UKS iter   0:   -75.45069056479878   -7.54507e+01   2.59675e-03 
   @DF-UKS iter   1:   -75.47675617197108   -2.60656e-02   5.31077e-04 ADIIS/DIIS
   @DF-UKS iter   2:   -75.47683765505865   -8.14831e-05   2.87432e-04 ADIIS/DIIS/DAMP=1%
   @DF-UKS iter   3:   -75.47677136604123    6.62890e-05   1.31632e-05 DIIS/DAMP=1%
   @DF-UKS iter   4:   -75.47686111432287   -8.97483e-05   2.43107e-06 DIIS/DAMP=1%
   @DF-UKS iter   5:   -75.47686288125782   -1.76693e-06   1.71722e-07 DIIS/DAMP=1%
   @DF-UKS iter   6:   -75.47686333734279   -4.56085e-07   4.79366e-08 DIIS/DAMP=1%
   @DF-UKS iter   7:   -75.47686331653362    2.08092e-08   7.19003e-09 DIIS/DAMP=1%
   @DF-UKS iter   8:   -75.47686331591454    6.19082e-10   1.07181e-09 DIIS/DAMP=1%
  Energy and wave function converged.


  ==> Post-Iterations <==

   Electrons on quadrature grid:
      Nalpha   =    7.0000002079 ; deviation = 2.079e-07
      Nbeta    =    3.9999998898 ; deviation = -1.102e-07
      Ntotal   =   11.0000000976 ; deviation = 9.762e-08 

   @Spin Contamination Metric:   3.585929464E-03
   @S^2 Expected:                3.750000000E+00
   @S^2 Observed:                3.753585929E+00
   @S   Expected:                1.500000000E+00
   @S   Observed:                1.500000000E+00

    Orbital Energies [Eh]
    ---------------------

    Alpha Occupied:                                                       

       1Ag   -10.724788     1B1u  -10.724561     2Ag    -1.096952  
       2B1u   -0.851488     3Ag    -0.687079     1B3u   -0.657604  
       1B2u   -0.657604  

    Alpha Virtual:                                                        

       1B2g   -0.462524     1B3g   -0.462524     3B1u   -0.238959  
       2B3u    0.015825     2B2u    0.015825     4B1u    0.017130  
       4Ag     0.035065     5Ag     0.048208     2B3g    0.094182  
       2B2g    0.094182     6Ag     0.252082     1B1g    0.252082  
       3B2u    0.295056     3B3u    0.295056     5B1u    0.346156  
       6B1u    0.466712     1Au     0.466712     7Ag     0.741019  
       3B3g    0.760210     3B2g    0.760210     7B1u    0.805150  
       4B3u    1.512732     4B2u    1.512732     8Ag     1.593593  
       4B3g    1.653972     4B2g    1.653972     5B2u    2.032995  
       5B3u    2.032995     9Ag     2.047753     2B1g    2.047753  
      10Ag     2.088564     8B1u    2.154870     6B2u    2.225895  
       6B3u    2.225895     5B3g    2.349138     5B2g    2.349138  
      11Ag     2.502355     3B1g    2.502360     9B1u    2.525165  
       2Au     2.525168    10B1u    2.622551     6B3g    2.668272  
       6B2g    2.668272    11B1u    2.716247     3Au     2.716251  
       7B2u    2.723335     7B3u    2.723335    12B1u    3.039644  
      12Ag     3.204337     7B3g    3.380777     7B2g    3.380777  
      13Ag     3.575787    13B1u    5.865633  

    Beta Occupied:                                                        

       1Ag   -10.700402     1B1u  -10.700357     2Ag    -1.001974  
       2B1u   -0.736287  

    Beta Virtual:                                                         

       3Ag    -0.519833     1B2u   -0.506239     1B3u   -0.506239  
       1B2g   -0.364648     1B3g   -0.364648     3B1u   -0.162536  
       2B3u    0.044021     2B2u    0.044021     4B1u    0.051999  
       4Ag     0.067197     5Ag     0.080259     2B3g    0.116886  
       2B2g    0.116886     1B1g    0.301936     6Ag     0.301936  
       3B2u    0.355469     3B3u    0.355469     5B1u    0.373986  
       1Au     0.511435     6B1u    0.511435     7Ag     0.797956  
       3B3g    0.805561     3B2g    0.805561     7B1u    0.847103  
       4B3u    1.569496     4B2u    1.569496     8Ag     1.654251  
       4B3g    1.709045     4B2g    1.709045     5B2u    2.094995  
       5B3u    2.094995     2B1g    2.115093     9Ag     2.115093  
      10Ag     2.155390     8B1u    2.213413     6B2u    2.290805  
       6B3u    2.290805     5B3g    2.413469     5B2g    2.413469  
      11Ag     2.585201     3B1g    2.585207     9B1u    2.598132  
       2Au     2.598135    10B1u    2.700074     6B3g    2.748088  
       6B2g    2.748088    11B1u    2.790874     3Au     2.790876  
       7B2u    2.808614     7B3u    2.808614    12B1u    3.102200  
      12Ag     3.271403     7B3g    3.448094     7B2g    3.448094  
      13Ag     3.632126    13B1u    5.911974  

    Final Occupation by Irrep:
             Ag   B1g   B2g   B3g    Au   B1u   B2u   B3u 
    DOCC [     2,    0,    0,    0,    0,    2,    0,    0 ]
    SOCC [     1,    0,    0,    0,    0,    0,    1,    1 ]
    NA   [     3,    0,    0,    0,    0,    2,    1,    1 ]
    NB   [     2,    0,    0,    0,    0,    2,    0,    0 ]

  @DF-UKS Final Energy:   -75.47686331591454

   => Energetics <=

    Nuclear Repulsion Energy =             11.4272086819382324
    One-Electron Energy =                -119.3669935384378959
    Two-Electron Energy =                  40.6417770659221063
    DFT Exchange-Correlation Energy =      -8.1788555253369903
    Empirical Dispersion Energy =           0.0000000000000000
    VV10 Nonlocal Energy =                  0.0000000000000000
    Total Energy =                        -75.4768633159145566

  UHF NO Occupations:
  HONO-2 :    1B2u 1.0000000
  HONO-1 :    1B3u 1.0000000
  HONO-0 :    3 Ag 1.0000000
  LUNO+0 :    3B1u 0.0016611
  LUNO+1 :    4 Ag 0.0001318
  LUNO+2 :    4B1u 0.0000008
  LUNO+3 :    5 Ag 0.0000006


Computation Completed


Properties will be evaluated at   0.000000,   0.000000,   0.000000 [a0]

Properties computed using the SCF density matrix


 Multipole Moments:

 ------------------------------------------------------------------------------------
     Multipole            Electronic (a.u.)      Nuclear  (a.u.)        Total (a.u.)
 ------------------------------------------------------------------------------------

 L = 1.  Multiply by 2.5417464519 to convert [e a0] to [Debye]
 Dipole X            :          0.0000000            0.0000000            0.0000000
 Dipole Y            :          0.0000000            0.0000000            0.0000000
 Dipole Z            :          0.0000000            0.0000000            0.0000000
 Magnitude           :                                                    0.0000000

 ------------------------------------------------------------------------------------

*** tstop() called on cics-quant-001 at Tue Dec 23 13:37:58 2025
Module time:
	user time   =       1.00 seconds =       0.02 minutes
	system time =       0.06 seconds =       0.00 minutes
	total time  =          1 seconds =       0.02 minutes
Total time:
	user time   =       1.00 seconds =       0.02 minutes
	system time =       0.06 seconds =       0.00 minutes
	total time  =          1 seconds =       0.02 minutes

*** tstart() called on cics-quant-001
*** at Tue Dec 23 13:37:58 2025

   => Libint2 <=

    Primary   basis highest AM E, G, H:  6, 6, 3
    Auxiliary basis highest AM E, G, H:  7, 7, 4
    Onebody   basis highest AM E, G, H:  -, -, -
    Solid Harmonics ordering:            Gaussian
   => Loading Basis Set <=

    Name: CC-PVTZ
    Role: ORBITAL
    Keyword: BASIS
    atoms 1-2 entry C          line   186 file /home/jrodriguesro/psi4conda/share/psi4/basis/cc-pvtz.gbs 


         ---------------------------------------------------------
                                   SCF
               by Justin Turney, Rob Parrish, Andy Simmonett
                          and Daniel G. A. Smith
                              UKS Reference
                        5 Threads,    500 MiB Core
         ---------------------------------------------------------

  ==> Geometry <==

    Molecular point group: d2h
    Full point group: D_inf_h

    Geometry (in Angstrom), charge = 1, multiplicity = 4:

       Center              X                  Y                   Z               Mass       
    ------------   -----------------  -----------------  -----------------  -----------------
         C            0.000000000000     0.000000000000    -0.833553500000    12.000000000000
         C            0.000000000000     0.000000000000     0.833553500000    12.000000000000

  Running in d2h symmetry.

  Rotational constants: A = ************  B =      1.01092  C =      1.01092 [cm^-1]
  Rotational constants: A = ************  B =  30306.72434  C =  30306.72434 [MHz]
  Nuclear repulsion =   11.427208681938232

  Charge       = 1
  Multiplicity = 4
  Electrons    = 11
  Nalpha       = 7
  Nbeta        = 4

  ==> Algorithm <==

  SCF Algorithm Type is DF.
  DIIS enabled.
  MOM disabled.
  Fractional occupation disabled.
  Guess Type is READ.
  Energy threshold   = 1.00e-08
  Density threshold  = 1.00e-08
  Integral threshold = 1.00e-12

  ==> Primary Basis <==

  Basis Set: CC-PVTZ
    Blend: CC-PVTZ
    Number of shells: 20
    Number of basis functions: 60
    Number of Cartesian functions: 70
    Spherical Harmonics?: true
    Max angular momentum: 3

  ==> DFT Potential <==

   => LibXC <=

    Version 7.0.0
    S. Lehtola, C. Steigemann, M. J.T. Oliveira, and M. A.L. Marques.,  SoftwareX 7, 1–5 (2018) (10.1016/j.softx.2017.11.002)

   => Composite Functional: B3LYP <= 

    B3LYP Hyb-GGA Exchange-Correlation Functional

    P. J. Stephens, F. J. Devlin, C. F. Chabalowski, and M. J. Frisch.,  J. Phys. Chem. 98, 11623 (1994) (10.1021/j100096a001)

    Deriv               =              1
    GGA                 =           TRUE
    Meta                =          FALSE

    Exchange Hybrid     =           TRUE
    MP2 Hybrid          =          FALSE

   => Exchange Functionals <=

    0.0800   Slater exchange
    0.7200         Becke 88

   => Exact (HF) Exchange <=

    0.2000               HF 

   => Correlation Functionals <=

    0.1900   Vosko, Wilk & Nusair (VWN5_RPA)
    0.8100   Lee, Yang & Parr

   => LibXC Density Thresholds  <==

    XC_HYB_GGA_XC_B3LYP:  1.00E-15 

   => Molecular Quadrature <=

    Radial Scheme          =       TREUTLER
    Pruning Scheme         =           NONE
    Nuclear Scheme         =       TREUTLER

    Blocking Scheme        =         OCTREE
    BS radius alpha        =              1
    Pruning alpha          =              1
    Radial Points          =             75
    Spherical Points       =            302
    Total Points           =          43038
    Total Blocks           =            388
    Max Points             =            251
    Max Functions          =             60
    Weights Tolerance      =       1.00E-15

   => Loading Basis Set <=

    Name: (CC-PVTZ AUX)
    Role: JKFIT
    Keyword: DF_BASIS_SCF
    atoms 1-2 entry C          line   125 file /home/jrodriguesro/psi4conda/share/psi4/basis/cc-pvtz-jkfit.gbs 

   => Loading Basis Set <=

    Name: CC-PVTZ
    Role: ORBITAL
    Keyword: BASIS
    atoms 1-2 entry C          line   186 file /home/jrodriguesro/psi4conda/share/psi4/basis/cc-pvtz.gbs 

  Reading orbitals from file /tmp/scan_CC_31.default.496887.180.npy, no projection.

  ==> Integral Setup <==

  DFHelper Memory: AOs need 0.005 GiB; user supplied 0.294 GiB. 
  SCF_SUBTYPE=INCORE selected. In-core MEM_DF algorithm will be used.
  Using in-core AOs.

  ==> MemDFJK: Density-Fitted J/K Matrices <==

    J tasked:                   Yes
    K tasked:                   Yes
    wK tasked:                   No
    OpenMP threads:               5
    Memory [MiB]:               300
    Algorithm:                 Core
    Schwarz Cutoff:           1E-12
    Mask sparsity (%):       0.0000
    Fitting Condition:        1E-10

   => Auxiliary Basis Set <=

  Basis Set: (CC-PVTZ AUX)
    Blend: CC-PVTZ-JKFIT
    Number of shells: 50
    Number of basis functions: 158
    Number of Cartesian functions: 192
    Spherical Harmonics?: true
    Max angular momentum: 4

  Cached 100.0% of DFT collocation blocks in 0.073 [GiB].

  Minimum eigenvalue in the overlap matrix is 6.3061463881E-03.
  Reciprocal condition number of the overlap matrix is 1.8627069050E-03.
    Using symmetric orthogonalization.

  ==> Pre-Iterations <==

  SCF Guess: Orbitals guess was supplied from a previous computation.

   -------------------------------------------------------
    Irrep   Nso     Nmo     Nalpha   Nbeta   Ndocc  Nsocc
   -------------------------------------------------------
     Ag        13      13       3       2       2       1
     B1g        3       3       0       0       0       0
     B2g        7       7       0       0       0       0
     B3g        7       7       0       0       0       0
     Au         3       3       0       0       0       0
     B1u       13      13       2       2       2       0
     B2u        7       7       1       0       0       1
     B3u        7       7       1       0       0       1
   -------------------------------------------------------
    Total      60      60       7       4       4       3
   -------------------------------------------------------

  ==> Iterations <==

                           Total Energy        Delta E     RMS |[F,P]|

   @DF-UKS iter   0:   -75.47686331862104   -7.54769e+01   6.08870e-11 
   @DF-UKS iter   1:   -75.47686331862103    1.42109e-14   2.58302e-11 DIIS
  Energy and wave function converged.


  ==> Post-Iterations <==

   Electrons on quadrature grid:
      Nalpha   =    7.0000002079 ; deviation = 2.079e-07
      Nbeta    =    3.9999998898 ; deviation = -1.102e-07
      Ntotal   =   11.0000000976 ; deviation = 9.762e-08 

   @Spin Contamination Metric:   3.585929440E-03
   @S^2 Expected:                3.750000000E+00
   @S^2 Observed:                3.753585929E+00
   @S   Expected:                1.500000000E+00
   @S   Observed:                1.500000000E+00

    Orbital Energies [Eh]
    ---------------------

    Alpha Occupied:                                                       

       1Ag   -10.724788     1B1u  -10.724561     2Ag    -1.096952  
       2B1u   -0.851488     3Ag    -0.687079     1B3u   -0.657604  
       1B2u   -0.657604  

    Alpha Virtual:                                                        

       1B2g   -0.462524     1B3g   -0.462524     3B1u   -0.238959  
       2B3u    0.015825     2B2u    0.015825     4B1u    0.017130  
       4Ag     0.035065     5Ag     0.048208     2B3g    0.094182  
       2B2g    0.094182     6Ag     0.252082     1B1g    0.252082  
       3B2u    0.295056     3B3u    0.295056     5B1u    0.346156  
       6B1u    0.466712     1Au     0.466712     7Ag     0.741019  
       3B3g    0.760210     3B2g    0.760210     7B1u    0.805150  
       4B3u    1.512732     4B2u    1.512732     8Ag     1.593593  
       4B3g    1.653972     4B2g    1.653972     5B2u    2.032995  
       5B3u    2.032995     9Ag     2.047753     2B1g    2.047753  
      10Ag     2.088564     8B1u    2.154870     6B2u    2.225895  
       6B3u    2.225895     5B3g    2.349138     5B2g    2.349138  
      11Ag     2.502355     3B1g    2.502360     9B1u    2.525165  
       2Au     2.525168    10B1u    2.622551     6B3g    2.668272  
       6B2g    2.668272    11B1u    2.716247     3Au     2.716251  
       7B2u    2.723335     7B3u    2.723335    12B1u    3.039644  
      12Ag     3.204337     7B3g    3.380777     7B2g    3.380777  
      13Ag     3.575787    13B1u    5.865633  

    Beta Occupied:                                                        

       1Ag   -10.700402     1B1u  -10.700357     2Ag    -1.001974  
       2B1u   -0.736287  

    Beta Virtual:                                                         

       3Ag    -0.519833     1B3u   -0.506239     1B2u   -0.506239  
       1B2g   -0.364648     1B3g   -0.364648     3B1u   -0.162536  
       2B3u    0.044021     2B2u    0.044021     4B1u    0.051999  
       4Ag     0.067197     5Ag     0.080259     2B3g    0.116886  
       2B2g    0.116886     1B1g    0.301936     6Ag     0.301936  
       3B2u    0.355469     3B3u    0.355469     5B1u    0.373986  
       1Au     0.511435     6B1u    0.511435     7Ag     0.797956  
       3B3g    0.805561     3B2g    0.805561     7B1u    0.847103  
       4B3u    1.569496     4B2u    1.569496     8Ag     1.654251  
       4B3g    1.709045     4B2g    1.709045     5B2u    2.094995  
       5B3u    2.094995     2B1g    2.115093     9Ag     2.115093  
      10Ag     2.155390     8B1u    2.213413     6B2u    2.290805  
       6B3u    2.290805     5B3g    2.413469     5B2g    2.413469  
      11Ag     2.585201     3B1g    2.585207     9B1u    2.598132  
       2Au     2.598135    10B1u    2.700074     6B3g    2.748088  
       6B2g    2.748088    11B1u    2.790874     3Au     2.790876  
       7B2u    2.808614     7B3u    2.808614    12B1u    3.102200  
      12Ag     3.271403     7B3g    3.448094     7B2g    3.448094  
      13Ag     3.632126    13B1u    5.911974  

    Final Occupation by Irrep:
             Ag   B1g   B2g   B3g    Au   B1u   B2u   B3u 
    DOCC [     2,    0,    0,    0,    0,    2,    0,    0 ]
    SOCC [     1,    0,    0,    0,    0,    0,    1,    1 ]
    NA   [     3,    0,    0,    0,    0,    2,    1,    1 ]
    NB   [     2,    0,    0,    0,    0,    2,    0,    0 ]

  @DF-UKS Final Energy:   -75.47686331862103

   => Energetics <=

    Nuclear Repulsion Energy =             11.4272086819382324
    One-Electron Energy =                -119.3669934677726019
    Two-Electron Energy =                  40.6417769838190708
    DFT Exchange-Correlation Energy =      -8.1788555166057257
    Empirical Dispersion Energy =           0.0000000000000000
    VV10 Nonlocal Energy =                  0.0000000000000000
    Total Energy =                        -75.4768633186210280

  UHF NO Occupations:
  HONO-2 :    1B2u 1.0000000
  HONO-1 :    3 Ag 1.0000000
  HONO-0 :    1B3u 1.0000000
  LUNO+0 :    3B1u 0.0016611
  LUNO+1 :    4 Ag 0.0001318
  LUNO+2 :    4B1u 0.0000008
  LUNO+3 :    5 Ag 0.0000006


Computation Completed


Properties will be evaluated at   0.000000,   0.000000,   0.000000 [a0]

Properties computed using the B3LYP density matrix


 Multipole Moments:

 ------------------------------------------------------------------------------------
     Multipole            Electronic (a.u.)      Nuclear  (a.u.)        Total (a.u.)
 ------------------------------------------------------------------------------------

 L = 1.  Multiply by 2.5417464519 to convert [e a0] to [Debye]
 Dipole X            :          0.0000000            0.0000000            0.0000000
 Dipole Y            :          0.0000000            0.0000000            0.0000000
 Dipole Z            :          0.0000000            0.0000000            0.0000000
 Magnitude           :                                                    0.0000000

 L = 2.  Multiply by 1.3450342976 to convert [e a0^2] to [Debye ang]
 Quadrupole XX       :         -6.7484661            0.0000000           -6.7484661
 Quadrupole XY       :          0.0000000            0.0000000            0.0000000
 Quadrupole XZ       :          0.0000000            0.0000000            0.0000000
 Quadrupole YY       :         -6.7484661            0.0000000           -6.7484661
 Quadrupole YZ       :          0.0000000            0.0000000            0.0000000
 Quadrupole ZZ       :        -33.8500324           29.7746002           -4.0754322
 Traceless XX        :          9.0338555           -9.9248667           -0.8910113
 Traceless YY        :          9.0338555           -9.9248667           -0.8910113
 Traceless ZZ        :        -18.0677109           19.8497335            1.7820226

 ------------------------------------------------------------------------------------
  ==> Computing MBIS Charges <==

  Electron Count from Grid (Expected Number): 11.00000 (11.00000)
  Difference:  0.00000

  MBIS Charges: (a.u.)
   Center  Symbol  Z      Pop.       Charge
      1       C    6    5.500000    0.500000
      2       C    6    5.500000    0.500000

  MBIS Dipoles: [e a0]
   Center  Symbol  Z        X           Y           Z
      1       C    6   -0.000000   -0.000000   -0.147310
      2       C    6   -0.000000   -0.000000    0.147310

  MBIS Quadrupoles: [e a0^2]
   Center  Symbol  Z      XX        XY        XZ        YY        YZ        ZZ
      1       C    6   -3.3742    0.0000   -0.0000   -3.3742   -0.0000   -3.7424
      2       C    6   -3.3742    0.0000    0.0000   -3.3742    0.0000   -3.7424

  MBIS Octupoles: [e a0^3]
   Center  Symbol  Z      XXX       XXY       XXZ       XYY       XYZ       XZZ       YYY       YYZ       YZZ       ZZZ
      1       C    6   -0.0000   -0.0000   -0.2120   -0.0000    0.0000   -0.0000    0.0000   -0.2120   -0.0000   -0.7147
      2       C    6   -0.0000   -0.0000    0.2120   -0.0000   -0.0000   -0.0000    0.0000    0.2120   -0.0000    0.7147

  MBIS Radial Moments:
   Center  Symbol  Z      [a0^2]      [a0^3]      [a0^4]      
      1       C    6   10.490873   23.463175   62.438391
      2       C    6   10.490873   23.463175   62.438391

  MBIS Valence Widths: [a0]
   Center  Symbol  Z     Width
      1       C    6    0.483055
      2       C    6    0.483055


  MBIS Valence Charges: (a.u.)
   Center  Symbol  Z     Charge
      1       C    6   -3.853572
      2       C    6   -3.853572

*** tstop() called on cics-quant-001 at Tue Dec 23 13:37:58 2025
Module time:
	user time   =       0.56 seconds =       0.01 minutes
	system time =       0.04 seconds =       0.00 minutes
	total time  =          0 seconds =       0.00 minutes
Total time:
	user time   =       1.57 seconds =       0.03 minutes
	system time =       0.10 seconds =       0.00 minutes
	total time  =          1 seconds =       0.02 minutes

    Psi4 stopped on: Tuesday, 23 December 2025 01:37PM
    Psi4 wall time for execution: 0:00:00.73

*** Psi4 exiting successfully. Buy a developer a beer!
