
    -----------------------------------------------------------------------
          Psi4: An Open-Source Ab Initio Electronic Structure Package
                               Psi4 1.10 release

                         Git: Rev {} zzzzzzz 


    D. G. A. Smith, L. A. Burns, A. C. Simmonett, R. M. Parrish,
    M. C. Schieber, R. Galvelis, P. Kraus, H. Kruse, R. Di Remigio,
    A. Alenaizan, A. M. James, S. Lehtola, J. P. Misiewicz, M. Scheurer,
    R. A. Shaw, J. B. Schriber, Y. Xie, Z. L. Glick, D. A. Sirianni,
    J. S. O'Brien, J. M. Waldrop, A. Kumar, E. G. Hohenstein,
    B. P. Pritchard, B. R. Brooks, H. F. Schaefer III, A. Yu. Sokolov,
    K. Patkowski, A. E. DePrince III, U. Bozkaya, R. A. King,
    F. A. Evangelista, J. M. Turney, T. D. Crawford, C. D. Sherrill,
    J. Chem. Phys. 152(18) 184108 (2020). https://doi.org/10.1063/5.0006002

                            Additional Code Authors
    E. T. Seidl, C. L. Janssen, E. F. Valeev, M. L. Leininger,
    J. F. Gonthier, R. M. Richard, H. R. McAlexander, M. Saitow, X. Wang,
    P. Verma, M. H. Lechner, A. Jiang, S. Behnle, A. G. Heide,
    M. F. Herbst, D. L. Poole, T. Győri, E. C. Mitchell, J. P. Pederson,
    and A. M. Wallace

             Previous Authors, Complete List of Code Contributors,
                       and Citations for Specific Modules
    https://github.com/psi4/psi4/blob/master/codemeta.json
    https://github.com/psi4/psi4/graphs/contributors
    https://psicode.org/psi4manual/master/introduction.html#citing-psifour

    -----------------------------------------------------------------------


    Psi4 started on: Tuesday, 23 December 2025 01:47PM

    Process ID: 544467
    Host:       cics-quant-001
    PSIDATADIR: /home/jrodriguesro/psi4conda/share/psi4
    Memory:     500.0 MiB
    Threads:    5
    Addons:     adcc, a̶m̶b̶i̶t̶, b̶s̶e̶, c̶c̶t̶3̶, c̶f̶o̶u̶r̶, c̶h̶e̶m̶p̶s̶2̶, c̶p̶p̶e̶, ddx, dftd3, dftd4,
                dkh, ecpint, einsums, f̶o̶r̶t̶e̶, g̶a̶u̶x̶c̶, gcp, g̶d̶m̶a̶, geometric,
                g̶p̶u̶_̶d̶f̶c̶c̶, i̶n̶t̶e̶g̶r̶a̶t̶o̶r̶x̶x̶, i̶p̶i̶, libefp, m̶d̶i̶, m̶p̶2̶d̶,
                m̶r̶c̶c̶, ooo, o̶p̶e̶n̶f̶e̶r̶m̶i̶o̶n̶p̶s̶i̶4̶, pcmsolver, p̶s̶i̶4̶f̶o̶c̶k̶c̶i̶,
                p̶s̶i̶x̶a̶s̶, r̶e̶s̶p̶, s̶i̶m̶i̶n̶t̶, s̶n̶s̶m̶p̶2̶, v̶2̶r̶d̶m̶_̶c̶a̶s̶s̶c̶f̶

  ==> Input File <==

--------------------------------------------------------------------------
molecule { 
1 1
O           0.000000           0.000000           0.000000
N           0.000000           0.000000           2.041158
}

set { 
basis              cc-pvtz
reference          uks
maxiter            500
DAMPING_PERCENTAGE 1
E_CONVERGENCE      1.0E-8
D_CONVERGENCE      1.0E-8
DIIS_MAX_VECS      400
MBIS_MAXITER       8000
guess              read
}

E, wfn = energy('b3lyp', restart_file='last_wfn', return_wfn=True)
properties('b3lyp','MBIS_CHARGES', wfn=wfn)
wfn.to_file('last_wfn')
--------------------------------------------------------------------------

Scratch directory: /tmp/
 Found user provided orbital data. Setting orbital guess to READ 
 Copying restart file <last_wfn.npy> to </tmp/scan_NO_48.default.544467.180.npy> for internal processing
   => Libint2 <=

    Primary   basis highest AM E, G, H:  6, 6, 3
    Auxiliary basis highest AM E, G, H:  7, 7, 4
    Onebody   basis highest AM E, G, H:  -, -, -
    Solid Harmonics ordering:            Gaussian

*** tstart() called on cics-quant-001
*** at Tue Dec 23 13:47:31 2025

   => Loading Basis Set <=

    Name: CC-PVTZ
    Role: ORBITAL
    Keyword: BASIS
    atoms 1 entry O          line   262 file /home/jrodriguesro/psi4conda/share/psi4/basis/cc-pvtz.gbs 
    atoms 2 entry N          line   224 file /home/jrodriguesro/psi4conda/share/psi4/basis/cc-pvtz.gbs 


         ---------------------------------------------------------
                                   SCF
               by Justin Turney, Rob Parrish, Andy Simmonett
                          and Daniel G. A. Smith
                              UKS Reference
                        5 Threads,    500 MiB Core
         ---------------------------------------------------------

  ==> Geometry <==

    Molecular point group: c2v
    Full point group: C_inf_v

    Geometry (in Angstrom), charge = 1, multiplicity = 1:

       Center              X                  Y                   Z               Mass       
    ------------   -----------------  -----------------  -----------------  -----------------
         O            0.000000000000     0.000000000000    -0.952813433160    15.994914619570
         N            0.000000000000     0.000000000000     1.088344566840    14.003074004430

  Running in c2v symmetry.

  Rotational constants: A = ************  B =      0.54191  C =      0.54191 [cm^-1]
  Rotational constants: A = ************  B =  16246.16195  C =  16246.16195 [MHz]
  Nuclear repulsion =   14.518192025075965

  Charge       = 1
  Multiplicity = 1
  Electrons    = 14
  Nalpha       = 7
  Nbeta        = 7

  ==> Algorithm <==

  SCF Algorithm Type is DF.
  DIIS enabled.
  MOM disabled.
  Fractional occupation disabled.
  Guess Type is READ.
  Energy threshold   = 1.00e-08
  Density threshold  = 1.00e-08
  Integral threshold = 1.00e-12

  ==> Primary Basis <==

  Basis Set: CC-PVTZ
    Blend: CC-PVTZ
    Number of shells: 20
    Number of basis functions: 60
    Number of Cartesian functions: 70
    Spherical Harmonics?: true
    Max angular momentum: 3

  ==> DFT Potential <==

   => LibXC <=

    Version 7.0.0
    S. Lehtola, C. Steigemann, M. J.T. Oliveira, and M. A.L. Marques.,  SoftwareX 7, 1–5 (2018) (10.1016/j.softx.2017.11.002)

   => Composite Functional: B3LYP <= 

    B3LYP Hyb-GGA Exchange-Correlation Functional

    P. J. Stephens, F. J. Devlin, C. F. Chabalowski, and M. J. Frisch.,  J. Phys. Chem. 98, 11623 (1994) (10.1021/j100096a001)

    Deriv               =              1
    GGA                 =           TRUE
    Meta                =          FALSE

    Exchange Hybrid     =           TRUE
    MP2 Hybrid          =          FALSE

   => Exchange Functionals <=

    0.0800   Slater exchange
    0.7200         Becke 88

   => Exact (HF) Exchange <=

    0.2000               HF 

   => Correlation Functionals <=

    0.1900   Vosko, Wilk & Nusair (VWN5_RPA)
    0.8100   Lee, Yang & Parr

   => LibXC Density Thresholds  <==

    XC_HYB_GGA_XC_B3LYP:  1.00E-15 

   => Molecular Quadrature <=

    Radial Scheme          =       TREUTLER
    Pruning Scheme         =           NONE
    Nuclear Scheme         =       TREUTLER

    Blocking Scheme        =         OCTREE
    BS radius alpha        =              1
    Pruning alpha          =              1
    Radial Points          =             75
    Spherical Points       =            302
    Total Points           =          42819
    Total Blocks           =            383
    Max Points             =            255
    Max Functions          =             60
    Weights Tolerance      =       1.00E-15

   => Loading Basis Set <=

    Name: (CC-PVTZ AUX)
    Role: JKFIT
    Keyword: DF_BASIS_SCF
    atoms 1 entry O          line   229 file /home/jrodriguesro/psi4conda/share/psi4/basis/cc-pvtz-jkfit.gbs 
    atoms 2 entry N          line   177 file /home/jrodriguesro/psi4conda/share/psi4/basis/cc-pvtz-jkfit.gbs 

   => Loading Basis Set <=

    Name: CC-PVTZ
    Role: ORBITAL
    Keyword: BASIS
    atoms 1 entry O          line   262 file /home/jrodriguesro/psi4conda/share/psi4/basis/cc-pvtz.gbs 
    atoms 2 entry N          line   224 file /home/jrodriguesro/psi4conda/share/psi4/basis/cc-pvtz.gbs 

  Reading orbitals from file /tmp/scan_NO_48.default.544467.180.npy, no projection.

  ==> Integral Setup <==

  DFHelper Memory: AOs need 0.005 GiB; user supplied 0.299 GiB. 
  SCF_SUBTYPE=INCORE selected. In-core MEM_DF algorithm will be used.
  Using in-core AOs.

  ==> MemDFJK: Density-Fitted J/K Matrices <==

    J tasked:                   Yes
    K tasked:                   Yes
    wK tasked:                   No
    OpenMP threads:               5
    Memory [MiB]:               305
    Algorithm:                 Core
    Schwarz Cutoff:           1E-12
    Mask sparsity (%):       0.0000
    Fitting Condition:        1E-10

   => Auxiliary Basis Set <=

  Basis Set: (CC-PVTZ AUX)
    Blend: CC-PVTZ-JKFIT
    Number of shells: 50
    Number of basis functions: 158
    Number of Cartesian functions: 192
    Spherical Harmonics?: true
    Max angular momentum: 4

  Cached 100.0% of DFT collocation blocks in 0.067 [GiB].

  Minimum eigenvalue in the overlap matrix is 2.3197877567E-02.
  Reciprocal condition number of the overlap matrix is 8.0985042157E-03.
    Using symmetric orthogonalization.

  ==> Pre-Iterations <==

  SCF Guess: Orbitals guess was supplied from a previous computation.

   -------------------------------------------------------
    Irrep   Nso     Nmo     Nalpha   Nbeta   Ndocc  Nsocc
   -------------------------------------------------------
     A1        26      26       5       5       5       0
     A2         6       6       0       0       0       0
     B1        14      14       1       1       1       0
     B2        14      14       1       1       1       0
   -------------------------------------------------------
    Total      60      60       7       7       7       0
   -------------------------------------------------------

  ==> Iterations <==

                           Total Energy        Delta E     RMS |[F,P]|

   @DF-UKS iter   0:  -129.10254639126489   -1.29103e+02   6.84179e-04 
   @DF-UKS iter   1:  -129.12098903984366   -1.84426e-02   5.72337e-04 ADIIS/DIIS
   @DF-UKS iter   2:  -129.08754423312323    3.34448e-02   9.83424e-03 ADIIS/DIIS/DAMP=1%
   @DF-UKS iter   3:  -129.11916919110482   -3.16250e-02   2.08088e-04 ADIIS/DIIS/DAMP=1%
   @DF-UKS iter   4:  -129.12100677289564   -1.83758e-03   1.83152e-04 ADIIS/DIIS/DAMP=1%
   @DF-UKS iter   5:  -129.12107016916920   -6.33963e-05   6.63496e-05 DIIS/DAMP=1%
   @DF-UKS iter   6:  -129.12112634430011   -5.61751e-05   1.60606e-05 DIIS/DAMP=1%
   @DF-UKS iter   7:  -129.12112165750491    4.68680e-06   2.83058e-06 DIIS/DAMP=1%
   @DF-UKS iter   8:  -129.12111889615110    2.76135e-06   2.02944e-06 DIIS/DAMP=1%
   @DF-UKS iter   9:  -129.12111899145040   -9.52993e-08   2.09800e-06 DIIS/DAMP=1%
   @DF-UKS iter  10:  -129.12111935246892   -3.61019e-07   5.24440e-07 DIIS/DAMP=1%
   @DF-UKS iter  11:  -129.12111897875729    3.73712e-07   6.99738e-07 DIIS/DAMP=1%
   @DF-UKS iter  12:  -129.12111913873929   -1.59982e-07   6.06263e-08 DIIS/DAMP=1%
   @DF-UKS iter  13:  -129.12111901607361    1.22666e-07   4.29759e-08 DIIS/DAMP=1%
   @DF-UKS iter  14:  -129.12111902018677   -4.11316e-09   7.77279e-09 DIIS/DAMP=1%
  Energy and wave function converged.


  ==> Post-Iterations <==

   Electrons on quadrature grid:
      Nalpha   =    7.0000009655 ; deviation = 9.655e-07
      Nbeta    =    7.0000009655 ; deviation = 9.655e-07
      Ntotal   =   14.0000019310 ; deviation = 1.931e-06 

   @Spin Contamination Metric:   2.855493619E-12
   @S^2 Expected:                0.000000000E+00
   @S^2 Observed:                2.855493619E-12
   @S   Expected:                0.000000000E+00
   @S   Observed:                0.000000000E+00

    Orbital Energies [Eh]
    ---------------------

    Alpha Occupied:                                                       

       1A1   -19.704143     2A1   -15.010540     3A1    -1.332088  
       4A1    -1.180285     5A1    -0.776524     1B2    -0.731424  
       1B1    -0.731424  

    Alpha Virtual:                                                        

       2B1    -0.641545     2B2    -0.641545     6A1    -0.579916  
       3B1     0.110284     3B2     0.110284     7A1     0.128187  
       8A1     0.203412     4B2     0.286506     4B1     0.286506  
       9A1     0.312506    10A1     0.551643     5B1     0.631902  
       5B2     0.631902     1A2     0.634041    11A1     0.634041  
      12A1     0.798387     2A2     1.100966    13A1     1.100967  
       6B2     1.189755     6B1     1.189755    14A1     1.566283  
       7B1     2.332960     7B2     2.332960    15A1     2.412835  
      16A1     3.135912     8B2     3.163889     8B1     3.163889  
       9B1     3.403729     9B2     3.403729    17A1     3.406875  
       3A2     3.406876    10B1     3.419944    10B2     3.419944  
      18A1     3.509621     4A2     3.900739    19A1     3.900745  
      11B1     3.932816    11B2     3.932816    20A1     4.121368  
       5A2     4.691905    21A1     4.691927    12B1     4.700123  
      12B2     4.700123    13B2     4.722596    13B1     4.722596  
      22A1     4.825085    23A1     4.948243    24A1     5.717005  
       6A2     5.717074    14B2     5.774749    14B1     5.774749  
      25A1     5.974043    26A1     7.231635  

    Beta Occupied:                                                        

       1A1   -19.704143     2A1   -15.010540     3A1    -1.332088  
       4A1    -1.180285     5A1    -0.776524     1B1    -0.731424  
       1B2    -0.731424  

    Beta Virtual:                                                         

       2B2    -0.641545     2B1    -0.641545     6A1    -0.579916  
       3B2     0.110284     3B1     0.110284     7A1     0.128187  
       8A1     0.203412     4B1     0.286506     4B2     0.286506  
       9A1     0.312506    10A1     0.551643     5B2     0.631902  
       5B1     0.631902     1A2     0.634041    11A1     0.634041  
      12A1     0.798387     2A2     1.100966    13A1     1.100967  
       6B1     1.189755     6B2     1.189755    14A1     1.566283  
       7B2     2.332960     7B1     2.332960    15A1     2.412835  
      16A1     3.135912     8B1     3.163889     8B2     3.163889  
       9B2     3.403729     9B1     3.403729    17A1     3.406875  
       3A2     3.406876    10B2     3.419944    10B1     3.419944  
      18A1     3.509621     4A2     3.900739    19A1     3.900745  
      11B2     3.932816    11B1     3.932816    20A1     4.121368  
       5A2     4.691905    21A1     4.691927    12B2     4.700123  
      12B1     4.700123    13B1     4.722596    13B2     4.722596  
      22A1     4.825085    23A1     4.948243    24A1     5.717005  
       6A2     5.717074    14B1     5.774749    14B2     5.774749  
      25A1     5.974043    26A1     7.231635  

    Final Occupation by Irrep:
             A1    A2    B1    B2 
    DOCC [     5,    0,    1,    1 ]
    SOCC [     0,    0,    0,    0 ]
    NA   [     5,    0,    1,    1 ]
    NB   [     5,    0,    1,    1 ]

  @DF-UKS Final Energy:  -129.12111902018677

   => Energetics <=

    Nuclear Repulsion Energy =             14.5181920250759653
    One-Electron Energy =                -199.8741951852402963
    Two-Electron Energy =                  67.9908437263420211
    DFT Exchange-Correlation Energy =     -11.7559595863644475
    Empirical Dispersion Energy =           0.0000000000000000
    VV10 Nonlocal Energy =                  0.0000000000000000
    Total Energy =                       -129.1211190201867680

  UHF NO Occupations:
  HONO-2 :    4 A1 2.0000000
  HONO-1 :    5 A1 2.0000000
  HONO-0 :    1 B2 2.0000000
  LUNO+0 :    2 B2 0.0000000
  LUNO+1 :    6 A1 0.0000000
  LUNO+2 :    2 B1 0.0000000
  LUNO+3 :    7 A1 0.0000000


Computation Completed


Properties will be evaluated at   0.000000,   0.000000,   0.000000 [a0]

Properties computed using the SCF density matrix


 Multipole Moments:

 ------------------------------------------------------------------------------------
     Multipole            Electronic (a.u.)      Nuclear  (a.u.)        Total (a.u.)
 ------------------------------------------------------------------------------------

 L = 1.  Multiply by 2.5417464519 to convert [e a0] to [Debye]
 Dipole X            :          0.0000000            0.0000000            0.0000000
 Dipole Y            :          0.0000000            0.0000000            0.0000000
 Dipole Z            :          0.8103832           -0.0077394            0.8026439
 Magnitude           :                                                    0.8026439

 ------------------------------------------------------------------------------------

*** tstop() called on cics-quant-001 at Tue Dec 23 13:47:32 2025
Module time:
	user time   =       1.28 seconds =       0.02 minutes
	system time =       0.05 seconds =       0.00 minutes
	total time  =          1 seconds =       0.02 minutes
Total time:
	user time   =       1.28 seconds =       0.02 minutes
	system time =       0.05 seconds =       0.00 minutes
	total time  =          1 seconds =       0.02 minutes

*** tstart() called on cics-quant-001
*** at Tue Dec 23 13:47:32 2025

   => Libint2 <=

    Primary   basis highest AM E, G, H:  6, 6, 3
    Auxiliary basis highest AM E, G, H:  7, 7, 4
    Onebody   basis highest AM E, G, H:  -, -, -
    Solid Harmonics ordering:            Gaussian
   => Loading Basis Set <=

    Name: CC-PVTZ
    Role: ORBITAL
    Keyword: BASIS
    atoms 1 entry O          line   262 file /home/jrodriguesro/psi4conda/share/psi4/basis/cc-pvtz.gbs 
    atoms 2 entry N          line   224 file /home/jrodriguesro/psi4conda/share/psi4/basis/cc-pvtz.gbs 


         ---------------------------------------------------------
                                   SCF
               by Justin Turney, Rob Parrish, Andy Simmonett
                          and Daniel G. A. Smith
                              UKS Reference
                        5 Threads,    500 MiB Core
         ---------------------------------------------------------

  ==> Geometry <==

    Molecular point group: c2v
    Full point group: C_inf_v

    Geometry (in Angstrom), charge = 1, multiplicity = 1:

       Center              X                  Y                   Z               Mass       
    ------------   -----------------  -----------------  -----------------  -----------------
         O            0.000000000000     0.000000000000    -0.952813433160    15.994914619570
         N            0.000000000000     0.000000000000     1.088344566840    14.003074004430

  Running in c2v symmetry.

  Rotational constants: A = ************  B =      0.54191  C =      0.54191 [cm^-1]
  Rotational constants: A = ************  B =  16246.16195  C =  16246.16195 [MHz]
  Nuclear repulsion =   14.518192025075965

  Charge       = 1
  Multiplicity = 1
  Electrons    = 14
  Nalpha       = 7
  Nbeta        = 7

  ==> Algorithm <==

  SCF Algorithm Type is DF.
  DIIS enabled.
  MOM disabled.
  Fractional occupation disabled.
  Guess Type is READ.
  Energy threshold   = 1.00e-08
  Density threshold  = 1.00e-08
  Integral threshold = 1.00e-12

  ==> Primary Basis <==

  Basis Set: CC-PVTZ
    Blend: CC-PVTZ
    Number of shells: 20
    Number of basis functions: 60
    Number of Cartesian functions: 70
    Spherical Harmonics?: true
    Max angular momentum: 3

  ==> DFT Potential <==

   => LibXC <=

    Version 7.0.0
    S. Lehtola, C. Steigemann, M. J.T. Oliveira, and M. A.L. Marques.,  SoftwareX 7, 1–5 (2018) (10.1016/j.softx.2017.11.002)

   => Composite Functional: B3LYP <= 

    B3LYP Hyb-GGA Exchange-Correlation Functional

    P. J. Stephens, F. J. Devlin, C. F. Chabalowski, and M. J. Frisch.,  J. Phys. Chem. 98, 11623 (1994) (10.1021/j100096a001)

    Deriv               =              1
    GGA                 =           TRUE
    Meta                =          FALSE

    Exchange Hybrid     =           TRUE
    MP2 Hybrid          =          FALSE

   => Exchange Functionals <=

    0.0800   Slater exchange
    0.7200         Becke 88

   => Exact (HF) Exchange <=

    0.2000               HF 

   => Correlation Functionals <=

    0.1900   Vosko, Wilk & Nusair (VWN5_RPA)
    0.8100   Lee, Yang & Parr

   => LibXC Density Thresholds  <==

    XC_HYB_GGA_XC_B3LYP:  1.00E-15 

   => Molecular Quadrature <=

    Radial Scheme          =       TREUTLER
    Pruning Scheme         =           NONE
    Nuclear Scheme         =       TREUTLER

    Blocking Scheme        =         OCTREE
    BS radius alpha        =              1
    Pruning alpha          =              1
    Radial Points          =             75
    Spherical Points       =            302
    Total Points           =          42819
    Total Blocks           =            383
    Max Points             =            255
    Max Functions          =             60
    Weights Tolerance      =       1.00E-15

   => Loading Basis Set <=

    Name: (CC-PVTZ AUX)
    Role: JKFIT
    Keyword: DF_BASIS_SCF
    atoms 1 entry O          line   229 file /home/jrodriguesro/psi4conda/share/psi4/basis/cc-pvtz-jkfit.gbs 
    atoms 2 entry N          line   177 file /home/jrodriguesro/psi4conda/share/psi4/basis/cc-pvtz-jkfit.gbs 

   => Loading Basis Set <=

    Name: CC-PVTZ
    Role: ORBITAL
    Keyword: BASIS
    atoms 1 entry O          line   262 file /home/jrodriguesro/psi4conda/share/psi4/basis/cc-pvtz.gbs 
    atoms 2 entry N          line   224 file /home/jrodriguesro/psi4conda/share/psi4/basis/cc-pvtz.gbs 

  Reading orbitals from file /tmp/scan_NO_48.default.544467.180.npy, no projection.

  ==> Integral Setup <==

  DFHelper Memory: AOs need 0.005 GiB; user supplied 0.299 GiB. 
  SCF_SUBTYPE=INCORE selected. In-core MEM_DF algorithm will be used.
  Using in-core AOs.

  ==> MemDFJK: Density-Fitted J/K Matrices <==

    J tasked:                   Yes
    K tasked:                   Yes
    wK tasked:                   No
    OpenMP threads:               5
    Memory [MiB]:               305
    Algorithm:                 Core
    Schwarz Cutoff:           1E-12
    Mask sparsity (%):       0.0000
    Fitting Condition:        1E-10

   => Auxiliary Basis Set <=

  Basis Set: (CC-PVTZ AUX)
    Blend: CC-PVTZ-JKFIT
    Number of shells: 50
    Number of basis functions: 158
    Number of Cartesian functions: 192
    Spherical Harmonics?: true
    Max angular momentum: 4

  Cached 100.0% of DFT collocation blocks in 0.067 [GiB].

  Minimum eigenvalue in the overlap matrix is 2.3197877567E-02.
  Reciprocal condition number of the overlap matrix is 8.0985042157E-03.
    Using symmetric orthogonalization.

  ==> Pre-Iterations <==

  SCF Guess: Orbitals guess was supplied from a previous computation.

   -------------------------------------------------------
    Irrep   Nso     Nmo     Nalpha   Nbeta   Ndocc  Nsocc
   -------------------------------------------------------
     A1        26      26       5       5       5       0
     A2         6       6       0       0       0       0
     B1        14      14       1       1       1       0
     B2        14      14       1       1       1       0
   -------------------------------------------------------
    Total      60      60       7       7       7       0
   -------------------------------------------------------

  ==> Iterations <==

                           Total Energy        Delta E     RMS |[F,P]|

   @DF-UKS iter   0:  -129.12111901267639   -1.29121e+02   1.61052e-08 
   @DF-UKS iter   1:  -129.12111901263958    3.68061e-11   3.24968e-07 DIIS
   @DF-UKS iter   2:  -129.12111899522998    1.74096e-08   6.98882e-06 DIIS/DAMP=1%
   @DF-UKS iter   3:  -129.12112040918910   -1.41396e-06   4.12057e-08 DIIS/DAMP=1%
   @DF-UKS iter   4:  -129.12111903578273    1.37341e-06   4.75484e-08 DIIS/DAMP=1%
   @DF-UKS iter   5:  -129.12111901389582    2.18869e-08   5.28582e-08 DIIS/DAMP=1%
   @DF-UKS iter   6:  -129.12111900990561    3.99021e-09   3.56351e-08 DIIS/DAMP=1%
   @DF-UKS iter   7:  -129.12111901555514   -5.64953e-09   4.98130e-08 DIIS/DAMP=1%
   @DF-UKS iter   8:  -129.12111901460221    9.52923e-10   6.00311e-08 DIIS/DAMP=1%
   @DF-UKS iter   9:  -129.12111900670104    7.90118e-09   2.91214e-08 DIIS/DAMP=1%
   @DF-UKS iter  10:  -129.12111900995194   -3.25090e-09   1.59752e-08 DIIS/DAMP=1%
   @DF-UKS iter  11:  -129.12111901003553   -8.35882e-11   2.96496e-09 DIIS/DAMP=1%
  Energy and wave function converged.


  ==> Post-Iterations <==

   Electrons on quadrature grid:
      Nalpha   =    7.0000009655 ; deviation = 9.655e-07
      Nbeta    =    7.0000009655 ; deviation = 9.655e-07
      Ntotal   =   14.0000019310 ; deviation = 1.931e-06 

   @Spin Contamination Metric:   9.769962617E-15
   @S^2 Expected:                0.000000000E+00
   @S^2 Observed:                9.769962617E-15
   @S   Expected:                0.000000000E+00
   @S   Observed:                0.000000000E+00

    Orbital Energies [Eh]
    ---------------------

    Alpha Occupied:                                                       

       1A1   -19.704143     2A1   -15.010540     3A1    -1.332088  
       4A1    -1.180285     5A1    -0.776524     1B1    -0.731424  
       1B2    -0.731424  

    Alpha Virtual:                                                        

       2B2    -0.641545     2B1    -0.641545     6A1    -0.579916  
       3B2     0.110284     3B1     0.110284     7A1     0.128187  
       8A1     0.203412     4B1     0.286506     4B2     0.286506  
       9A1     0.312506    10A1     0.551643     5B2     0.631902  
       5B1     0.631902     1A2     0.634041    11A1     0.634041  
      12A1     0.798387     2A2     1.100966    13A1     1.100967  
       6B1     1.189755     6B2     1.189755    14A1     1.566283  
       7B2     2.332960     7B1     2.332960    15A1     2.412835  
      16A1     3.135912     8B1     3.163889     8B2     3.163889  
       9B2     3.403729     9B1     3.403729    17A1     3.406875  
       3A2     3.406876    10B2     3.419944    10B1     3.419944  
      18A1     3.509621     4A2     3.900739    19A1     3.900745  
      11B2     3.932816    11B1     3.932816    20A1     4.121368  
       5A2     4.691905    21A1     4.691927    12B2     4.700123  
      12B1     4.700123    13B1     4.722596    13B2     4.722596  
      22A1     4.825085    23A1     4.948243    24A1     5.717005  
       6A2     5.717074    14B1     5.774749    14B2     5.774749  
      25A1     5.974043    26A1     7.231635  

    Beta Occupied:                                                        

       1A1   -19.704143     2A1   -15.010540     3A1    -1.332088  
       4A1    -1.180285     5A1    -0.776524     1B2    -0.731424  
       1B1    -0.731424  

    Beta Virtual:                                                         

       2B1    -0.641545     2B2    -0.641545     6A1    -0.579916  
       3B1     0.110284     3B2     0.110284     7A1     0.128187  
       8A1     0.203412     4B2     0.286506     4B1     0.286506  
       9A1     0.312506    10A1     0.551643     5B1     0.631902  
       5B2     0.631902     1A2     0.634041    11A1     0.634041  
      12A1     0.798387     2A2     1.100966    13A1     1.100967  
       6B2     1.189755     6B1     1.189755    14A1     1.566283  
       7B1     2.332960     7B2     2.332960    15A1     2.412835  
      16A1     3.135912     8B2     3.163889     8B1     3.163889  
       9B1     3.403729     9B2     3.403729    17A1     3.406875  
       3A2     3.406876    10B1     3.419944    10B2     3.419944  
      18A1     3.509621     4A2     3.900739    19A1     3.900745  
      11B1     3.932816    11B2     3.932816    20A1     4.121368  
       5A2     4.691905    21A1     4.691927    12B1     4.700123  
      12B2     4.700123    13B2     4.722596    13B1     4.722596  
      22A1     4.825085    23A1     4.948243    24A1     5.717005  
       6A2     5.717074    14B2     5.774749    14B1     5.774749  
      25A1     5.974043    26A1     7.231635  

    Final Occupation by Irrep:
             A1    A2    B1    B2 
    DOCC [     5,    0,    1,    1 ]
    SOCC [     0,    0,    0,    0 ]
    NA   [     5,    0,    1,    1 ]
    NB   [     5,    0,    1,    1 ]

  @DF-UKS Final Energy:  -129.12111901003553

   => Energetics <=

    Nuclear Repulsion Energy =             14.5181920250759653
    One-Electron Energy =                -199.8741947453705450
    Two-Electron Energy =                  67.9908432517462273
    DFT Exchange-Correlation Energy =     -11.7559595414871652
    Empirical Dispersion Energy =           0.0000000000000000
    VV10 Nonlocal Energy =                  0.0000000000000000
    Total Energy =                       -129.1211190100355282

  UHF NO Occupations:
  HONO-2 :    1 B2 2.0000000
  HONO-1 :    4 A1 2.0000000
  HONO-0 :    5 A1 2.0000000
  LUNO+0 :    2 B2 0.0000000
  LUNO+1 :    6 A1 0.0000000
  LUNO+2 :    7 A1 0.0000000
  LUNO+3 :    8 A1 0.0000000


Computation Completed


Properties will be evaluated at   0.000000,   0.000000,   0.000000 [a0]

Properties computed using the B3LYP density matrix


 Multipole Moments:

 ------------------------------------------------------------------------------------
     Multipole            Electronic (a.u.)      Nuclear  (a.u.)        Total (a.u.)
 ------------------------------------------------------------------------------------

 L = 1.  Multiply by 2.5417464519 to convert [e a0] to [Debye]
 Dipole X            :          0.0000000            0.0000000            0.0000000
 Dipole Y            :          0.0000000            0.0000000            0.0000000
 Dipole Z            :          0.8103816           -0.0077394            0.8026422
 Magnitude           :                                                    0.8026422

 L = 2.  Multiply by 1.3450342976 to convert [e a0^2] to [Debye ang]
 Quadrupole XX       :         -6.5922736            0.0000000           -6.5922736
 Quadrupole XY       :          0.0000000            0.0000000            0.0000000
 Quadrupole XZ       :          0.0000000            0.0000000            0.0000000
 Quadrupole YY       :         -6.5922736            0.0000000           -6.5922736
 Quadrupole YZ       :          0.0000000            0.0000000            0.0000000
 Quadrupole ZZ       :        -57.1528173           55.5453593           -1.6074580
 Traceless XX        :         16.8535146          -18.5151198           -1.6616052
 Traceless YY        :         16.8535146          -18.5151198           -1.6616052
 Traceless ZZ        :        -33.7070292           37.0302395            3.3232104

 ------------------------------------------------------------------------------------
  ==> Computing MBIS Charges <==

  Electron Count from Grid (Expected Number): 14.00000 (14.00000)
  Difference:  0.00000

  MBIS Charges: (a.u.)
   Center  Symbol  Z      Pop.       Charge
      1       O    8    7.696453    0.303547
      2       N    7    6.303549    0.696451

  MBIS Dipoles: [e a0]
   Center  Symbol  Z        X           Y           Z
      1       O    8   -0.000000   -0.000000   -0.223089
      2       N    7    0.000000    0.000000    0.139915

  MBIS Quadrupoles: [e a0^2]
   Center  Symbol  Z      XX        XY        XZ        YY        YZ        ZZ
      1       O    8   -3.4898    0.0000    0.0000   -3.4898    0.0000   -3.4641
      2       N    7   -3.1024    0.0000    0.0000   -3.1024    0.0000   -3.4523

  MBIS Octupoles: [e a0^3]
   Center  Symbol  Z      XXX       XXY       XXZ       XYY       XYZ       XZZ       YYY       YYZ       YZZ       ZZZ
      1       O    8    0.0000   -0.0000   -0.2654   -0.0000   -0.0000   -0.0000   -0.0000   -0.2654   -0.0000   -0.8256
      2       N    7    0.0000    0.0000    0.2724   -0.0000    0.0000    0.0000   -0.0000    0.2724    0.0000    0.6783

  MBIS Radial Moments:
   Center  Symbol  Z      [a0^2]      [a0^3]      [a0^4]      
      1       O    8   10.443749   19.362393   43.057485
      2       N    7    9.657169   19.270802   46.038984

  MBIS Valence Widths: [a0]
   Center  Symbol  Z     Width
      1       O    8    0.380233
      2       N    7    0.418847


  MBIS Valence Charges: (a.u.)
   Center  Symbol  Z     Charge
      1       O    8   -6.065095
      2       N    7   -4.665372

*** tstop() called on cics-quant-001 at Tue Dec 23 13:47:32 2025
Module time:
	user time   =       1.10 seconds =       0.02 minutes
	system time =       0.03 seconds =       0.00 minutes
	total time  =          0 seconds =       0.00 minutes
Total time:
	user time   =       2.39 seconds =       0.04 minutes
	system time =       0.08 seconds =       0.00 minutes
	total time  =          1 seconds =       0.02 minutes

    Psi4 stopped on: Tuesday, 23 December 2025 01:47PM
    Psi4 wall time for execution: 0:00:00.80

*** Psi4 exiting successfully. Buy a developer a beer!
