
    -----------------------------------------------------------------------
          Psi4: An Open-Source Ab Initio Electronic Structure Package
                               Psi4 1.10 release

                         Git: Rev {} zzzzzzz 


    D. G. A. Smith, L. A. Burns, A. C. Simmonett, R. M. Parrish,
    M. C. Schieber, R. Galvelis, P. Kraus, H. Kruse, R. Di Remigio,
    A. Alenaizan, A. M. James, S. Lehtola, J. P. Misiewicz, M. Scheurer,
    R. A. Shaw, J. B. Schriber, Y. Xie, Z. L. Glick, D. A. Sirianni,
    J. S. O'Brien, J. M. Waldrop, A. Kumar, E. G. Hohenstein,
    B. P. Pritchard, B. R. Brooks, H. F. Schaefer III, A. Yu. Sokolov,
    K. Patkowski, A. E. DePrince III, U. Bozkaya, R. A. King,
    F. A. Evangelista, J. M. Turney, T. D. Crawford, C. D. Sherrill,
    J. Chem. Phys. 152(18) 184108 (2020). https://doi.org/10.1063/5.0006002

                            Additional Code Authors
    E. T. Seidl, C. L. Janssen, E. F. Valeev, M. L. Leininger,
    J. F. Gonthier, R. M. Richard, H. R. McAlexander, M. Saitow, X. Wang,
    P. Verma, M. H. Lechner, A. Jiang, S. Behnle, A. G. Heide,
    M. F. Herbst, D. L. Poole, T. Győri, E. C. Mitchell, J. P. Pederson,
    and A. M. Wallace

             Previous Authors, Complete List of Code Contributors,
                       and Citations for Specific Modules
    https://github.com/psi4/psi4/blob/master/codemeta.json
    https://github.com/psi4/psi4/graphs/contributors
    https://psicode.org/psi4manual/master/introduction.html#citing-psifour

    -----------------------------------------------------------------------


    Psi4 started on: Tuesday, 23 December 2025 01:38PM

    Process ID: 502660
    Host:       cics-quant-001
    PSIDATADIR: /home/jrodriguesro/psi4conda/share/psi4
    Memory:     500.0 MiB
    Threads:    5
    Addons:     adcc, a̶m̶b̶i̶t̶, b̶s̶e̶, c̶c̶t̶3̶, c̶f̶o̶u̶r̶, c̶h̶e̶m̶p̶s̶2̶, c̶p̶p̶e̶, ddx, dftd3, dftd4,
                dkh, ecpint, einsums, f̶o̶r̶t̶e̶, g̶a̶u̶x̶c̶, gcp, g̶d̶m̶a̶, geometric,
                g̶p̶u̶_̶d̶f̶c̶c̶, i̶n̶t̶e̶g̶r̶a̶t̶o̶r̶x̶x̶, i̶p̶i̶, libefp, m̶d̶i̶, m̶p̶2̶d̶,
                m̶r̶c̶c̶, ooo, o̶p̶e̶n̶f̶e̶r̶m̶i̶o̶n̶p̶s̶i̶4̶, pcmsolver, p̶s̶i̶4̶f̶o̶c̶k̶c̶i̶,
                p̶s̶i̶x̶a̶s̶, r̶e̶s̶p̶, s̶i̶m̶i̶n̶t̶, s̶n̶s̶m̶p̶2̶, v̶2̶r̶d̶m̶_̶c̶a̶s̶s̶c̶f̶

  ==> Input File <==

--------------------------------------------------------------------------
molecule { 
1 2
N           0.000000           0.000000           0.000000
N           0.000000           0.000000           0.868037
}

set { 
basis              cc-pvtz
reference          uks
maxiter            500
DAMPING_PERCENTAGE 1
E_CONVERGENCE      1.0E-8
D_CONVERGENCE      1.0E-8
DIIS_MAX_VECS      400
MBIS_MAXITER       8000
guess              read
}

E, wfn = energy('b3lyp', restart_file='last_wfn', return_wfn=True)
properties('b3lyp','MBIS_CHARGES', wfn=wfn)
wfn.to_file('last_wfn')
--------------------------------------------------------------------------

Scratch directory: /tmp/
 Found user provided orbital data. Setting orbital guess to READ 
 Copying restart file <last_wfn.npy> to </tmp/scan_NN_15.default.502660.180.npy> for internal processing
   => Libint2 <=

    Primary   basis highest AM E, G, H:  6, 6, 3
    Auxiliary basis highest AM E, G, H:  7, 7, 4
    Onebody   basis highest AM E, G, H:  -, -, -
    Solid Harmonics ordering:            Gaussian

*** tstart() called on cics-quant-001
*** at Tue Dec 23 13:38:43 2025

   => Loading Basis Set <=

    Name: CC-PVTZ
    Role: ORBITAL
    Keyword: BASIS
    atoms 1-2 entry N          line   224 file /home/jrodriguesro/psi4conda/share/psi4/basis/cc-pvtz.gbs 


         ---------------------------------------------------------
                                   SCF
               by Justin Turney, Rob Parrish, Andy Simmonett
                          and Daniel G. A. Smith
                              UKS Reference
                        5 Threads,    500 MiB Core
         ---------------------------------------------------------

  ==> Geometry <==

    Molecular point group: d2h
    Full point group: D_inf_h

    Geometry (in Angstrom), charge = 1, multiplicity = 2:

       Center              X                  Y                   Z               Mass       
    ------------   -----------------  -----------------  -----------------  -----------------
         N            0.000000000000     0.000000000000    -0.434018500000    14.003074004430
         N            0.000000000000     0.000000000000     0.434018500000    14.003074004430

  Running in d2h symmetry.

  Rotational constants: A = ************  B =      3.19541  C =      3.19541 [cm^-1]
  Rotational constants: A = ************  B =  95795.99140  C =  95795.99140 [MHz]
  Nuclear repulsion =   29.871633723942651

  Charge       = 1
  Multiplicity = 2
  Electrons    = 13
  Nalpha       = 7
  Nbeta        = 6

  ==> Algorithm <==

  SCF Algorithm Type is DF.
  DIIS enabled.
  MOM disabled.
  Fractional occupation disabled.
  Guess Type is READ.
  Energy threshold   = 1.00e-08
  Density threshold  = 1.00e-08
  Integral threshold = 1.00e-12

  ==> Primary Basis <==

  Basis Set: CC-PVTZ
    Blend: CC-PVTZ
    Number of shells: 20
    Number of basis functions: 60
    Number of Cartesian functions: 70
    Spherical Harmonics?: true
    Max angular momentum: 3

  ==> DFT Potential <==

   => LibXC <=

    Version 7.0.0
    S. Lehtola, C. Steigemann, M. J.T. Oliveira, and M. A.L. Marques.,  SoftwareX 7, 1–5 (2018) (10.1016/j.softx.2017.11.002)

   => Composite Functional: B3LYP <= 

    B3LYP Hyb-GGA Exchange-Correlation Functional

    P. J. Stephens, F. J. Devlin, C. F. Chabalowski, and M. J. Frisch.,  J. Phys. Chem. 98, 11623 (1994) (10.1021/j100096a001)

    Deriv               =              1
    GGA                 =           TRUE
    Meta                =          FALSE

    Exchange Hybrid     =           TRUE
    MP2 Hybrid          =          FALSE

   => Exchange Functionals <=

    0.0800   Slater exchange
    0.7200         Becke 88

   => Exact (HF) Exchange <=

    0.2000               HF 

   => Correlation Functionals <=

    0.1900   Vosko, Wilk & Nusair (VWN5_RPA)
    0.8100   Lee, Yang & Parr

   => LibXC Density Thresholds  <==

    XC_HYB_GGA_XC_B3LYP:  1.00E-15 

   => Molecular Quadrature <=

    Radial Scheme          =       TREUTLER
    Pruning Scheme         =           NONE
    Nuclear Scheme         =       TREUTLER

    Blocking Scheme        =         OCTREE
    BS radius alpha        =              1
    Pruning alpha          =              1
    Radial Points          =             75
    Spherical Points       =            302
    Total Points           =          42396
    Total Blocks           =            380
    Max Points             =            253
    Max Functions          =             60
    Weights Tolerance      =       1.00E-15

   => Loading Basis Set <=

    Name: (CC-PVTZ AUX)
    Role: JKFIT
    Keyword: DF_BASIS_SCF
    atoms 1-2 entry N          line   177 file /home/jrodriguesro/psi4conda/share/psi4/basis/cc-pvtz-jkfit.gbs 

   => Loading Basis Set <=

    Name: CC-PVTZ
    Role: ORBITAL
    Keyword: BASIS
    atoms 1-2 entry N          line   224 file /home/jrodriguesro/psi4conda/share/psi4/basis/cc-pvtz.gbs 

  Reading orbitals from file /tmp/scan_NN_15.default.502660.180.npy, no projection.

  ==> Integral Setup <==

  DFHelper Memory: AOs need 0.005 GiB; user supplied 0.295 GiB. 
  SCF_SUBTYPE=INCORE selected. In-core MEM_DF algorithm will be used.
  Using in-core AOs.

  ==> MemDFJK: Density-Fitted J/K Matrices <==

    J tasked:                   Yes
    K tasked:                   Yes
    wK tasked:                   No
    OpenMP threads:               5
    Memory [MiB]:               301
    Algorithm:                 Core
    Schwarz Cutoff:           1E-12
    Mask sparsity (%):       0.0000
    Fitting Condition:        1E-10

   => Auxiliary Basis Set <=

  Basis Set: (CC-PVTZ AUX)
    Blend: CC-PVTZ-JKFIT
    Number of shells: 50
    Number of basis functions: 158
    Number of Cartesian functions: 192
    Spherical Harmonics?: true
    Max angular momentum: 4

  Cached 100.0% of DFT collocation blocks in 0.071 [GiB].

  Minimum eigenvalue in the overlap matrix is 1.2305128050E-03.
  Reciprocal condition number of the overlap matrix is 3.1060741076E-04.
    Using symmetric orthogonalization.

  ==> Pre-Iterations <==

  SCF Guess: Orbitals guess was supplied from a previous computation.

   -------------------------------------------------------
    Irrep   Nso     Nmo     Nalpha   Nbeta   Ndocc  Nsocc
   -------------------------------------------------------
     Ag        13      13       3       2       2       1
     B1g        3       3       0       0       0       0
     B2g        7       7       0       0       0       0
     B3g        7       7       0       0       0       0
     Au         3       3       0       0       0       0
     B1u       13      13       2       2       2       0
     B2u        7       7       1       1       1       0
     B3u        7       7       1       1       1       0
   -------------------------------------------------------
    Total      60      60       7       6       6       1
   -------------------------------------------------------

  ==> Iterations <==

                           Total Energy        Delta E     RMS |[F,P]|

   @DF-UKS iter   0:  -108.75348467678032   -1.08753e+02   1.21871e-02 
   @DF-UKS iter   1:  -108.72011696726790    3.33677e-02   7.09726e-04 ADIIS/DIIS
   @DF-UKS iter   2:  -108.72019317077631   -7.62035e-05   2.47456e-04 ADIIS/DIIS/DAMP=1%
   @DF-UKS iter   3:  -108.72035297298049   -1.59802e-04   6.63791e-05 DIIS/DAMP=1%
   @DF-UKS iter   4:  -108.72016547558793    1.87497e-04   6.35877e-06 DIIS/DAMP=1%
   @DF-UKS iter   5:  -108.72020686956665   -4.13940e-05   5.48727e-07 DIIS/DAMP=1%
   @DF-UKS iter   6:  -108.72020308168837    3.78788e-06   4.23040e-08 DIIS/DAMP=1%
   @DF-UKS iter   7:  -108.72020327965423   -1.97966e-07   1.95542e-09 DIIS/DAMP=1%
   @DF-UKS iter   8:  -108.72020328790056   -8.24633e-09   2.08294e-10 DIIS/DAMP=1%
  Energy and wave function converged.


  ==> Post-Iterations <==

   Electrons on quadrature grid:
      Nalpha   =    6.9999999668 ; deviation = -3.321e-08
      Nbeta    =    5.9999999634 ; deviation = -3.657e-08
      Ntotal   =   12.9999999302 ; deviation = -6.978e-08 

   @Spin Contamination Metric:   2.222924701E-03
   @S^2 Expected:                7.500000000E-01
   @S^2 Observed:                7.522229247E-01
   @S   Expected:                5.000000000E-01
   @S   Observed:                5.000000000E-01

    Orbital Energies [Eh]
    ---------------------

    Alpha Occupied:                                                       

       1Ag   -14.878712     1B1u  -14.862739     2Ag    -1.727486  
       1B2u   -1.010839     1B3u   -1.010839     2B1u   -0.964191  
       3Ag    -0.933274  

    Alpha Virtual:                                                        

       1B3g   -0.319212     1B2g   -0.319212     3B1u    0.020591  
       2B2u    0.036245     2B3u    0.036245     4Ag     0.077837  
       5Ag     0.134590     2B2g    0.248990     2B3g    0.248990  
       6Ag     0.444576     1B1g    0.444576     4B1u    0.465927  
       5B1u    0.819216     3B2u    0.840970     3B3u    0.840970  
       6B1u    0.975289     1Au     0.975289     7Ag     1.213924  
       3B3g    1.324568     3B2g    1.324568     7B1u    2.095381  
       4B2u    2.223354     4B3u    2.223354     8Ag     2.681799  
       4B3g    2.892662     4B2g    2.892662     8B1u    2.949571  
       5B3u    3.069486     5B2u    3.069486     9Ag     3.119971  
       2B1g    3.119972     6B2u    3.390760     6B3u    3.390760  
      10Ag     3.668074     5B3g    3.843515     5B2g    3.843515  
       6B2g    3.862658     6B3g    3.862658    11Ag     3.967517  
       3B1g    3.967518     9B1u    3.998268     2Au     3.998269  
      12Ag     4.355845    10B1u    4.669895     7B2u    4.902713  
       7B3u    4.902713    11B1u    5.096749     3Au     5.096749  
      12B1u    6.191074     7B3g    6.950706     7B2g    6.950706  
      13Ag     7.846177    13B1u   24.000191  

    Beta Occupied:                                                        

       1Ag   -14.864402     1B1u  -14.849218     2Ag    -1.695861  
       1B2u   -0.996307     1B3u   -0.996307     2B1u   -0.868122  

    Beta Virtual:                                                         

       3Ag    -0.752581     1B3g   -0.292293     1B2g   -0.292293  
       3B1u    0.033031     2B2u    0.040940     2B3u    0.040940  
       4Ag     0.094408     5Ag     0.164403     2B2g    0.256727  
       2B3g    0.256727     6Ag     0.450682     1B1g    0.450682  
       4B1u    0.495712     5B1u    0.845660     3B2u    0.873434  
       3B3u    0.873434     6B1u    0.988600     1Au     0.988600  
       7Ag     1.251842     3B3g    1.346041     3B2g    1.346041  
       7B1u    2.146504     4B2u    2.234195     4B3u    2.234195  
       8Ag     2.712082     4B3g    2.903901     4B2g    2.903901  
       8B1u    2.988853     5B3u    3.075895     5B2u    3.075895  
       9Ag     3.128655     2B1g    3.128656     6B2u    3.436523  
       6B3u    3.436523    10Ag     3.748859     5B2g    3.874203  
       5B3g    3.874203     6B3g    3.902423     6B2g    3.902423  
      11Ag     3.995758     3B1g    3.995759     9B1u    4.026765  
       2Au     4.026766    12Ag     4.395840    10B1u    4.724380  
       7B2u    4.949755     7B3u    4.949755    11B1u    5.114159  
       3Au     5.114160    12B1u    6.248993     7B3g    6.988043  
       7B2g    6.988043    13Ag     7.872587    13B1u   24.022132  

    Final Occupation by Irrep:
             Ag   B1g   B2g   B3g    Au   B1u   B2u   B3u 
    DOCC [     2,    0,    0,    0,    0,    2,    1,    1 ]
    SOCC [     1,    0,    0,    0,    0,    0,    0,    0 ]
    NA   [     3,    0,    0,    0,    0,    2,    1,    1 ]
    NB   [     2,    0,    0,    0,    0,    2,    1,    1 ]

  @DF-UKS Final Energy:  -108.72020328790056

   => Energetics <=

    Nuclear Repulsion Energy =             29.8716337239426508
    One-Electron Energy =                -199.5829787873649650
    Two-Electron Energy =                  72.0396164535113712
    DFT Exchange-Correlation Energy =     -11.0484746779896312
    Empirical Dispersion Energy =           0.0000000000000000
    VV10 Nonlocal Energy =                  0.0000000000000000
    Total Energy =                       -108.7202032879005600

  UHF NO Occupations:
  HONO-2 :    2 Ag 1.9999196
  HONO-1 :    2B1u 1.9990896
  HONO-0 :    3 Ag 1.0000000
  LUNO+0 :    3B1u 0.0009104
  LUNO+1 :    4 Ag 0.0000804
  LUNO+2 :    2B3u 0.0000603
  LUNO+3 :    2B2u 0.0000603


Computation Completed


Properties will be evaluated at   0.000000,   0.000000,   0.000000 [a0]

Properties computed using the SCF density matrix


 Multipole Moments:

 ------------------------------------------------------------------------------------
     Multipole            Electronic (a.u.)      Nuclear  (a.u.)        Total (a.u.)
 ------------------------------------------------------------------------------------

 L = 1.  Multiply by 2.5417464519 to convert [e a0] to [Debye]
 Dipole X            :          0.0000000            0.0000000            0.0000000
 Dipole Y            :          0.0000000            0.0000000            0.0000000
 Dipole Z            :          0.0000000            0.0000000            0.0000000
 Magnitude           :                                                    0.0000000

 ------------------------------------------------------------------------------------

*** tstop() called on cics-quant-001 at Tue Dec 23 13:38:43 2025
Module time:
	user time   =       0.99 seconds =       0.02 minutes
	system time =       0.06 seconds =       0.00 minutes
	total time  =          0 seconds =       0.00 minutes
Total time:
	user time   =       0.99 seconds =       0.02 minutes
	system time =       0.06 seconds =       0.00 minutes
	total time  =          0 seconds =       0.00 minutes

*** tstart() called on cics-quant-001
*** at Tue Dec 23 13:38:43 2025

   => Libint2 <=

    Primary   basis highest AM E, G, H:  6, 6, 3
    Auxiliary basis highest AM E, G, H:  7, 7, 4
    Onebody   basis highest AM E, G, H:  -, -, -
    Solid Harmonics ordering:            Gaussian
   => Loading Basis Set <=

    Name: CC-PVTZ
    Role: ORBITAL
    Keyword: BASIS
    atoms 1-2 entry N          line   224 file /home/jrodriguesro/psi4conda/share/psi4/basis/cc-pvtz.gbs 


         ---------------------------------------------------------
                                   SCF
               by Justin Turney, Rob Parrish, Andy Simmonett
                          and Daniel G. A. Smith
                              UKS Reference
                        5 Threads,    500 MiB Core
         ---------------------------------------------------------

  ==> Geometry <==

    Molecular point group: d2h
    Full point group: D_inf_h

    Geometry (in Angstrom), charge = 1, multiplicity = 2:

       Center              X                  Y                   Z               Mass       
    ------------   -----------------  -----------------  -----------------  -----------------
         N            0.000000000000     0.000000000000    -0.434018500000    14.003074004430
         N            0.000000000000     0.000000000000     0.434018500000    14.003074004430

  Running in d2h symmetry.

  Rotational constants: A = ************  B =      3.19541  C =      3.19541 [cm^-1]
  Rotational constants: A = ************  B =  95795.99140  C =  95795.99140 [MHz]
  Nuclear repulsion =   29.871633723942651

  Charge       = 1
  Multiplicity = 2
  Electrons    = 13
  Nalpha       = 7
  Nbeta        = 6

  ==> Algorithm <==

  SCF Algorithm Type is DF.
  DIIS enabled.
  MOM disabled.
  Fractional occupation disabled.
  Guess Type is READ.
  Energy threshold   = 1.00e-08
  Density threshold  = 1.00e-08
  Integral threshold = 1.00e-12

  ==> Primary Basis <==

  Basis Set: CC-PVTZ
    Blend: CC-PVTZ
    Number of shells: 20
    Number of basis functions: 60
    Number of Cartesian functions: 70
    Spherical Harmonics?: true
    Max angular momentum: 3

  ==> DFT Potential <==

   => LibXC <=

    Version 7.0.0
    S. Lehtola, C. Steigemann, M. J.T. Oliveira, and M. A.L. Marques.,  SoftwareX 7, 1–5 (2018) (10.1016/j.softx.2017.11.002)

   => Composite Functional: B3LYP <= 

    B3LYP Hyb-GGA Exchange-Correlation Functional

    P. J. Stephens, F. J. Devlin, C. F. Chabalowski, and M. J. Frisch.,  J. Phys. Chem. 98, 11623 (1994) (10.1021/j100096a001)

    Deriv               =              1
    GGA                 =           TRUE
    Meta                =          FALSE

    Exchange Hybrid     =           TRUE
    MP2 Hybrid          =          FALSE

   => Exchange Functionals <=

    0.0800   Slater exchange
    0.7200         Becke 88

   => Exact (HF) Exchange <=

    0.2000               HF 

   => Correlation Functionals <=

    0.1900   Vosko, Wilk & Nusair (VWN5_RPA)
    0.8100   Lee, Yang & Parr

   => LibXC Density Thresholds  <==

    XC_HYB_GGA_XC_B3LYP:  1.00E-15 

   => Molecular Quadrature <=

    Radial Scheme          =       TREUTLER
    Pruning Scheme         =           NONE
    Nuclear Scheme         =       TREUTLER

    Blocking Scheme        =         OCTREE
    BS radius alpha        =              1
    Pruning alpha          =              1
    Radial Points          =             75
    Spherical Points       =            302
    Total Points           =          42396
    Total Blocks           =            380
    Max Points             =            253
    Max Functions          =             60
    Weights Tolerance      =       1.00E-15

   => Loading Basis Set <=

    Name: (CC-PVTZ AUX)
    Role: JKFIT
    Keyword: DF_BASIS_SCF
    atoms 1-2 entry N          line   177 file /home/jrodriguesro/psi4conda/share/psi4/basis/cc-pvtz-jkfit.gbs 

   => Loading Basis Set <=

    Name: CC-PVTZ
    Role: ORBITAL
    Keyword: BASIS
    atoms 1-2 entry N          line   224 file /home/jrodriguesro/psi4conda/share/psi4/basis/cc-pvtz.gbs 

  Reading orbitals from file /tmp/scan_NN_15.default.502660.180.npy, no projection.

  ==> Integral Setup <==

  DFHelper Memory: AOs need 0.005 GiB; user supplied 0.295 GiB. 
  SCF_SUBTYPE=INCORE selected. In-core MEM_DF algorithm will be used.
  Using in-core AOs.

  ==> MemDFJK: Density-Fitted J/K Matrices <==

    J tasked:                   Yes
    K tasked:                   Yes
    wK tasked:                   No
    OpenMP threads:               5
    Memory [MiB]:               301
    Algorithm:                 Core
    Schwarz Cutoff:           1E-12
    Mask sparsity (%):       0.0000
    Fitting Condition:        1E-10

   => Auxiliary Basis Set <=

  Basis Set: (CC-PVTZ AUX)
    Blend: CC-PVTZ-JKFIT
    Number of shells: 50
    Number of basis functions: 158
    Number of Cartesian functions: 192
    Spherical Harmonics?: true
    Max angular momentum: 4

  Cached 100.0% of DFT collocation blocks in 0.071 [GiB].

  Minimum eigenvalue in the overlap matrix is 1.2305128050E-03.
  Reciprocal condition number of the overlap matrix is 3.1060741076E-04.
    Using symmetric orthogonalization.

  ==> Pre-Iterations <==

  SCF Guess: Orbitals guess was supplied from a previous computation.

   -------------------------------------------------------
    Irrep   Nso     Nmo     Nalpha   Nbeta   Ndocc  Nsocc
   -------------------------------------------------------
     Ag        13      13       3       2       2       1
     B1g        3       3       0       0       0       0
     B2g        7       7       0       0       0       0
     B3g        7       7       0       0       0       0
     Au         3       3       0       0       0       0
     B1u       13      13       2       2       2       0
     B2u        7       7       1       1       1       0
     B3u        7       7       1       1       1       0
   -------------------------------------------------------
    Total      60      60       7       6       6       1
   -------------------------------------------------------

  ==> Iterations <==

                           Total Energy        Delta E     RMS |[F,P]|

   @DF-UKS iter   0:  -108.72020328813852   -1.08720e+02   2.91651e-11 
   @DF-UKS iter   1:  -108.72020328813855   -2.84217e-14   1.42751e-11 DIIS
  Energy and wave function converged.


  ==> Post-Iterations <==

   Electrons on quadrature grid:
      Nalpha   =    6.9999999668 ; deviation = -3.321e-08
      Nbeta    =    5.9999999634 ; deviation = -3.657e-08
      Ntotal   =   12.9999999302 ; deviation = -6.978e-08 

   @Spin Contamination Metric:   2.222924701E-03
   @S^2 Expected:                7.500000000E-01
   @S^2 Observed:                7.522229247E-01
   @S   Expected:                5.000000000E-01
   @S   Observed:                5.000000000E-01

    Orbital Energies [Eh]
    ---------------------

    Alpha Occupied:                                                       

       1Ag   -14.878712     1B1u  -14.862739     2Ag    -1.727486  
       1B2u   -1.010839     1B3u   -1.010839     2B1u   -0.964191  
       3Ag    -0.933274  

    Alpha Virtual:                                                        

       1B3g   -0.319212     1B2g   -0.319212     3B1u    0.020591  
       2B2u    0.036245     2B3u    0.036245     4Ag     0.077837  
       5Ag     0.134590     2B2g    0.248990     2B3g    0.248990  
       6Ag     0.444576     1B1g    0.444576     4B1u    0.465927  
       5B1u    0.819216     3B2u    0.840970     3B3u    0.840970  
       6B1u    0.975289     1Au     0.975289     7Ag     1.213924  
       3B3g    1.324568     3B2g    1.324568     7B1u    2.095381  
       4B2u    2.223354     4B3u    2.223354     8Ag     2.681799  
       4B3g    2.892662     4B2g    2.892662     8B1u    2.949571  
       5B3u    3.069486     5B2u    3.069486     9Ag     3.119971  
       2B1g    3.119972     6B2u    3.390760     6B3u    3.390760  
      10Ag     3.668074     5B3g    3.843515     5B2g    3.843515  
       6B2g    3.862658     6B3g    3.862658    11Ag     3.967517  
       3B1g    3.967518     9B1u    3.998268     2Au     3.998269  
      12Ag     4.355845    10B1u    4.669895     7B2u    4.902713  
       7B3u    4.902713    11B1u    5.096749     3Au     5.096749  
      12B1u    6.191074     7B3g    6.950706     7B2g    6.950706  
      13Ag     7.846177    13B1u   24.000191  

    Beta Occupied:                                                        

       1Ag   -14.864402     1B1u  -14.849218     2Ag    -1.695861  
       1B2u   -0.996307     1B3u   -0.996307     2B1u   -0.868122  

    Beta Virtual:                                                         

       3Ag    -0.752581     1B3g   -0.292293     1B2g   -0.292293  
       3B1u    0.033031     2B2u    0.040940     2B3u    0.040940  
       4Ag     0.094408     5Ag     0.164403     2B2g    0.256727  
       2B3g    0.256727     6Ag     0.450682     1B1g    0.450682  
       4B1u    0.495712     5B1u    0.845660     3B2u    0.873434  
       3B3u    0.873434     6B1u    0.988600     1Au     0.988600  
       7Ag     1.251842     3B3g    1.346041     3B2g    1.346041  
       7B1u    2.146504     4B2u    2.234195     4B3u    2.234195  
       8Ag     2.712082     4B3g    2.903901     4B2g    2.903901  
       8B1u    2.988853     5B3u    3.075895     5B2u    3.075895  
       9Ag     3.128655     2B1g    3.128656     6B2u    3.436523  
       6B3u    3.436523    10Ag     3.748859     5B2g    3.874203  
       5B3g    3.874203     6B3g    3.902423     6B2g    3.902423  
      11Ag     3.995758     3B1g    3.995759     9B1u    4.026765  
       2Au     4.026766    12Ag     4.395840    10B1u    4.724380  
       7B2u    4.949755     7B3u    4.949755    11B1u    5.114159  
       3Au     5.114160    12B1u    6.248993     7B3g    6.988043  
       7B2g    6.988043    13Ag     7.872587    13B1u   24.022132  

    Final Occupation by Irrep:
             Ag   B1g   B2g   B3g    Au   B1u   B2u   B3u 
    DOCC [     2,    0,    0,    0,    0,    2,    1,    1 ]
    SOCC [     1,    0,    0,    0,    0,    0,    0,    0 ]
    NA   [     3,    0,    0,    0,    0,    2,    1,    1 ]
    NB   [     2,    0,    0,    0,    0,    2,    1,    1 ]

  @DF-UKS Final Energy:  -108.72020328813855

   => Energetics <=

    Nuclear Repulsion Energy =             29.8716337239426508
    One-Electron Energy =                -199.5829787924673724
    Two-Electron Energy =                  72.0396164587316576
    DFT Exchange-Correlation Energy =     -11.0484746783454746
    Empirical Dispersion Energy =           0.0000000000000000
    VV10 Nonlocal Energy =                  0.0000000000000000
    Total Energy =                       -108.7202032881385492

  UHF NO Occupations:
  HONO-2 :    2 Ag 1.9999196
  HONO-1 :    2B1u 1.9990896
  HONO-0 :    3 Ag 1.0000000
  LUNO+0 :    3B1u 0.0009104
  LUNO+1 :    4 Ag 0.0000804
  LUNO+2 :    2B3u 0.0000603
  LUNO+3 :    2B2u 0.0000603


Computation Completed


Properties will be evaluated at   0.000000,   0.000000,   0.000000 [a0]

Properties computed using the B3LYP density matrix


 Multipole Moments:

 ------------------------------------------------------------------------------------
     Multipole            Electronic (a.u.)      Nuclear  (a.u.)        Total (a.u.)
 ------------------------------------------------------------------------------------

 L = 1.  Multiply by 2.5417464519 to convert [e a0] to [Debye]
 Dipole X            :          0.0000000            0.0000000            0.0000000
 Dipole Y            :          0.0000000            0.0000000            0.0000000
 Dipole Z            :          0.0000000            0.0000000            0.0000000
 Magnitude           :                                                    0.0000000

 L = 2.  Multiply by 1.3450342976 to convert [e a0^2] to [Debye ang]
 Quadrupole XX       :         -5.5800429            0.0000000           -5.5800429
 Quadrupole XY       :          0.0000000            0.0000000            0.0000000
 Quadrupole XZ       :          0.0000000            0.0000000            0.0000000
 Quadrupole YY       :         -5.5800429            0.0000000           -5.5800429
 Quadrupole YZ       :          0.0000000            0.0000000            0.0000000
 Quadrupole ZZ       :        -14.3237335            9.4176437           -4.9060899
 Traceless XX        :          2.9145635           -3.1392146           -0.2246510
 Traceless YY        :          2.9145635           -3.1392146           -0.2246510
 Traceless ZZ        :         -5.8291271            6.2784291            0.4493020

 ------------------------------------------------------------------------------------
  ==> Computing MBIS Charges <==

  Electron Count from Grid (Expected Number): 13.00000 (13.00000)
  Difference: -0.00000

  MBIS Charges: (a.u.)
   Center  Symbol  Z      Pop.       Charge
      1       N    7    6.500000    0.500000
      2       N    7    6.500000    0.500000

  MBIS Dipoles: [e a0]
   Center  Symbol  Z        X           Y           Z
      1       N    7   -0.000000    0.000000   -0.147976
      2       N    7    0.000000    0.000000    0.147976

  MBIS Quadrupoles: [e a0^2]
   Center  Symbol  Z      XX        XY        XZ        YY        YZ        ZZ
      1       N    7   -2.7900   -0.0000    0.0000   -2.7900    0.0000   -3.0321
      2       N    7   -2.7900   -0.0000   -0.0000   -2.7900   -0.0000   -3.0321

  MBIS Octupoles: [e a0^3]
   Center  Symbol  Z      XXX       XXY       XXZ       XYY       XYZ       XZZ       YYY       YYZ       YZZ       ZZZ
      1       N    7    0.0000    0.0000   -0.0561   -0.0000    0.0000    0.0000   -0.0000   -0.0561    0.0000   -0.0407
      2       N    7    0.0000    0.0000    0.0561   -0.0000   -0.0000    0.0000   -0.0000    0.0561   -0.0000    0.0407

  MBIS Radial Moments:
   Center  Symbol  Z      [a0^2]      [a0^3]      [a0^4]      
      1       N    7    8.612166   15.691589   34.211904
      2       N    7    8.612166   15.691589   34.211904

  MBIS Valence Widths: [a0]
   Center  Symbol  Z     Width
      1       N    7    0.384897
      2       N    7    0.384897


  MBIS Valence Charges: (a.u.)
   Center  Symbol  Z     Charge
      1       N    7   -4.941211
      2       N    7   -4.941211

*** tstop() called on cics-quant-001 at Tue Dec 23 13:38:43 2025
Module time:
	user time   =       0.57 seconds =       0.01 minutes
	system time =       0.04 seconds =       0.00 minutes
	total time  =          0 seconds =       0.00 minutes
Total time:
	user time   =       1.58 seconds =       0.03 minutes
	system time =       0.10 seconds =       0.00 minutes
	total time  =          0 seconds =       0.00 minutes

    Psi4 stopped on: Tuesday, 23 December 2025 01:38PM
    Psi4 wall time for execution: 0:00:00.69

*** Psi4 exiting successfully. Buy a developer a beer!
