
    -----------------------------------------------------------------------
          Psi4: An Open-Source Ab Initio Electronic Structure Package
                               Psi4 1.9.1 release

                         Git: Rev {} zzzzzzz 


    D. G. A. Smith, L. A. Burns, A. C. Simmonett, R. M. Parrish,
    M. C. Schieber, R. Galvelis, P. Kraus, H. Kruse, R. Di Remigio,
    A. Alenaizan, A. M. James, S. Lehtola, J. P. Misiewicz, M. Scheurer,
    R. A. Shaw, J. B. Schriber, Y. Xie, Z. L. Glick, D. A. Sirianni,
    J. S. O'Brien, J. M. Waldrop, A. Kumar, E. G. Hohenstein,
    B. P. Pritchard, B. R. Brooks, H. F. Schaefer III, A. Yu. Sokolov,
    K. Patkowski, A. E. DePrince III, U. Bozkaya, R. A. King,
    F. A. Evangelista, J. M. Turney, T. D. Crawford, C. D. Sherrill,
    J. Chem. Phys. 152(18) 184108 (2020). https://doi.org/10.1063/5.0006002

                            Additional Code Authors
    E. T. Seidl, C. L. Janssen, E. F. Valeev, M. L. Leininger,
    J. F. Gonthier, R. M. Richard, H. R. McAlexander, M. Saitow, X. Wang,
    P. Verma, M. H. Lechner, A. Jiang, S. Behnle, A. G. Heide,
    M. F. Herbst, and D. L. Poole

             Previous Authors, Complete List of Code Contributors,
                       and Citations for Specific Modules
    https://github.com/psi4/psi4/blob/master/codemeta.json
    https://github.com/psi4/psi4/graphs/contributors
    http://psicode.org/psi4manual/master/introduction.html#citing-psifour

    -----------------------------------------------------------------------


    Psi4 started on: Wednesday, 27 August 2025 11:27AM

    Process ID: 69712
    Host:       Mac.lan
    PSIDATADIR: /Users/joseantoniorodriguesromero/anaconda3/share/psi4
    Memory:     500.0 MiB
    Threads:    1
    
  ==> Input File <==

--------------------------------------------------------------------------
molecule { 
1 1
O           0.000000           0.000000           0.000000
N           0.000000           0.000000           1.564312
}

set { 
basis              cc-pvtz
reference          uks
maxiter            500
DAMPING_PERCENTAGE 1
E_CONVERGENCE      1.0E-8
D_CONVERGENCE      1.0E-8
DIIS_MAX_VECS      400
MBIS_MAXITER       8000
guess              read
}

E, wfn = energy('b3lyp', restart_file='last_wfn', return_wfn=True)
properties('b3lyp','MBIS_CHARGES', wfn=wfn)
wfn.to_file('last_wfn')
--------------------------------------------------------------------------

Scratch directory: /tmp/
 Found user provided orbital data. Setting orbital guess to READ 
 Copying restart file <last_wfn.npy> to </tmp/scan_NO_35.default.69712.180.npy> for internal processing
   => Libint2 <=

    Primary   basis highest AM E, G, H:  6, 6, 3
    Auxiliary basis highest AM E, G, H:  7, 7, 4
    Onebody   basis highest AM E, G, H:  -, -, -
    Solid Harmonics ordering:            Gaussian

*** tstart() called on Mac.lan
*** at Wed Aug 27 11:27:29 2025

   => Loading Basis Set <=

    Name: CC-PVTZ
    Role: ORBITAL
    Keyword: BASIS
    atoms 1 entry O          line   262 file /Users/joseantoniorodriguesromero/anaconda3/share/psi4/basis/cc-pvtz.gbs 
    atoms 2 entry N          line   224 file /Users/joseantoniorodriguesromero/anaconda3/share/psi4/basis/cc-pvtz.gbs 


         ---------------------------------------------------------
                                   SCF
               by Justin Turney, Rob Parrish, Andy Simmonett
                          and Daniel G. A. Smith
                              UKS Reference
                        1 Threads,    500 MiB Core
         ---------------------------------------------------------

  ==> Geometry <==

    Molecular point group: c2v
    Full point group: C_inf_v

    Geometry (in Angstrom), charge = 1, multiplicity = 1:

       Center              X                  Y                   Z               Mass       
    ------------   -----------------  -----------------  -----------------  -----------------
         O            0.000000000000     0.000000000000    -0.730221515068    15.994914619570
         N            0.000000000000     0.000000000000     0.834090484932    14.003074004430

  Running in c2v symmetry.

  Rotational constants: A = ************  B =      0.92265  C =      0.92265 [cm^-1]
  Rotational constants: A = ************  B =  27660.32455  C =  27660.32455 [MHz]
  Nuclear repulsion =   18.943742551051198

  Charge       = 1
  Multiplicity = 1
  Electrons    = 14
  Nalpha       = 7
  Nbeta        = 7

  ==> Algorithm <==

  SCF Algorithm Type is DF.
  DIIS enabled.
  MOM disabled.
  Fractional occupation disabled.
  Guess Type is READ.
  Energy threshold   = 1.00e-08
  Density threshold  = 1.00e-08
  Integral threshold = 1.00e-12

  ==> Primary Basis <==

  Basis Set: CC-PVTZ
    Blend: CC-PVTZ
    Number of shells: 20
    Number of basis functions: 60
    Number of Cartesian functions: 70
    Spherical Harmonics?: true
    Max angular momentum: 3

  ==> DFT Potential <==

   => LibXC <=

    Version 6.2.2
    S. Lehtola, C. Steigemann, M. J.T. Oliveira, and M. A.L. Marques.,  SoftwareX 7, 1–5 (2018) (10.1016/j.softx.2017.11.002)

   => Composite Functional: B3LYP <= 

    B3LYP Hyb-GGA Exchange-Correlation Functional

    P. J. Stephens, F. J. Devlin, C. F. Chabalowski, and M. J. Frisch.,  J. Phys. Chem. 98, 11623 (1994) (10.1021/j100096a001)

    Deriv               =              1
    GGA                 =           TRUE
    Meta                =          FALSE

    Exchange Hybrid     =           TRUE
    MP2 Hybrid          =          FALSE

   => Exchange Functionals <=

    0.0800   Slater exchange
    0.7200         Becke 88

   => Exact (HF) Exchange <=

    0.2000               HF 

   => Correlation Functionals <=

    0.1900   Vosko, Wilk & Nusair (VWN5_RPA)
    0.8100   Lee, Yang & Parr

   => LibXC Density Thresholds  <==

    XC_HYB_GGA_XC_B3LYP:  1.00E-15 

   => Molecular Quadrature <=

    Radial Scheme          =       TREUTLER
    Pruning Scheme         =           NONE
    Nuclear Scheme         =       TREUTLER

    Blocking Scheme        =         OCTREE
    BS radius alpha        =              1
    Pruning alpha          =              1
    Radial Points          =             75
    Spherical Points       =            302
    Total Points           =          42754
    Total Blocks           =            388
    Max Points             =            256
    Max Functions          =             60
    Weights Tolerance      =       1.00E-15

   => Loading Basis Set <=

    Name: (CC-PVTZ AUX)
    Role: JKFIT
    Keyword: DF_BASIS_SCF
    atoms 1 entry O          line   229 file /Users/joseantoniorodriguesromero/anaconda3/share/psi4/basis/cc-pvtz-jkfit.gbs 
    atoms 2 entry N          line   177 file /Users/joseantoniorodriguesromero/anaconda3/share/psi4/basis/cc-pvtz-jkfit.gbs 

   => Loading Basis Set <=

    Name: CC-PVTZ
    Role: ORBITAL
    Keyword: BASIS
    atoms 1 entry O          line   262 file /Users/joseantoniorodriguesromero/anaconda3/share/psi4/basis/cc-pvtz.gbs 
    atoms 2 entry N          line   224 file /Users/joseantoniorodriguesromero/anaconda3/share/psi4/basis/cc-pvtz.gbs 

  Reading orbitals from file /tmp/scan_NO_35.default.69712.180.npy, no projection.

  ==> Integral Setup <==

  DFHelper Memory: AOs need 0.005 GiB; user supplied 0.296 GiB. 
  Using in-core AOs.

  ==> MemDFJK: Density-Fitted J/K Matrices <==

    J tasked:                   Yes
    K tasked:                   Yes
    wK tasked:                   No
    OpenMP threads:               1
    Memory [MiB]:               303
    Algorithm:                 Core
    Schwarz Cutoff:           1E-12
    Mask sparsity (%):       0.0000
    Fitting Condition:        1E-10

   => Auxiliary Basis Set <=

  Basis Set: (CC-PVTZ AUX)
    Blend: CC-PVTZ-JKFIT
    Number of shells: 50
    Number of basis functions: 158
    Number of Cartesian functions: 192
    Spherical Harmonics?: true
    Max angular momentum: 4

  Cached 100.0% of DFT collocation blocks in 0.070 [GiB].

  Minimum eigenvalue in the overlap matrix is 1.0610963180E-02.
  Reciprocal condition number of the overlap matrix is 3.1046988017E-03.
    Using symmetric orthogonalization.

  ==> Pre-Iterations <==

  SCF Guess: Orbitals guess was supplied from a previous computation.

   -------------------------------------------------------
    Irrep   Nso     Nmo     Nalpha   Nbeta   Ndocc  Nsocc
   -------------------------------------------------------
     A1        26      26       5       5       5       0
     A2         6       6       0       0       0       0
     B1        14      14       1       1       1       0
     B2        14      14       1       1       1       0
   -------------------------------------------------------
    Total      60      60       7       7       7       0
   -------------------------------------------------------

  ==> Iterations <==

                           Total Energy        Delta E     RMS |[F,P]|

   @DF-UKS iter   0:  -129.28217820056457   -1.29282e+02   1.80450e-03 
   @DF-UKS iter   1:  -129.32317283318244   -4.09946e-02   1.41208e-03 ADIIS/DIIS
   @DF-UKS iter   2:  -129.27572709690364    4.74457e-02   1.14635e-02 ADIIS/DIIS/DAMP=1%
   @DF-UKS iter   3:  -129.32153125727538   -4.58042e-02   3.92981e-04 ADIIS/DIIS/DAMP=1%
   @DF-UKS iter   4:  -129.32370281041764   -2.17155e-03   1.91912e-04 ADIIS/DIIS/DAMP=1%
   @DF-UKS iter   5:  -129.32391918558636   -2.16375e-04   5.71263e-06 DIIS/DAMP=1%
   @DF-UKS iter   6:  -129.32395352765272   -3.43421e-05   3.52185e-06 DIIS/DAMP=1%
   @DF-UKS iter   7:  -129.32395741265307   -3.88500e-06   2.05372e-07 DIIS/DAMP=1%
   @DF-UKS iter   8:  -129.32395646428282    9.48370e-07   2.37967e-07 DIIS/DAMP=1%
   @DF-UKS iter   9:  -129.32395653228488   -6.80021e-08   6.75154e-09 DIIS/DAMP=1%
   @DF-UKS iter  10:  -129.32395648204209    5.02428e-08   1.77225e-09 DIIS/DAMP=1%
   @DF-UKS iter  11:  -129.32395648155264    4.89450e-10   5.67780e-11 DIIS/DAMP=1%
  Energy and wave function converged.


  ==> Post-Iterations <==

   Electrons on quadrature grid:
      Nalpha   =    6.9999994894 ; deviation = -5.106e-07
      Nbeta    =    6.9999994894 ; deviation = -5.106e-07
      Ntotal   =   13.9999989788 ; deviation = -1.021e-06 

   @Spin Contamination Metric:   1.776356839E-15
   @S^2 Expected:                0.000000000E+00
   @S^2 Observed:                1.776356839E-15
   @S   Expected:                0.000000000E+00
   @S   Observed:                0.000000000E+00

    Orbital Energies [Eh]
    ---------------------

    Alpha Occupied:                                                       

       1A1   -19.743663     2A1   -15.022400     3A1    -1.442795  
       4A1    -1.163715     5A1    -0.855079     1B1    -0.805734  
       1B2    -0.805734  

    Alpha Virtual:                                                        

       2B1    -0.619964     2B2    -0.619964     6A1    -0.443695  
       7A1     0.101464     3B2     0.112601     3B1     0.112601  
       8A1     0.167163     9A1     0.264142     4B2     0.284072  
       4B1     0.284072     1A2     0.601118    10A1     0.601118  
       5B2     0.609078     5B1     0.609078    11A1     0.733351  
      12A1     1.060759    13A1     1.086618     2A2     1.086619  
       6B2     1.389354     6B1     1.389354    14A1     1.620749  
       7B2     2.327348     7B1     2.327348    15A1     2.572667  
       8B2     3.058252     8B1     3.058252    16A1     3.136474  
      17A1     3.375866     3A2     3.375867     9B2     3.391401  
       9B1     3.391401    10B2     3.491822    10B1     3.491822  
      18A1     3.780211    19A1     3.889639     4A2     3.889645  
      11B1     4.034882    11B2     4.034882    20A1     4.538787  
      12B2     4.657988    12B1     4.657988    21A1     4.697755  
      22A1     4.707781     5A2     4.707782    13B1     5.042450  
      13B2     5.042450    23A1     5.534750     6A2     5.698294  
      24A1     5.698338    14B1     6.007162    14B2     6.007162  
      25A1     6.800746    26A1     7.561092  

    Beta Occupied:                                                        

       1A1   -19.743663     2A1   -15.022400     3A1    -1.442795  
       4A1    -1.163715     5A1    -0.855079     1B1    -0.805734  
       1B2    -0.805734  

    Beta Virtual:                                                         

       2B1    -0.619964     2B2    -0.619964     6A1    -0.443695  
       7A1     0.101464     3B2     0.112601     3B1     0.112601  
       8A1     0.167163     9A1     0.264142     4B2     0.284072  
       4B1     0.284072     1A2     0.601118    10A1     0.601118  
       5B2     0.609078     5B1     0.609078    11A1     0.733351  
      12A1     1.060759    13A1     1.086618     2A2     1.086619  
       6B2     1.389354     6B1     1.389354    14A1     1.620749  
       7B2     2.327348     7B1     2.327348    15A1     2.572667  
       8B2     3.058252     8B1     3.058252    16A1     3.136474  
      17A1     3.375866     3A2     3.375867     9B2     3.391401  
       9B1     3.391401    10B2     3.491822    10B1     3.491822  
      18A1     3.780211    19A1     3.889639     4A2     3.889645  
      11B1     4.034882    11B2     4.034882    20A1     4.538787  
      12B2     4.657988    12B1     4.657988    21A1     4.697755  
      22A1     4.707781     5A2     4.707782    13B1     5.042450  
      13B2     5.042450    23A1     5.534750     6A2     5.698294  
      24A1     5.698338    14B1     6.007162    14B2     6.007162  
      25A1     6.800746    26A1     7.561092  

    Final Occupation by Irrep:
             A1    A2    B1    B2 
    DOCC [     5,    0,    1,    1 ]
    SOCC [     0,    0,    0,    0 ]
    NA   [     5,    0,    1,    1 ]
    NB   [     5,    0,    1,    1 ]

  @DF-UKS Final Energy:  -129.32395648155264

   => Energetics <=

    Nuclear Repulsion Energy =             18.9437425510511979
    One-Electron Energy =                -208.3416708266543083
    Two-Electron Energy =                  71.8992070641661201
    DFT Exchange-Correlation Energy =     -11.8252352701156678
    Empirical Dispersion Energy =           0.0000000000000000
    VV10 Nonlocal Energy =                  0.0000000000000000
    Total Energy =                       -129.3239564815526421

  UHF NO Occupations:
  HONO-2 :    4 A1 2.0000000
  HONO-1 :    1 B2 2.0000000
  HONO-0 :    5 A1 2.0000000
  LUNO+0 :    6 A1 0.0000000
  LUNO+1 :    7 A1 0.0000000
  LUNO+2 :    8 A1 0.0000000
  LUNO+3 :    9 A1 0.0000000


Computation Completed


Properties will be evaluated at   0.000000,   0.000000,   0.000000 [a0]

Properties computed using the SCF density matrix


 Multipole Moments:

 ------------------------------------------------------------------------------------
     Multipole            Electronic (a.u.)      Nuclear  (a.u.)        Total (a.u.)
 ------------------------------------------------------------------------------------

 L = 1.  Multiply by 2.5417464519 to convert [e a0] to [Debye]
 Dipole X            :          0.0000000            0.0000000            0.0000000
 Dipole Y            :          0.0000000            0.0000000            0.0000000
 Dipole Z            :          0.5656513           -0.0059313            0.5597199
 Magnitude           :                                                    0.5597199

 ------------------------------------------------------------------------------------

*** tstop() called on Mac.lan at Wed Aug 27 11:27:38 2025
Module time:
	user time   =      85.05 seconds =       1.42 minutes
	system time =       3.37 seconds =       0.06 minutes
	total time  =          9 seconds =       0.15 minutes
Total time:
	user time   =      85.05 seconds =       1.42 minutes
	system time =       3.37 seconds =       0.06 minutes
	total time  =          9 seconds =       0.15 minutes

*** tstart() called on Mac.lan
*** at Wed Aug 27 11:27:38 2025

   => Libint2 <=

    Primary   basis highest AM E, G, H:  6, 6, 3
    Auxiliary basis highest AM E, G, H:  7, 7, 4
    Onebody   basis highest AM E, G, H:  -, -, -
    Solid Harmonics ordering:            Gaussian
   => Loading Basis Set <=

    Name: CC-PVTZ
    Role: ORBITAL
    Keyword: BASIS
    atoms 1 entry O          line   262 file /Users/joseantoniorodriguesromero/anaconda3/share/psi4/basis/cc-pvtz.gbs 
    atoms 2 entry N          line   224 file /Users/joseantoniorodriguesromero/anaconda3/share/psi4/basis/cc-pvtz.gbs 


         ---------------------------------------------------------
                                   SCF
               by Justin Turney, Rob Parrish, Andy Simmonett
                          and Daniel G. A. Smith
                              UKS Reference
                        1 Threads,    500 MiB Core
         ---------------------------------------------------------

  ==> Geometry <==

    Molecular point group: c2v
    Full point group: C_inf_v

    Geometry (in Angstrom), charge = 1, multiplicity = 1:

       Center              X                  Y                   Z               Mass       
    ------------   -----------------  -----------------  -----------------  -----------------
         O            0.000000000000     0.000000000000    -0.730221515068    15.994914619570
         N            0.000000000000     0.000000000000     0.834090484932    14.003074004430

  Running in c2v symmetry.

  Rotational constants: A = ************  B =      0.92265  C =      0.92265 [cm^-1]
  Rotational constants: A = ************  B =  27660.32455  C =  27660.32455 [MHz]
  Nuclear repulsion =   18.943742551051198

  Charge       = 1
  Multiplicity = 1
  Electrons    = 14
  Nalpha       = 7
  Nbeta        = 7

  ==> Algorithm <==

  SCF Algorithm Type is DF.
  DIIS enabled.
  MOM disabled.
  Fractional occupation disabled.
  Guess Type is READ.
  Energy threshold   = 1.00e-08
  Density threshold  = 1.00e-08
  Integral threshold = 1.00e-12

  ==> Primary Basis <==

  Basis Set: CC-PVTZ
    Blend: CC-PVTZ
    Number of shells: 20
    Number of basis functions: 60
    Number of Cartesian functions: 70
    Spherical Harmonics?: true
    Max angular momentum: 3

  ==> DFT Potential <==

   => LibXC <=

    Version 6.2.2
    S. Lehtola, C. Steigemann, M. J.T. Oliveira, and M. A.L. Marques.,  SoftwareX 7, 1–5 (2018) (10.1016/j.softx.2017.11.002)

   => Composite Functional: B3LYP <= 

    B3LYP Hyb-GGA Exchange-Correlation Functional

    P. J. Stephens, F. J. Devlin, C. F. Chabalowski, and M. J. Frisch.,  J. Phys. Chem. 98, 11623 (1994) (10.1021/j100096a001)

    Deriv               =              1
    GGA                 =           TRUE
    Meta                =          FALSE

    Exchange Hybrid     =           TRUE
    MP2 Hybrid          =          FALSE

   => Exchange Functionals <=

    0.0800   Slater exchange
    0.7200         Becke 88

   => Exact (HF) Exchange <=

    0.2000               HF 

   => Correlation Functionals <=

    0.1900   Vosko, Wilk & Nusair (VWN5_RPA)
    0.8100   Lee, Yang & Parr

   => LibXC Density Thresholds  <==

    XC_HYB_GGA_XC_B3LYP:  1.00E-15 

   => Molecular Quadrature <=

    Radial Scheme          =       TREUTLER
    Pruning Scheme         =           NONE
    Nuclear Scheme         =       TREUTLER

    Blocking Scheme        =         OCTREE
    BS radius alpha        =              1
    Pruning alpha          =              1
    Radial Points          =             75
    Spherical Points       =            302
    Total Points           =          42754
    Total Blocks           =            388
    Max Points             =            256
    Max Functions          =             60
    Weights Tolerance      =       1.00E-15

   => Loading Basis Set <=

    Name: (CC-PVTZ AUX)
    Role: JKFIT
    Keyword: DF_BASIS_SCF
    atoms 1 entry O          line   229 file /Users/joseantoniorodriguesromero/anaconda3/share/psi4/basis/cc-pvtz-jkfit.gbs 
    atoms 2 entry N          line   177 file /Users/joseantoniorodriguesromero/anaconda3/share/psi4/basis/cc-pvtz-jkfit.gbs 

   => Loading Basis Set <=

    Name: CC-PVTZ
    Role: ORBITAL
    Keyword: BASIS
    atoms 1 entry O          line   262 file /Users/joseantoniorodriguesromero/anaconda3/share/psi4/basis/cc-pvtz.gbs 
    atoms 2 entry N          line   224 file /Users/joseantoniorodriguesromero/anaconda3/share/psi4/basis/cc-pvtz.gbs 

  Reading orbitals from file /tmp/scan_NO_35.default.69712.180.npy, no projection.

  ==> Integral Setup <==

  DFHelper Memory: AOs need 0.005 GiB; user supplied 0.296 GiB. 
  Using in-core AOs.

  ==> MemDFJK: Density-Fitted J/K Matrices <==

    J tasked:                   Yes
    K tasked:                   Yes
    wK tasked:                   No
    OpenMP threads:               1
    Memory [MiB]:               303
    Algorithm:                 Core
    Schwarz Cutoff:           1E-12
    Mask sparsity (%):       0.0000
    Fitting Condition:        1E-10

   => Auxiliary Basis Set <=

  Basis Set: (CC-PVTZ AUX)
    Blend: CC-PVTZ-JKFIT
    Number of shells: 50
    Number of basis functions: 158
    Number of Cartesian functions: 192
    Spherical Harmonics?: true
    Max angular momentum: 4

  Cached 100.0% of DFT collocation blocks in 0.070 [GiB].

  Minimum eigenvalue in the overlap matrix is 1.0610963180E-02.
  Reciprocal condition number of the overlap matrix is 3.1046988017E-03.
    Using symmetric orthogonalization.

  ==> Pre-Iterations <==

  SCF Guess: Orbitals guess was supplied from a previous computation.

   -------------------------------------------------------
    Irrep   Nso     Nmo     Nalpha   Nbeta   Ndocc  Nsocc
   -------------------------------------------------------
     A1        26      26       5       5       5       0
     A2         6       6       0       0       0       0
     B1        14      14       1       1       1       0
     B2        14      14       1       1       1       0
   -------------------------------------------------------
    Total      60      60       7       7       7       0
   -------------------------------------------------------

  ==> Iterations <==

                           Total Energy        Delta E     RMS |[F,P]|

   @DF-UKS iter   0:  -129.32395648128889   -1.29324e+02   1.19679e-11 
   @DF-UKS iter   1:  -129.32395648128889    0.00000e+00   9.19141e-11 DIIS
  Energy and wave function converged.


  ==> Post-Iterations <==

   Electrons on quadrature grid:
      Nalpha   =    6.9999994894 ; deviation = -5.106e-07
      Nbeta    =    6.9999994894 ; deviation = -5.106e-07
      Ntotal   =   13.9999989788 ; deviation = -1.021e-06 

   @Spin Contamination Metric:  -6.217248938E-15
   @S^2 Expected:                0.000000000E+00
   @S^2 Observed:               -6.217248938E-15
   @S   Expected:                0.000000000E+00
   @S   Observed:                0.000000000E+00

    Orbital Energies [Eh]
    ---------------------

    Alpha Occupied:                                                       

       1A1   -19.743663     2A1   -15.022400     3A1    -1.442795  
       4A1    -1.163715     5A1    -0.855079     1B1    -0.805734  
       1B2    -0.805734  

    Alpha Virtual:                                                        

       2B1    -0.619964     2B2    -0.619964     6A1    -0.443695  
       7A1     0.101464     3B2     0.112601     3B1     0.112601  
       8A1     0.167163     9A1     0.264142     4B2     0.284072  
       4B1     0.284072     1A2     0.601118    10A1     0.601118  
       5B2     0.609078     5B1     0.609078    11A1     0.733351  
      12A1     1.060759    13A1     1.086618     2A2     1.086619  
       6B2     1.389354     6B1     1.389354    14A1     1.620749  
       7B2     2.327348     7B1     2.327348    15A1     2.572667  
       8B2     3.058252     8B1     3.058252    16A1     3.136474  
      17A1     3.375866     3A2     3.375867     9B2     3.391401  
       9B1     3.391401    10B2     3.491822    10B1     3.491822  
      18A1     3.780211    19A1     3.889639     4A2     3.889645  
      11B1     4.034882    11B2     4.034882    20A1     4.538787  
      12B2     4.657988    12B1     4.657988    21A1     4.697755  
      22A1     4.707781     5A2     4.707782    13B1     5.042450  
      13B2     5.042450    23A1     5.534750     6A2     5.698294  
      24A1     5.698338    14B1     6.007162    14B2     6.007162  
      25A1     6.800746    26A1     7.561092  

    Beta Occupied:                                                        

       1A1   -19.743663     2A1   -15.022400     3A1    -1.442795  
       4A1    -1.163715     5A1    -0.855079     1B1    -0.805734  
       1B2    -0.805734  

    Beta Virtual:                                                         

       2B1    -0.619964     2B2    -0.619964     6A1    -0.443695  
       7A1     0.101464     3B2     0.112601     3B1     0.112601  
       8A1     0.167163     9A1     0.264142     4B2     0.284072  
       4B1     0.284072     1A2     0.601118    10A1     0.601118  
       5B2     0.609078     5B1     0.609078    11A1     0.733351  
      12A1     1.060759    13A1     1.086618     2A2     1.086619  
       6B2     1.389354     6B1     1.389354    14A1     1.620749  
       7B2     2.327348     7B1     2.327348    15A1     2.572667  
       8B2     3.058252     8B1     3.058252    16A1     3.136474  
      17A1     3.375866     3A2     3.375867     9B2     3.391401  
       9B1     3.391401    10B2     3.491822    10B1     3.491822  
      18A1     3.780211    19A1     3.889639     4A2     3.889645  
      11B1     4.034882    11B2     4.034882    20A1     4.538787  
      12B2     4.657988    12B1     4.657988    21A1     4.697755  
      22A1     4.707781     5A2     4.707782    13B1     5.042450  
      13B2     5.042450    23A1     5.534750     6A2     5.698294  
      24A1     5.698338    14B1     6.007162    14B2     6.007162  
      25A1     6.800746    26A1     7.561092  

    Final Occupation by Irrep:
             A1    A2    B1    B2 
    DOCC [     5,    0,    1,    1 ]
    SOCC [     0,    0,    0,    0 ]
    NA   [     5,    0,    1,    1 ]
    NB   [     5,    0,    1,    1 ]

  @DF-UKS Final Energy:  -129.32395648128889

   => Energetics <=

    Nuclear Repulsion Energy =             18.9437425510511979
    One-Electron Energy =                -208.3416708292083399
    Two-Electron Energy =                  71.8992070671968122
    DFT Exchange-Correlation Energy =     -11.8252352703285517
    Empirical Dispersion Energy =           0.0000000000000000
    VV10 Nonlocal Energy =                  0.0000000000000000
    Total Energy =                       -129.3239564812888887

  UHF NO Occupations:
  HONO-2 :    4 A1 2.0000000
  HONO-1 :    5 A1 2.0000000
  HONO-0 :    1 B2 2.0000000
  LUNO+0 :    6 A1 0.0000000
  LUNO+1 :    7 A1 0.0000000
  LUNO+2 :    8 A1 0.0000000
  LUNO+3 :    9 A1 0.0000000


Computation Completed


Properties will be evaluated at   0.000000,   0.000000,   0.000000 [a0]

Properties computed using the B3LYP density matrix


 Multipole Moments:

 ------------------------------------------------------------------------------------
     Multipole            Electronic (a.u.)      Nuclear  (a.u.)        Total (a.u.)
 ------------------------------------------------------------------------------------

 L = 1.  Multiply by 2.5417464519 to convert [e a0] to [Debye]
 Dipole X            :          0.0000000            0.0000000            0.0000000
 Dipole Y            :          0.0000000            0.0000000            0.0000000
 Dipole Z            :          0.5656512           -0.0059313            0.5597199
 Magnitude           :                                                    0.5597199

 L = 2.  Multiply by 1.3450342976 to convert [e a0^2] to [Debye ang]
 Quadrupole XX       :         -6.4163972            0.0000000           -6.4163972
 Quadrupole XY       :          0.0000000            0.0000000            0.0000000
 Quadrupole XZ       :          0.0000000            0.0000000            0.0000000
 Quadrupole YY       :         -6.4163972            0.0000000           -6.4163972
 Quadrupole YZ       :          0.0000000            0.0000000            0.0000000
 Quadrupole ZZ       :        -36.3054933           32.6243064           -3.6811869
 Traceless XX        :          9.9630320          -10.8747688           -0.9117368
 Traceless YY        :          9.9630320          -10.8747688           -0.9117368
 Traceless ZZ        :        -19.9260641           21.7495376            1.8234736

 ------------------------------------------------------------------------------------
  ==> Computing MBIS Charges <==

  Electron Count from Grid (Expected Number): 14.00000 (14.00000)
  Difference: -0.00000

  MBIS Charges: (a.u.)
   Center  Symbol  Z      Pop.       Charge
      1       O    8    7.703314    0.296686
      2       N    7    6.296685    0.703315

  MBIS Dipoles: [e a0]
   Center  Symbol  Z        X           Y           Z
      1       O    8    0.000000   -0.000000   -0.205351
      2       N    7   -0.000000    0.000000    0.065905

  MBIS Quadrupoles: [e a0^2]
   Center  Symbol  Z      XX        XY        XZ        YY        YZ        ZZ
      1       O    8   -3.3679   -0.0000    0.0000   -3.3679    0.0000   -3.4322
      2       N    7   -3.0485   -0.0000    0.0000   -3.0485   -0.0000   -3.3357

  MBIS Octupoles: [e a0^3]
   Center  Symbol  Z      XXX       XXY       XXZ       XYY       XYZ       XZZ       YYY       YYZ       YZZ       ZZZ
      1       O    8   -0.0000    0.0000   -0.2169   -0.0000   -0.0000   -0.0000    0.0000   -0.2169    0.0000   -0.6495
      2       N    7    0.0000    0.0000    0.2085   -0.0000    0.0000   -0.0000   -0.0000    0.2085   -0.0000    0.4718

  MBIS Radial Moments:
   Center  Symbol  Z      [a0^2]      [a0^3]      [a0^4]      
      1       O    8   10.168102   18.395965   39.853165
      2       N    7    9.432642   18.469204   43.193652

  MBIS Valence Widths: [a0]
   Center  Symbol  Z     Width
      1       O    8    0.375681
      2       N    7    0.414632

*** tstop() called on Mac.lan at Wed Aug 27 11:27:40 2025
Module time:
	user time   =      19.15 seconds =       0.32 minutes
	system time =       2.72 seconds =       0.05 minutes
	total time  =          2 seconds =       0.03 minutes
Total time:
	user time   =     104.23 seconds =       1.74 minutes
	system time =       6.25 seconds =       0.10 minutes
	total time  =         11 seconds =       0.18 minutes

    Psi4 stopped on: Wednesday, 27 August 2025 11:27AM
    Psi4 wall time for execution: 0:00:11.08

*** Psi4 exiting successfully. Buy a developer a beer!
