
    -----------------------------------------------------------------------
          Psi4: An Open-Source Ab Initio Electronic Structure Package
                               Psi4 1.9.1 release

                         Git: Rev {} zzzzzzz 


    D. G. A. Smith, L. A. Burns, A. C. Simmonett, R. M. Parrish,
    M. C. Schieber, R. Galvelis, P. Kraus, H. Kruse, R. Di Remigio,
    A. Alenaizan, A. M. James, S. Lehtola, J. P. Misiewicz, M. Scheurer,
    R. A. Shaw, J. B. Schriber, Y. Xie, Z. L. Glick, D. A. Sirianni,
    J. S. O'Brien, J. M. Waldrop, A. Kumar, E. G. Hohenstein,
    B. P. Pritchard, B. R. Brooks, H. F. Schaefer III, A. Yu. Sokolov,
    K. Patkowski, A. E. DePrince III, U. Bozkaya, R. A. King,
    F. A. Evangelista, J. M. Turney, T. D. Crawford, C. D. Sherrill,
    J. Chem. Phys. 152(18) 184108 (2020). https://doi.org/10.1063/5.0006002

                            Additional Code Authors
    E. T. Seidl, C. L. Janssen, E. F. Valeev, M. L. Leininger,
    J. F. Gonthier, R. M. Richard, H. R. McAlexander, M. Saitow, X. Wang,
    P. Verma, M. H. Lechner, A. Jiang, S. Behnle, A. G. Heide,
    M. F. Herbst, and D. L. Poole

             Previous Authors, Complete List of Code Contributors,
                       and Citations for Specific Modules
    https://github.com/psi4/psi4/blob/master/codemeta.json
    https://github.com/psi4/psi4/graphs/contributors
    http://psicode.org/psi4manual/master/introduction.html#citing-psifour

    -----------------------------------------------------------------------


    Psi4 started on: Wednesday, 27 August 2025 11:00AM

    Process ID: 68580
    Host:       Mac.lan
    PSIDATADIR: /Users/joseantoniorodriguesromero/anaconda3/share/psi4
    Memory:     500.0 MiB
    Threads:    1
    
  ==> Input File <==

--------------------------------------------------------------------------
molecule { 
1 3
O           0.000000           0.000000           0.000000
H           0.000000           0.000000           1.031969
}

set { 
basis              cc-pvtz
reference          uks
maxiter            500
DAMPING_PERCENTAGE 1
E_CONVERGENCE      1.0E-8
D_CONVERGENCE      1.0E-8
DIIS_MAX_VECS      400
MBIS_MAXITER       8000
guess              read
}

E, wfn = energy('b3lyp', restart_file='last_wfn', return_wfn=True)
properties('b3lyp','MBIS_CHARGES', wfn=wfn)
wfn.to_file('last_wfn')
--------------------------------------------------------------------------

Scratch directory: /tmp/
 Found user provided orbital data. Setting orbital guess to READ 
 Copying restart file <last_wfn.npy> to </tmp/scan_HO_21.default.68580.180.npy> for internal processing
   => Libint2 <=

    Primary   basis highest AM E, G, H:  6, 6, 3
    Auxiliary basis highest AM E, G, H:  7, 7, 4
    Onebody   basis highest AM E, G, H:  -, -, -
    Solid Harmonics ordering:            Gaussian

*** tstart() called on Mac.lan
*** at Wed Aug 27 11:00:38 2025

   => Loading Basis Set <=

    Name: CC-PVTZ
    Role: ORBITAL
    Keyword: BASIS
    atoms 1 entry O          line   262 file /Users/joseantoniorodriguesromero/anaconda3/share/psi4/basis/cc-pvtz.gbs 
    atoms 2 entry H          line    23 file /Users/joseantoniorodriguesromero/anaconda3/share/psi4/basis/cc-pvtz.gbs 


         ---------------------------------------------------------
                                   SCF
               by Justin Turney, Rob Parrish, Andy Simmonett
                          and Daniel G. A. Smith
                              UKS Reference
                        1 Threads,    500 MiB Core
         ---------------------------------------------------------

  ==> Geometry <==

    Molecular point group: c2v
    Full point group: C_inf_v

    Geometry (in Angstrom), charge = 1, multiplicity = 3:

       Center              X                  Y                   Z               Mass       
    ------------   -----------------  -----------------  -----------------  -----------------
         O            0.000000000000     0.000000000000    -0.061169212255    15.994914619570
         H            0.000000000000     0.000000000000     0.970799787745     1.007825032230

  Running in c2v symmetry.

  Rotational constants: A = ************  B =     16.69610  C =     16.69610 [cm^-1]
  Rotational constants: A = ************  B = 500536.47881  C = 500536.47881 [MHz]
  Nuclear repulsion =    4.102272147089690

  Charge       = 1
  Multiplicity = 3
  Electrons    = 8
  Nalpha       = 5
  Nbeta        = 3

  ==> Algorithm <==

  SCF Algorithm Type is DF.
  DIIS enabled.
  MOM disabled.
  Fractional occupation disabled.
  Guess Type is READ.
  Energy threshold   = 1.00e-08
  Density threshold  = 1.00e-08
  Integral threshold = 1.00e-12

  ==> Primary Basis <==

  Basis Set: CC-PVTZ
    Blend: CC-PVTZ
    Number of shells: 16
    Number of basis functions: 44
    Number of Cartesian functions: 50
    Spherical Harmonics?: true
    Max angular momentum: 3

  ==> DFT Potential <==

   => LibXC <=

    Version 6.2.2
    S. Lehtola, C. Steigemann, M. J.T. Oliveira, and M. A.L. Marques.,  SoftwareX 7, 1–5 (2018) (10.1016/j.softx.2017.11.002)

   => Composite Functional: B3LYP <= 

    B3LYP Hyb-GGA Exchange-Correlation Functional

    P. J. Stephens, F. J. Devlin, C. F. Chabalowski, and M. J. Frisch.,  J. Phys. Chem. 98, 11623 (1994) (10.1021/j100096a001)

    Deriv               =              1
    GGA                 =           TRUE
    Meta                =          FALSE

    Exchange Hybrid     =           TRUE
    MP2 Hybrid          =          FALSE

   => Exchange Functionals <=

    0.0800   Slater exchange
    0.7200         Becke 88

   => Exact (HF) Exchange <=

    0.2000               HF 

   => Correlation Functionals <=

    0.1900   Vosko, Wilk & Nusair (VWN5_RPA)
    0.8100   Lee, Yang & Parr

   => LibXC Density Thresholds  <==

    XC_HYB_GGA_XC_B3LYP:  1.00E-15 

   => Molecular Quadrature <=

    Radial Scheme          =       TREUTLER
    Pruning Scheme         =           NONE
    Nuclear Scheme         =       TREUTLER

    Blocking Scheme        =         OCTREE
    BS radius alpha        =              1
    Pruning alpha          =              1
    Radial Points          =             75
    Spherical Points       =            302
    Total Points           =          44136
    Total Blocks           =            393
    Max Points             =            256
    Max Functions          =             44
    Weights Tolerance      =       1.00E-15

   => Loading Basis Set <=

    Name: (CC-PVTZ AUX)
    Role: JKFIT
    Keyword: DF_BASIS_SCF
    atoms 1 entry O          line   229 file /Users/joseantoniorodriguesromero/anaconda3/share/psi4/basis/cc-pvtz-jkfit.gbs 
    atoms 2 entry H          line    51 file /Users/joseantoniorodriguesromero/anaconda3/share/psi4/basis/cc-pvtz-jkfit.gbs 

   => Loading Basis Set <=

    Name: CC-PVTZ
    Role: ORBITAL
    Keyword: BASIS
    atoms 1 entry O          line   262 file /Users/joseantoniorodriguesromero/anaconda3/share/psi4/basis/cc-pvtz.gbs 
    atoms 2 entry H          line    23 file /Users/joseantoniorodriguesromero/anaconda3/share/psi4/basis/cc-pvtz.gbs 

  Reading orbitals from file /tmp/scan_HO_21.default.68580.180.npy, no projection.

  ==> Integral Setup <==

  DFHelper Memory: AOs need 0.002 GiB; user supplied 0.312 GiB. 
  Using in-core AOs.

  ==> MemDFJK: Density-Fitted J/K Matrices <==

    J tasked:                   Yes
    K tasked:                   Yes
    wK tasked:                   No
    OpenMP threads:               1
    Memory [MiB]:               319
    Algorithm:                 Core
    Schwarz Cutoff:           1E-12
    Mask sparsity (%):       0.0000
    Fitting Condition:        1E-10

   => Auxiliary Basis Set <=

  Basis Set: (CC-PVTZ AUX)
    Blend: CC-PVTZ-JKFIT
    Number of shells: 35
    Number of basis functions: 109
    Number of Cartesian functions: 131
    Spherical Harmonics?: true
    Max angular momentum: 4

  Cached 100.0% of DFT collocation blocks in 0.055 [GiB].

  Minimum eigenvalue in the overlap matrix is 5.1369709801E-03.
  Reciprocal condition number of the overlap matrix is 1.3208624443E-03.
    Using symmetric orthogonalization.

  ==> Pre-Iterations <==

  SCF Guess: Orbitals guess was supplied from a previous computation.

   -------------------------------------------------------
    Irrep   Nso     Nmo     Nalpha   Nbeta   Ndocc  Nsocc
   -------------------------------------------------------
     A1        20      20       3       3       3       0
     A2         4       4       0       0       0       0
     B1        10      10       1       0       0       1
     B2        10      10       1       0       0       1
   -------------------------------------------------------
    Total      44      44       5       3       3       2
   -------------------------------------------------------

  ==> Iterations <==

                           Total Energy        Delta E     RMS |[F,P]|

   @DF-UKS iter   0:   -75.30634602334867   -7.53063e+01   2.50954e-03 
   @DF-UKS iter   1:   -75.28110917474982    2.52368e-02   4.64332e-04 ADIIS/DIIS
   @DF-UKS iter   2:   -75.28114285956350   -3.36848e-05   2.39077e-04 ADIIS/DIIS/DAMP=1%
   @DF-UKS iter   3:   -75.28127551147746   -1.32652e-04   5.37237e-05 DIIS/DAMP=1%
   @DF-UKS iter   4:   -75.28112895548557    1.46556e-04   6.79088e-06 DIIS/DAMP=1%
   @DF-UKS iter   5:   -75.28115649376575   -2.75383e-05   1.39645e-06 DIIS/DAMP=1%
   @DF-UKS iter   6:   -75.28115302001963    3.47375e-06   1.89997e-07 DIIS/DAMP=1%
   @DF-UKS iter   7:   -75.28115352275084   -5.02731e-07   1.05859e-08 DIIS/DAMP=1%
   @DF-UKS iter   8:   -75.28115346531953    5.74313e-08   9.20028e-10 DIIS/DAMP=1%
   @DF-UKS iter   9:   -75.28115346546457   -1.45036e-10   1.04724e-10 DIIS/DAMP=1%
  Energy and wave function converged.


  ==> Post-Iterations <==

   Electrons on quadrature grid:
      Nalpha   =    5.0000000014 ; deviation = 1.393e-09
      Nbeta    =    3.0000000160 ; deviation = 1.601e-08
      Ntotal   =    8.0000000174 ; deviation = 1.740e-08 

   @Spin Contamination Metric:   4.994520715E-03
   @S^2 Expected:                2.000000000E+00
   @S^2 Observed:                2.004994521E+00
   @S   Expected:                1.000000000E+00
   @S   Observed:                1.000000000E+00

    Orbital Energies [Eh]
    ---------------------

    Alpha Occupied:                                                       

       1A1   -19.817959     2A1    -1.565095     3A1    -0.979658  
       1B2    -0.947600     1B1    -0.947600  

    Alpha Virtual:                                                        

       4A1    -0.322857     5A1    -0.006808     2B1     0.134068  
       2B2     0.134068     6A1     0.171776     3B2     0.322609  
       3B1     0.322609     7A1     0.480187     8A1     0.808917  
       1A2     0.923926     9A1     0.923926     4B2     1.260438  
       4B1     1.260438    10A1     1.513098    11A1     1.948637  
      12A1     2.749257     2A2     2.749257     5B2     2.793069  
       5B1     2.793069    13A1     3.151909     6B1     3.166687  
       6B2     3.166687     7B2     3.525747     7B1     3.525747  
      14A1     3.678310    15A1     4.218749     8B1     4.502883  
       8B2     4.502883    16A1     4.738770     3A2     4.738770  
       4A2     5.529841    17A1     5.529842     9B1     5.585617  
       9B2     5.585617    18A1     5.712725    10B2     5.983820  
      10B1     5.983820    19A1     6.347974    20A1     9.101405  

    Beta Occupied:                                                        

       1A1   -19.761692     2A1    -1.411480     3A1    -0.925983  

    Beta Virtual:                                                         

       1B2    -0.644766     1B1    -0.644766     4A1    -0.306111  
       5A1    -0.000588     6A1     0.185889     2B1     0.200454  
       2B2     0.200454     3B2     0.337346     3B1     0.337346  
       7A1     0.534937     8A1     0.824518     9A1     1.035742  
       1A2     1.035742     4B2     1.314269     4B1     1.314269  
      10A1     1.541732    11A1     1.954969    12A1     2.755956  
       2A2     2.755957     5B2     2.868813     5B1     2.868813  
      13A1     3.163455     6B2     3.209444     6B1     3.209444  
       7B2     3.569057     7B1     3.569057    14A1     3.713574  
      15A1     4.275468     8B2     4.655004     8B1     4.655004  
      16A1     4.835839     3A2     4.835840     9B2     5.681709  
       9B1     5.681709     4A2     5.742702    17A1     5.742703  
      18A1     5.764660    10B2     6.060299    10B1     6.060299  
      19A1     6.414297    20A1     9.174968  

    Final Occupation by Irrep:
             A1    A2    B1    B2 
    DOCC [     3,    0,    0,    0 ]
    SOCC [     0,    0,    1,    1 ]
    NA   [     3,    0,    1,    1 ]
    NB   [     3,    0,    0,    0 ]

  @DF-UKS Final Energy:   -75.28115346546457

   => Energetics <=

    Nuclear Repulsion Energy =              4.1022721470896899
    One-Electron Energy =                -107.4738071685769256
    Two-Electron Energy =                  34.9576951997871745
    DFT Exchange-Correlation Energy =      -6.8673136437645246
    Empirical Dispersion Energy =           0.0000000000000000
    VV10 Nonlocal Energy =                  0.0000000000000000
    Total Energy =                        -75.2811534654645840

  UHF NO Occupations:
  HONO-2 :    3 A1 1.9981576
  HONO-1 :    1 B1 1.0000000
  HONO-0 :    1 B2 1.0000000
  LUNO+0 :    4 A1 0.0018424
  LUNO+1 :    5 A1 0.0006554
  LUNO+2 :    6 A1 0.0000014
  LUNO+3 :    2 B1 0.0000000


Computation Completed


Properties will be evaluated at   0.000000,   0.000000,   0.000000 [a0]

Properties computed using the SCF density matrix


 Multipole Moments:

 ------------------------------------------------------------------------------------
     Multipole            Electronic (a.u.)      Nuclear  (a.u.)        Total (a.u.)
 ------------------------------------------------------------------------------------

 L = 1.  Multiply by 2.5417464519 to convert [e a0] to [Debye]
 Dipole X            :          0.0000000            0.0000000            0.0000000
 Dipole Y            :          0.0000000            0.0000000            0.0000000
 Dipole Z            :         -0.0122480            0.9098013            0.8975533
 Magnitude           :                                                    0.8975533

 ------------------------------------------------------------------------------------

*** tstop() called on Mac.lan at Wed Aug 27 11:00:39 2025
Module time:
	user time   =       9.22 seconds =       0.15 minutes
	system time =       2.22 seconds =       0.04 minutes
	total time  =          1 seconds =       0.02 minutes
Total time:
	user time   =       9.22 seconds =       0.15 minutes
	system time =       2.22 seconds =       0.04 minutes
	total time  =          1 seconds =       0.02 minutes

*** tstart() called on Mac.lan
*** at Wed Aug 27 11:00:39 2025

   => Libint2 <=

    Primary   basis highest AM E, G, H:  6, 6, 3
    Auxiliary basis highest AM E, G, H:  7, 7, 4
    Onebody   basis highest AM E, G, H:  -, -, -
    Solid Harmonics ordering:            Gaussian
   => Loading Basis Set <=

    Name: CC-PVTZ
    Role: ORBITAL
    Keyword: BASIS
    atoms 1 entry O          line   262 file /Users/joseantoniorodriguesromero/anaconda3/share/psi4/basis/cc-pvtz.gbs 
    atoms 2 entry H          line    23 file /Users/joseantoniorodriguesromero/anaconda3/share/psi4/basis/cc-pvtz.gbs 


         ---------------------------------------------------------
                                   SCF
               by Justin Turney, Rob Parrish, Andy Simmonett
                          and Daniel G. A. Smith
                              UKS Reference
                        1 Threads,    500 MiB Core
         ---------------------------------------------------------

  ==> Geometry <==

    Molecular point group: c2v
    Full point group: C_inf_v

    Geometry (in Angstrom), charge = 1, multiplicity = 3:

       Center              X                  Y                   Z               Mass       
    ------------   -----------------  -----------------  -----------------  -----------------
         O            0.000000000000     0.000000000000    -0.061169212255    15.994914619570
         H            0.000000000000     0.000000000000     0.970799787745     1.007825032230

  Running in c2v symmetry.

  Rotational constants: A = ************  B =     16.69610  C =     16.69610 [cm^-1]
  Rotational constants: A = ************  B = 500536.47881  C = 500536.47881 [MHz]
  Nuclear repulsion =    4.102272147089690

  Charge       = 1
  Multiplicity = 3
  Electrons    = 8
  Nalpha       = 5
  Nbeta        = 3

  ==> Algorithm <==

  SCF Algorithm Type is DF.
  DIIS enabled.
  MOM disabled.
  Fractional occupation disabled.
  Guess Type is READ.
  Energy threshold   = 1.00e-08
  Density threshold  = 1.00e-08
  Integral threshold = 1.00e-12

  ==> Primary Basis <==

  Basis Set: CC-PVTZ
    Blend: CC-PVTZ
    Number of shells: 16
    Number of basis functions: 44
    Number of Cartesian functions: 50
    Spherical Harmonics?: true
    Max angular momentum: 3

  ==> DFT Potential <==

   => LibXC <=

    Version 6.2.2
    S. Lehtola, C. Steigemann, M. J.T. Oliveira, and M. A.L. Marques.,  SoftwareX 7, 1–5 (2018) (10.1016/j.softx.2017.11.002)

   => Composite Functional: B3LYP <= 

    B3LYP Hyb-GGA Exchange-Correlation Functional

    P. J. Stephens, F. J. Devlin, C. F. Chabalowski, and M. J. Frisch.,  J. Phys. Chem. 98, 11623 (1994) (10.1021/j100096a001)

    Deriv               =              1
    GGA                 =           TRUE
    Meta                =          FALSE

    Exchange Hybrid     =           TRUE
    MP2 Hybrid          =          FALSE

   => Exchange Functionals <=

    0.0800   Slater exchange
    0.7200         Becke 88

   => Exact (HF) Exchange <=

    0.2000               HF 

   => Correlation Functionals <=

    0.1900   Vosko, Wilk & Nusair (VWN5_RPA)
    0.8100   Lee, Yang & Parr

   => LibXC Density Thresholds  <==

    XC_HYB_GGA_XC_B3LYP:  1.00E-15 

   => Molecular Quadrature <=

    Radial Scheme          =       TREUTLER
    Pruning Scheme         =           NONE
    Nuclear Scheme         =       TREUTLER

    Blocking Scheme        =         OCTREE
    BS radius alpha        =              1
    Pruning alpha          =              1
    Radial Points          =             75
    Spherical Points       =            302
    Total Points           =          44136
    Total Blocks           =            393
    Max Points             =            256
    Max Functions          =             44
    Weights Tolerance      =       1.00E-15

   => Loading Basis Set <=

    Name: (CC-PVTZ AUX)
    Role: JKFIT
    Keyword: DF_BASIS_SCF
    atoms 1 entry O          line   229 file /Users/joseantoniorodriguesromero/anaconda3/share/psi4/basis/cc-pvtz-jkfit.gbs 
    atoms 2 entry H          line    51 file /Users/joseantoniorodriguesromero/anaconda3/share/psi4/basis/cc-pvtz-jkfit.gbs 

   => Loading Basis Set <=

    Name: CC-PVTZ
    Role: ORBITAL
    Keyword: BASIS
    atoms 1 entry O          line   262 file /Users/joseantoniorodriguesromero/anaconda3/share/psi4/basis/cc-pvtz.gbs 
    atoms 2 entry H          line    23 file /Users/joseantoniorodriguesromero/anaconda3/share/psi4/basis/cc-pvtz.gbs 

  Reading orbitals from file /tmp/scan_HO_21.default.68580.180.npy, no projection.

  ==> Integral Setup <==

  DFHelper Memory: AOs need 0.002 GiB; user supplied 0.312 GiB. 
  Using in-core AOs.

  ==> MemDFJK: Density-Fitted J/K Matrices <==

    J tasked:                   Yes
    K tasked:                   Yes
    wK tasked:                   No
    OpenMP threads:               1
    Memory [MiB]:               319
    Algorithm:                 Core
    Schwarz Cutoff:           1E-12
    Mask sparsity (%):       0.0000
    Fitting Condition:        1E-10

   => Auxiliary Basis Set <=

  Basis Set: (CC-PVTZ AUX)
    Blend: CC-PVTZ-JKFIT
    Number of shells: 35
    Number of basis functions: 109
    Number of Cartesian functions: 131
    Spherical Harmonics?: true
    Max angular momentum: 4

  Cached 100.0% of DFT collocation blocks in 0.055 [GiB].

  Minimum eigenvalue in the overlap matrix is 5.1369709801E-03.
  Reciprocal condition number of the overlap matrix is 1.3208624443E-03.
    Using symmetric orthogonalization.

  ==> Pre-Iterations <==

  SCF Guess: Orbitals guess was supplied from a previous computation.

   -------------------------------------------------------
    Irrep   Nso     Nmo     Nalpha   Nbeta   Ndocc  Nsocc
   -------------------------------------------------------
     A1        20      20       3       3       3       0
     A2         4       4       0       0       0       0
     B1        10      10       1       0       0       1
     B2        10      10       1       0       0       1
   -------------------------------------------------------
    Total      44      44       5       3       3       2
   -------------------------------------------------------

  ==> Iterations <==

                           Total Energy        Delta E     RMS |[F,P]|

   @DF-UKS iter   0:   -75.28115346528890   -7.52812e+01   6.96857e-12 
   @DF-UKS iter   1:   -75.28115346528899   -9.94760e-14   2.33227e-12 DIIS
  Energy and wave function converged.


  ==> Post-Iterations <==

   Electrons on quadrature grid:
      Nalpha   =    5.0000000014 ; deviation = 1.393e-09
      Nbeta    =    3.0000000160 ; deviation = 1.601e-08
      Ntotal   =    8.0000000174 ; deviation = 1.740e-08 

   @Spin Contamination Metric:   4.994520700E-03
   @S^2 Expected:                2.000000000E+00
   @S^2 Observed:                2.004994521E+00
   @S   Expected:                1.000000000E+00
   @S   Observed:                1.000000000E+00

    Orbital Energies [Eh]
    ---------------------

    Alpha Occupied:                                                       

       1A1   -19.817959     2A1    -1.565095     3A1    -0.979658  
       1B2    -0.947600     1B1    -0.947600  

    Alpha Virtual:                                                        

       4A1    -0.322857     5A1    -0.006808     2B1     0.134068  
       2B2     0.134068     6A1     0.171776     3B2     0.322609  
       3B1     0.322609     7A1     0.480187     8A1     0.808917  
       1A2     0.923926     9A1     0.923926     4B2     1.260438  
       4B1     1.260438    10A1     1.513098    11A1     1.948637  
      12A1     2.749257     2A2     2.749257     5B2     2.793069  
       5B1     2.793069    13A1     3.151909     6B1     3.166687  
       6B2     3.166687     7B2     3.525747     7B1     3.525747  
      14A1     3.678310    15A1     4.218749     8B1     4.502883  
       8B2     4.502883    16A1     4.738770     3A2     4.738770  
       4A2     5.529841    17A1     5.529842     9B1     5.585617  
       9B2     5.585617    18A1     5.712725    10B2     5.983820  
      10B1     5.983820    19A1     6.347974    20A1     9.101405  

    Beta Occupied:                                                        

       1A1   -19.761692     2A1    -1.411480     3A1    -0.925983  

    Beta Virtual:                                                         

       1B2    -0.644766     1B1    -0.644766     4A1    -0.306111  
       5A1    -0.000588     6A1     0.185889     2B1     0.200454  
       2B2     0.200454     3B2     0.337346     3B1     0.337346  
       7A1     0.534937     8A1     0.824518     9A1     1.035742  
       1A2     1.035742     4B2     1.314269     4B1     1.314269  
      10A1     1.541732    11A1     1.954969    12A1     2.755956  
       2A2     2.755957     5B1     2.868813     5B2     2.868813  
      13A1     3.163455     6B2     3.209444     6B1     3.209444  
       7B2     3.569057     7B1     3.569057    14A1     3.713574  
      15A1     4.275468     8B2     4.655004     8B1     4.655004  
      16A1     4.835839     3A2     4.835840     9B1     5.681709  
       9B2     5.681709     4A2     5.742702    17A1     5.742703  
      18A1     5.764660    10B2     6.060299    10B1     6.060299  
      19A1     6.414297    20A1     9.174968  

    Final Occupation by Irrep:
             A1    A2    B1    B2 
    DOCC [     3,    0,    0,    0 ]
    SOCC [     0,    0,    1,    1 ]
    NA   [     3,    0,    1,    1 ]
    NB   [     3,    0,    0,    0 ]

  @DF-UKS Final Energy:   -75.28115346528899

   => Energetics <=

    Nuclear Repulsion Energy =              4.1022721470896899
    One-Electron Energy =                -107.4738071736679785
    Two-Electron Energy =                  34.9576952055593253
    DFT Exchange-Correlation Energy =      -6.8673136442700304
    Empirical Dispersion Energy =           0.0000000000000000
    VV10 Nonlocal Energy =                  0.0000000000000000
    Total Energy =                        -75.2811534652889947

  UHF NO Occupations:
  HONO-2 :    3 A1 1.9981576
  HONO-1 :    1 B2 1.0000000
  HONO-0 :    1 B1 1.0000000
  LUNO+0 :    4 A1 0.0018424
  LUNO+1 :    5 A1 0.0006554
  LUNO+2 :    6 A1 0.0000014
  LUNO+3 :    7 A1 0.0000000


Computation Completed


Properties will be evaluated at   0.000000,   0.000000,   0.000000 [a0]

Properties computed using the B3LYP density matrix


 Multipole Moments:

 ------------------------------------------------------------------------------------
     Multipole            Electronic (a.u.)      Nuclear  (a.u.)        Total (a.u.)
 ------------------------------------------------------------------------------------

 L = 1.  Multiply by 2.5417464519 to convert [e a0] to [Debye]
 Dipole X            :          0.0000000            0.0000000            0.0000000
 Dipole Y            :          0.0000000            0.0000000            0.0000000
 Dipole Z            :         -0.0122480            0.9098013            0.8975533
 Magnitude           :                                                    0.8975533

 L = 2.  Multiply by 1.3450342976 to convert [e a0^2] to [Debye ang]
 Quadrupole XX       :         -3.0416058            0.0000000           -3.0416058
 Quadrupole XY       :          0.0000000            0.0000000            0.0000000
 Quadrupole XZ       :          0.0000000            0.0000000            0.0000000
 Quadrupole YY       :         -3.0416058            0.0000000           -3.0416058
 Quadrupole YZ       :          0.0000000            0.0000000            0.0000000
 Quadrupole ZZ       :         -4.9995416            3.4724520           -1.5270896
 Traceless XX        :          0.6526453           -1.1574840           -0.5048387
 Traceless YY        :          0.6526453           -1.1574840           -0.5048387
 Traceless ZZ        :         -1.3052906            2.3149680            1.0096775

 ------------------------------------------------------------------------------------
  ==> Computing MBIS Charges <==

  Electron Count from Grid (Expected Number):  8.00000 ( 8.00000)
  Difference:  0.00000

  MBIS Charges: (a.u.)
   Center  Symbol  Z      Pop.       Charge
      1       O    8    7.519435    0.480565
      2       H    1    0.480565    0.519435

  MBIS Dipoles: [e a0]
   Center  Symbol  Z        X           Y           Z
      1       O    8   -0.000000    0.000000   -0.051617
      2       H    1   -0.000000    0.000000    0.051793

  MBIS Quadrupoles: [e a0^2]
   Center  Symbol  Z      XX        XY        XZ        YY        YZ        ZZ
      1       O    8   -2.8364    0.0000    0.0000   -2.8364   -0.0000   -3.2894
      2       H    1   -0.2052   -0.0000    0.0000   -0.2052    0.0000   -0.1942

  MBIS Octupoles: [e a0^3]
   Center  Symbol  Z      XXX       XXY       XXZ       XYY       XYZ       XZZ       YYY       YYZ       YZZ       ZZZ
      1       O    8   -0.0000   -0.0000   -0.0292    0.0000   -0.0000   -0.0000   -0.0000   -0.0292    0.0000   -0.1455
      2       H    1   -0.0000    0.0000    0.0095    0.0000    0.0000    0.0000    0.0000    0.0095    0.0000    0.0418

  MBIS Radial Moments:
   Center  Symbol  Z      [a0^2]      [a0^3]      [a0^4]      
      1       O    8    8.962152   15.268211   31.130771
      2       H    1    0.604725    0.955665    1.804469

  MBIS Valence Widths: [a0]
   Center  Symbol  Z     Width
      1       O    8    0.358179
      2       H    1    0.328119

*** tstop() called on Mac.lan at Wed Aug 27 11:00:40 2025
Module time:
	user time   =       3.04 seconds =       0.05 minutes
	system time =       1.68 seconds =       0.03 minutes
	total time  =          1 seconds =       0.02 minutes
Total time:
	user time   =      12.28 seconds =       0.20 minutes
	system time =       4.06 seconds =       0.07 minutes
	total time  =          2 seconds =       0.03 minutes

    Psi4 stopped on: Wednesday, 27 August 2025 11:00AM
    Psi4 wall time for execution: 0:00:01.62

*** Psi4 exiting successfully. Buy a developer a beer!
