
    -----------------------------------------------------------------------
          Psi4: An Open-Source Ab Initio Electronic Structure Package
                               Psi4 1.10 release

                         Git: Rev {} zzzzzzz 


    D. G. A. Smith, L. A. Burns, A. C. Simmonett, R. M. Parrish,
    M. C. Schieber, R. Galvelis, P. Kraus, H. Kruse, R. Di Remigio,
    A. Alenaizan, A. M. James, S. Lehtola, J. P. Misiewicz, M. Scheurer,
    R. A. Shaw, J. B. Schriber, Y. Xie, Z. L. Glick, D. A. Sirianni,
    J. S. O'Brien, J. M. Waldrop, A. Kumar, E. G. Hohenstein,
    B. P. Pritchard, B. R. Brooks, H. F. Schaefer III, A. Yu. Sokolov,
    K. Patkowski, A. E. DePrince III, U. Bozkaya, R. A. King,
    F. A. Evangelista, J. M. Turney, T. D. Crawford, C. D. Sherrill,
    J. Chem. Phys. 152(18) 184108 (2020). https://doi.org/10.1063/5.0006002

                            Additional Code Authors
    E. T. Seidl, C. L. Janssen, E. F. Valeev, M. L. Leininger,
    J. F. Gonthier, R. M. Richard, H. R. McAlexander, M. Saitow, X. Wang,
    P. Verma, M. H. Lechner, A. Jiang, S. Behnle, A. G. Heide,
    M. F. Herbst, D. L. Poole, T. Győri, E. C. Mitchell, J. P. Pederson,
    and A. M. Wallace

             Previous Authors, Complete List of Code Contributors,
                       and Citations for Specific Modules
    https://github.com/psi4/psi4/blob/master/codemeta.json
    https://github.com/psi4/psi4/graphs/contributors
    https://psicode.org/psi4manual/master/introduction.html#citing-psifour

    -----------------------------------------------------------------------


    Psi4 started on: Tuesday, 23 December 2025 01:38PM

    Process ID: 502268
    Host:       cics-quant-001
    PSIDATADIR: /home/jrodriguesro/psi4conda/share/psi4
    Memory:     500.0 MiB
    Threads:    5
    Addons:     adcc, a̶m̶b̶i̶t̶, b̶s̶e̶, c̶c̶t̶3̶, c̶f̶o̶u̶r̶, c̶h̶e̶m̶p̶s̶2̶, c̶p̶p̶e̶, ddx, dftd3, dftd4,
                dkh, ecpint, einsums, f̶o̶r̶t̶e̶, g̶a̶u̶x̶c̶, gcp, g̶d̶m̶a̶, geometric,
                g̶p̶u̶_̶d̶f̶c̶c̶, i̶n̶t̶e̶g̶r̶a̶t̶o̶r̶x̶x̶, i̶p̶i̶, libefp, m̶d̶i̶, m̶p̶2̶d̶,
                m̶r̶c̶c̶, ooo, o̶p̶e̶n̶f̶e̶r̶m̶i̶o̶n̶p̶s̶i̶4̶, pcmsolver, p̶s̶i̶4̶f̶o̶c̶k̶c̶i̶,
                p̶s̶i̶x̶a̶s̶, r̶e̶s̶p̶, s̶i̶m̶i̶n̶t̶, s̶n̶s̶m̶p̶2̶, v̶2̶r̶d̶m̶_̶c̶a̶s̶s̶c̶f̶

  ==> Input File <==

--------------------------------------------------------------------------
molecule { 
1 2
N           0.000000           0.000000           0.000000
N           0.000000           0.000000           0.983023
}

set { 
basis              cc-pvtz
reference          uks
maxiter            500
DAMPING_PERCENTAGE 1
E_CONVERGENCE      1.0E-8
D_CONVERGENCE      1.0E-8
DIIS_MAX_VECS      400
MBIS_MAXITER       8000
guess              read
}

E, wfn = energy('b3lyp', restart_file='last_wfn', return_wfn=True)
properties('b3lyp','MBIS_CHARGES', wfn=wfn)
wfn.to_file('last_wfn')
--------------------------------------------------------------------------

Scratch directory: /tmp/
 Found user provided orbital data. Setting orbital guess to READ 
 Copying restart file <last_wfn.npy> to </tmp/scan_NN_18.default.502268.180.npy> for internal processing
   => Libint2 <=

    Primary   basis highest AM E, G, H:  6, 6, 3
    Auxiliary basis highest AM E, G, H:  7, 7, 4
    Onebody   basis highest AM E, G, H:  -, -, -
    Solid Harmonics ordering:            Gaussian

*** tstart() called on cics-quant-001
*** at Tue Dec 23 13:38:39 2025

   => Loading Basis Set <=

    Name: CC-PVTZ
    Role: ORBITAL
    Keyword: BASIS
    atoms 1-2 entry N          line   224 file /home/jrodriguesro/psi4conda/share/psi4/basis/cc-pvtz.gbs 


         ---------------------------------------------------------
                                   SCF
               by Justin Turney, Rob Parrish, Andy Simmonett
                          and Daniel G. A. Smith
                              UKS Reference
                        5 Threads,    500 MiB Core
         ---------------------------------------------------------

  ==> Geometry <==

    Molecular point group: d2h
    Full point group: D_inf_h

    Geometry (in Angstrom), charge = 1, multiplicity = 2:

       Center              X                  Y                   Z               Mass       
    ------------   -----------------  -----------------  -----------------  -----------------
         N            0.000000000000     0.000000000000    -0.491511500000    14.003074004430
         N            0.000000000000     0.000000000000     0.491511500000    14.003074004430

  Running in d2h symmetry.

  Rotational constants: A = ************  B =      2.49159  C =      2.49159 [cm^-1]
  Rotational constants: A = ************  B =  74695.84636  C =  74695.84636 [MHz]
  Nuclear repulsion =   26.377494039132351

  Charge       = 1
  Multiplicity = 2
  Electrons    = 13
  Nalpha       = 7
  Nbeta        = 6

  ==> Algorithm <==

  SCF Algorithm Type is DF.
  DIIS enabled.
  MOM disabled.
  Fractional occupation disabled.
  Guess Type is READ.
  Energy threshold   = 1.00e-08
  Density threshold  = 1.00e-08
  Integral threshold = 1.00e-12

  ==> Primary Basis <==

  Basis Set: CC-PVTZ
    Blend: CC-PVTZ
    Number of shells: 20
    Number of basis functions: 60
    Number of Cartesian functions: 70
    Spherical Harmonics?: true
    Max angular momentum: 3

  ==> DFT Potential <==

   => LibXC <=

    Version 7.0.0
    S. Lehtola, C. Steigemann, M. J.T. Oliveira, and M. A.L. Marques.,  SoftwareX 7, 1–5 (2018) (10.1016/j.softx.2017.11.002)

   => Composite Functional: B3LYP <= 

    B3LYP Hyb-GGA Exchange-Correlation Functional

    P. J. Stephens, F. J. Devlin, C. F. Chabalowski, and M. J. Frisch.,  J. Phys. Chem. 98, 11623 (1994) (10.1021/j100096a001)

    Deriv               =              1
    GGA                 =           TRUE
    Meta                =          FALSE

    Exchange Hybrid     =           TRUE
    MP2 Hybrid          =          FALSE

   => Exchange Functionals <=

    0.0800   Slater exchange
    0.7200         Becke 88

   => Exact (HF) Exchange <=

    0.2000               HF 

   => Correlation Functionals <=

    0.1900   Vosko, Wilk & Nusair (VWN5_RPA)
    0.8100   Lee, Yang & Parr

   => LibXC Density Thresholds  <==

    XC_HYB_GGA_XC_B3LYP:  1.00E-15 

   => Molecular Quadrature <=

    Radial Scheme          =       TREUTLER
    Pruning Scheme         =           NONE
    Nuclear Scheme         =       TREUTLER

    Blocking Scheme        =         OCTREE
    BS radius alpha        =              1
    Pruning alpha          =              1
    Radial Points          =             75
    Spherical Points       =            302
    Total Points           =          42424
    Total Blocks           =            376
    Max Points             =            254
    Max Functions          =             60
    Weights Tolerance      =       1.00E-15

   => Loading Basis Set <=

    Name: (CC-PVTZ AUX)
    Role: JKFIT
    Keyword: DF_BASIS_SCF
    atoms 1-2 entry N          line   177 file /home/jrodriguesro/psi4conda/share/psi4/basis/cc-pvtz-jkfit.gbs 

   => Loading Basis Set <=

    Name: CC-PVTZ
    Role: ORBITAL
    Keyword: BASIS
    atoms 1-2 entry N          line   224 file /home/jrodriguesro/psi4conda/share/psi4/basis/cc-pvtz.gbs 

  Reading orbitals from file /tmp/scan_NN_18.default.502268.180.npy, no projection.

  ==> Integral Setup <==

  DFHelper Memory: AOs need 0.005 GiB; user supplied 0.295 GiB. 
  SCF_SUBTYPE=INCORE selected. In-core MEM_DF algorithm will be used.
  Using in-core AOs.

  ==> MemDFJK: Density-Fitted J/K Matrices <==

    J tasked:                   Yes
    K tasked:                   Yes
    wK tasked:                   No
    OpenMP threads:               5
    Memory [MiB]:               301
    Algorithm:                 Core
    Schwarz Cutoff:           1E-12
    Mask sparsity (%):       0.0000
    Fitting Condition:        1E-10

   => Auxiliary Basis Set <=

  Basis Set: (CC-PVTZ AUX)
    Blend: CC-PVTZ-JKFIT
    Number of shells: 50
    Number of basis functions: 158
    Number of Cartesian functions: 192
    Spherical Harmonics?: true
    Max angular momentum: 4

  Cached 100.0% of DFT collocation blocks in 0.071 [GiB].

  Minimum eigenvalue in the overlap matrix is 1.6122151938E-03.
  Reciprocal condition number of the overlap matrix is 4.1654805785E-04.
    Using symmetric orthogonalization.

  ==> Pre-Iterations <==

  SCF Guess: Orbitals guess was supplied from a previous computation.

   -------------------------------------------------------
    Irrep   Nso     Nmo     Nalpha   Nbeta   Ndocc  Nsocc
   -------------------------------------------------------
     Ag        13      13       3       3       3       0
     B1g        3       3       0       0       0       0
     B2g        7       7       0       0       0       0
     B3g        7       7       0       0       0       0
     Au         3       3       0       0       0       0
     B1u       13      13       2       2       2       0
     B2u        7       7       1       1       1       0
     B3u        7       7       1       0       0       1
   -------------------------------------------------------
    Total      60      60       7       6       6       1
   -------------------------------------------------------

  ==> Iterations <==

                           Total Energy        Delta E     RMS |[F,P]|

   @DF-UKS iter   0:  -108.88388256752242   -1.08884e+02   1.01258e-02 
   @DF-UKS iter   1:  -108.85519073610861    2.86918e-02   6.96491e-04 DIIS/ADIIS
   @DF-UKS iter   2:  -108.85526952269511   -7.87866e-05   2.45249e-04 DIIS/ADIIS/DAMP=1%
   @DF-UKS iter   3:  -108.85538282813019   -1.13305e-04   2.75271e-05 DIIS/DAMP=1%
   @DF-UKS iter   4:  -108.85526280099536    1.20027e-04   5.09278e-06 DIIS/DAMP=1%
   @DF-UKS iter   5:  -108.85528229946925   -1.94985e-05   2.68436e-07 DIIS/DAMP=1%
   @DF-UKS iter   6:  -108.85527931446303    2.98501e-06   2.15801e-08 DIIS/DAMP=1%
   @DF-UKS iter   7:  -108.85527939146915   -7.70061e-08   2.63430e-09 DIIS/DAMP=1%
   @DF-UKS iter   8:  -108.85527938809663    3.37252e-09   2.09991e-10 DIIS/DAMP=1%
  Energy and wave function converged.


  ==> Post-Iterations <==

   Electrons on quadrature grid:
      Nalpha   =    6.9999996983 ; deviation = -3.017e-07
      Nbeta    =    5.9999997359 ; deviation = -2.641e-07
      Ntotal   =   12.9999994342 ; deviation = -5.658e-07 

   @Spin Contamination Metric:   1.265041863E-03
   @S^2 Expected:                7.500000000E-01
   @S^2 Observed:                7.512650419E-01
   @S   Expected:                5.000000000E-01
   @S   Observed:                5.000000000E-01

    Orbital Energies [Eh]
    ---------------------

    Alpha Occupied:                                                       

       1Ag   -14.907635     1B1u  -14.902428     2Ag    -1.729142  
       1B3u   -1.025368     1B2u   -0.975017     2B1u   -0.956572  
       3Ag    -0.873081  

    Alpha Virtual:                                                        

       1B2g   -0.428859     1B3g   -0.390089     2B3u    0.027809  
       3B1u    0.031068     2B2u    0.045527     4Ag     0.087202  
       5Ag     0.131258     2B2g    0.214425     2B3g    0.229933  
       4B1u    0.404478     1B1g    0.405271     6Ag     0.406087  
       5B1u    0.625677     3B3u    0.748307     3B2u    0.778211  
       1Au     0.914277     6B1u    0.915041     7Ag     1.291068  
       3B2g    1.323722     3B3g    1.342110     7B1u    1.745326  
       4B3u    2.235008     4B2u    2.270983     8Ag     2.530165  
       4B2g    2.715783     4B3g    2.752752     8B1u    2.914441  
       2B1g    3.021148     9Ag     3.022395     5B3u    3.068242  
       5B2u    3.068387     6B3u    3.194651     6B2u    3.235135  
      10Ag     3.622230     5B2g    3.712121     5B3g    3.712235  
       3B1g    3.897069    11Ag     3.897504     6B2g    3.929790  
       6B3g    3.953990     9B1u    4.018191     2Au     4.018248  
      10B1u    4.475372    12Ag     4.515262     7B3u    4.702961  
       3Au     4.722824    11B1u    4.724204     7B2u    4.735422  
      12B1u    5.603412     7B2g    6.424945     7B3g    6.462600  
      13Ag     6.847107    13B1u   19.800141  

    Beta Occupied:                                                        

       1Ag   -14.896541     1B1u  -14.891574     2Ag    -1.672590  
       1B2u   -0.959232     2B1u   -0.931182     3Ag    -0.858644  

    Beta Virtual:                                                         

       1B3u   -0.830661     1B3g   -0.379580     1B2g   -0.348455  
       3B1u    0.036312     2B2u    0.048562     2B3u    0.054574  
       4Ag     0.097043     5Ag     0.141081     2B3g    0.233047  
       2B2g    0.239434     4B1u    0.415564     1B1g    0.438594  
       6Ag     0.441518     5B1u    0.649872     3B2u    0.782640  
       3B3u    0.784021     1Au     0.934243     6B1u    0.935956  
       7Ag     1.300185     3B3g    1.343737     3B2g    1.345203  
       7B1u    1.762472     4B2u    2.280397     4B3u    2.295942  
       8Ag     2.556531     4B3g    2.762278     4B2g    2.772707  
       8B1u    2.929081     2B1g    3.059888     9Ag     3.063254  
       5B2u    3.109208     5B3u    3.110165     6B2u    3.241689  
       6B3u    3.252186    10Ag     3.637709     5B3g    3.748876  
       5B2g    3.749756     3B1g    3.938846    11Ag     3.943383  
       6B3g    3.955594     6B2g    3.958753     2Au     4.059560  
       9B1u    4.064057    10B1u    4.496913    12Ag     4.531983  
       7B2u    4.739732     7B3u    4.741644     3Au     4.754786  
      11B1u    4.758590    12B1u    5.622450     7B3g    6.468982  
       7B2g    6.476828    13Ag     6.872487    13B1u   19.815137  

    Final Occupation by Irrep:
             Ag   B1g   B2g   B3g    Au   B1u   B2u   B3u 
    DOCC [     3,    0,    0,    0,    0,    2,    1,    0 ]
    SOCC [     0,    0,    0,    0,    0,    0,    0,    1 ]
    NA   [     3,    0,    0,    0,    0,    2,    1,    1 ]
    NB   [     3,    0,    0,    0,    0,    2,    1,    0 ]

  @DF-UKS Final Energy:  -108.85527938809663

   => Energetics <=

    Nuclear Repulsion Energy =             26.3774940391323511
    One-Electron Energy =                -193.0410860841451495
    Two-Electron Energy =                  68.7113040815129068
    DFT Exchange-Correlation Energy =     -10.9029914245967490
    Empirical Dispersion Energy =           0.0000000000000000
    VV10 Nonlocal Energy =                  0.0000000000000000
    Total Energy =                       -108.8552793880966334

  UHF NO Occupations:
  HONO-2 :    2B1u 1.9997231
  HONO-1 :    3 Ag 1.9997184
  HONO-0 :    1B3u 1.0000000
  LUNO+0 :    4 Ag 0.0002816
  LUNO+1 :    3B1u 0.0002769
  LUNO+2 :    5 Ag 0.0000376
  LUNO+3 :    2B2u 0.0000360


Computation Completed


Properties will be evaluated at   0.000000,   0.000000,   0.000000 [a0]

Properties computed using the SCF density matrix


 Multipole Moments:

 ------------------------------------------------------------------------------------
     Multipole            Electronic (a.u.)      Nuclear  (a.u.)        Total (a.u.)
 ------------------------------------------------------------------------------------

 L = 1.  Multiply by 2.5417464519 to convert [e a0] to [Debye]
 Dipole X            :          0.0000000            0.0000000            0.0000000
 Dipole Y            :          0.0000000            0.0000000            0.0000000
 Dipole Z            :          0.0000000            0.0000000            0.0000000
 Magnitude           :                                                    0.0000000

 ------------------------------------------------------------------------------------

*** tstop() called on cics-quant-001 at Tue Dec 23 13:38:39 2025
Module time:
	user time   =       0.94 seconds =       0.02 minutes
	system time =       0.04 seconds =       0.00 minutes
	total time  =          0 seconds =       0.00 minutes
Total time:
	user time   =       0.94 seconds =       0.02 minutes
	system time =       0.04 seconds =       0.00 minutes
	total time  =          0 seconds =       0.00 minutes

*** tstart() called on cics-quant-001
*** at Tue Dec 23 13:38:39 2025

   => Libint2 <=

    Primary   basis highest AM E, G, H:  6, 6, 3
    Auxiliary basis highest AM E, G, H:  7, 7, 4
    Onebody   basis highest AM E, G, H:  -, -, -
    Solid Harmonics ordering:            Gaussian
   => Loading Basis Set <=

    Name: CC-PVTZ
    Role: ORBITAL
    Keyword: BASIS
    atoms 1-2 entry N          line   224 file /home/jrodriguesro/psi4conda/share/psi4/basis/cc-pvtz.gbs 


         ---------------------------------------------------------
                                   SCF
               by Justin Turney, Rob Parrish, Andy Simmonett
                          and Daniel G. A. Smith
                              UKS Reference
                        5 Threads,    500 MiB Core
         ---------------------------------------------------------

  ==> Geometry <==

    Molecular point group: d2h
    Full point group: D_inf_h

    Geometry (in Angstrom), charge = 1, multiplicity = 2:

       Center              X                  Y                   Z               Mass       
    ------------   -----------------  -----------------  -----------------  -----------------
         N            0.000000000000     0.000000000000    -0.491511500000    14.003074004430
         N            0.000000000000     0.000000000000     0.491511500000    14.003074004430

  Running in d2h symmetry.

  Rotational constants: A = ************  B =      2.49159  C =      2.49159 [cm^-1]
  Rotational constants: A = ************  B =  74695.84636  C =  74695.84636 [MHz]
  Nuclear repulsion =   26.377494039132351

  Charge       = 1
  Multiplicity = 2
  Electrons    = 13
  Nalpha       = 7
  Nbeta        = 6

  ==> Algorithm <==

  SCF Algorithm Type is DF.
  DIIS enabled.
  MOM disabled.
  Fractional occupation disabled.
  Guess Type is READ.
  Energy threshold   = 1.00e-08
  Density threshold  = 1.00e-08
  Integral threshold = 1.00e-12

  ==> Primary Basis <==

  Basis Set: CC-PVTZ
    Blend: CC-PVTZ
    Number of shells: 20
    Number of basis functions: 60
    Number of Cartesian functions: 70
    Spherical Harmonics?: true
    Max angular momentum: 3

  ==> DFT Potential <==

   => LibXC <=

    Version 7.0.0
    S. Lehtola, C. Steigemann, M. J.T. Oliveira, and M. A.L. Marques.,  SoftwareX 7, 1–5 (2018) (10.1016/j.softx.2017.11.002)

   => Composite Functional: B3LYP <= 

    B3LYP Hyb-GGA Exchange-Correlation Functional

    P. J. Stephens, F. J. Devlin, C. F. Chabalowski, and M. J. Frisch.,  J. Phys. Chem. 98, 11623 (1994) (10.1021/j100096a001)

    Deriv               =              1
    GGA                 =           TRUE
    Meta                =          FALSE

    Exchange Hybrid     =           TRUE
    MP2 Hybrid          =          FALSE

   => Exchange Functionals <=

    0.0800   Slater exchange
    0.7200         Becke 88

   => Exact (HF) Exchange <=

    0.2000               HF 

   => Correlation Functionals <=

    0.1900   Vosko, Wilk & Nusair (VWN5_RPA)
    0.8100   Lee, Yang & Parr

   => LibXC Density Thresholds  <==

    XC_HYB_GGA_XC_B3LYP:  1.00E-15 

   => Molecular Quadrature <=

    Radial Scheme          =       TREUTLER
    Pruning Scheme         =           NONE
    Nuclear Scheme         =       TREUTLER

    Blocking Scheme        =         OCTREE
    BS radius alpha        =              1
    Pruning alpha          =              1
    Radial Points          =             75
    Spherical Points       =            302
    Total Points           =          42424
    Total Blocks           =            376
    Max Points             =            254
    Max Functions          =             60
    Weights Tolerance      =       1.00E-15

   => Loading Basis Set <=

    Name: (CC-PVTZ AUX)
    Role: JKFIT
    Keyword: DF_BASIS_SCF
    atoms 1-2 entry N          line   177 file /home/jrodriguesro/psi4conda/share/psi4/basis/cc-pvtz-jkfit.gbs 

   => Loading Basis Set <=

    Name: CC-PVTZ
    Role: ORBITAL
    Keyword: BASIS
    atoms 1-2 entry N          line   224 file /home/jrodriguesro/psi4conda/share/psi4/basis/cc-pvtz.gbs 

  Reading orbitals from file /tmp/scan_NN_18.default.502268.180.npy, no projection.

  ==> Integral Setup <==

  DFHelper Memory: AOs need 0.005 GiB; user supplied 0.295 GiB. 
  SCF_SUBTYPE=INCORE selected. In-core MEM_DF algorithm will be used.
  Using in-core AOs.

  ==> MemDFJK: Density-Fitted J/K Matrices <==

    J tasked:                   Yes
    K tasked:                   Yes
    wK tasked:                   No
    OpenMP threads:               5
    Memory [MiB]:               301
    Algorithm:                 Core
    Schwarz Cutoff:           1E-12
    Mask sparsity (%):       0.0000
    Fitting Condition:        1E-10

   => Auxiliary Basis Set <=

  Basis Set: (CC-PVTZ AUX)
    Blend: CC-PVTZ-JKFIT
    Number of shells: 50
    Number of basis functions: 158
    Number of Cartesian functions: 192
    Spherical Harmonics?: true
    Max angular momentum: 4

  Cached 100.0% of DFT collocation blocks in 0.071 [GiB].

  Minimum eigenvalue in the overlap matrix is 1.6122151938E-03.
  Reciprocal condition number of the overlap matrix is 4.1654805785E-04.
    Using symmetric orthogonalization.

  ==> Pre-Iterations <==

  SCF Guess: Orbitals guess was supplied from a previous computation.

   -------------------------------------------------------
    Irrep   Nso     Nmo     Nalpha   Nbeta   Ndocc  Nsocc
   -------------------------------------------------------
     Ag        13      13       3       3       3       0
     B1g        3       3       0       0       0       0
     B2g        7       7       0       0       0       0
     B3g        7       7       0       0       0       0
     Au         3       3       0       0       0       0
     B1u       13      13       2       2       2       0
     B2u        7       7       1       1       1       0
     B3u        7       7       1       0       0       1
   -------------------------------------------------------
    Total      60      60       7       6       6       1
   -------------------------------------------------------

  ==> Iterations <==

                           Total Energy        Delta E     RMS |[F,P]|

   @DF-UKS iter   0:  -108.85527938907875   -1.08855e+02   1.41643e-11 
   @DF-UKS iter   1:  -108.85527938907876   -1.42109e-14   4.49154e-12 DIIS
  Energy and wave function converged.


  ==> Post-Iterations <==

   Electrons on quadrature grid:
      Nalpha   =    6.9999996983 ; deviation = -3.017e-07
      Nbeta    =    5.9999997359 ; deviation = -2.641e-07
      Ntotal   =   12.9999994342 ; deviation = -5.658e-07 

   @Spin Contamination Metric:   1.265041870E-03
   @S^2 Expected:                7.500000000E-01
   @S^2 Observed:                7.512650419E-01
   @S   Expected:                5.000000000E-01
   @S   Observed:                5.000000000E-01

    Orbital Energies [Eh]
    ---------------------

    Alpha Occupied:                                                       

       1Ag   -14.907635     1B1u  -14.902428     2Ag    -1.729142  
       1B3u   -1.025368     1B2u   -0.975017     2B1u   -0.956572  
       3Ag    -0.873081  

    Alpha Virtual:                                                        

       1B2g   -0.428859     1B3g   -0.390089     2B3u    0.027809  
       3B1u    0.031068     2B2u    0.045527     4Ag     0.087202  
       5Ag     0.131258     2B2g    0.214425     2B3g    0.229933  
       4B1u    0.404478     1B1g    0.405271     6Ag     0.406087  
       5B1u    0.625677     3B3u    0.748307     3B2u    0.778211  
       1Au     0.914277     6B1u    0.915041     7Ag     1.291068  
       3B2g    1.323722     3B3g    1.342110     7B1u    1.745326  
       4B3u    2.235008     4B2u    2.270983     8Ag     2.530165  
       4B2g    2.715783     4B3g    2.752752     8B1u    2.914441  
       2B1g    3.021148     9Ag     3.022395     5B3u    3.068242  
       5B2u    3.068387     6B3u    3.194651     6B2u    3.235135  
      10Ag     3.622230     5B2g    3.712121     5B3g    3.712235  
       3B1g    3.897069    11Ag     3.897504     6B2g    3.929790  
       6B3g    3.953990     9B1u    4.018191     2Au     4.018248  
      10B1u    4.475372    12Ag     4.515262     7B3u    4.702961  
       3Au     4.722824    11B1u    4.724204     7B2u    4.735422  
      12B1u    5.603412     7B2g    6.424945     7B3g    6.462600  
      13Ag     6.847107    13B1u   19.800141  

    Beta Occupied:                                                        

       1Ag   -14.896541     1B1u  -14.891574     2Ag    -1.672590  
       1B2u   -0.959232     2B1u   -0.931182     3Ag    -0.858644  

    Beta Virtual:                                                         

       1B3u   -0.830661     1B3g   -0.379580     1B2g   -0.348455  
       3B1u    0.036312     2B2u    0.048562     2B3u    0.054574  
       4Ag     0.097043     5Ag     0.141081     2B3g    0.233047  
       2B2g    0.239434     4B1u    0.415564     1B1g    0.438594  
       6Ag     0.441518     5B1u    0.649872     3B2u    0.782640  
       3B3u    0.784021     1Au     0.934243     6B1u    0.935956  
       7Ag     1.300185     3B3g    1.343737     3B2g    1.345203  
       7B1u    1.762472     4B2u    2.280397     4B3u    2.295942  
       8Ag     2.556531     4B3g    2.762278     4B2g    2.772707  
       8B1u    2.929081     2B1g    3.059888     9Ag     3.063254  
       5B2u    3.109208     5B3u    3.110165     6B2u    3.241689  
       6B3u    3.252186    10Ag     3.637709     5B3g    3.748876  
       5B2g    3.749756     3B1g    3.938846    11Ag     3.943383  
       6B3g    3.955594     6B2g    3.958753     2Au     4.059560  
       9B1u    4.064057    10B1u    4.496913    12Ag     4.531983  
       7B2u    4.739732     7B3u    4.741644     3Au     4.754786  
      11B1u    4.758590    12B1u    5.622450     7B3g    6.468982  
       7B2g    6.476828    13Ag     6.872487    13B1u   19.815137  

    Final Occupation by Irrep:
             Ag   B1g   B2g   B3g    Au   B1u   B2u   B3u 
    DOCC [     3,    0,    0,    0,    0,    2,    1,    0 ]
    SOCC [     0,    0,    0,    0,    0,    0,    0,    1 ]
    NA   [     3,    0,    0,    0,    0,    2,    1,    1 ]
    NB   [     3,    0,    0,    0,    0,    2,    1,    0 ]

  @DF-UKS Final Energy:  -108.85527938907876

   => Energetics <=

    Nuclear Repulsion Energy =             26.3774940391323511
    One-Electron Energy =                -193.0410860756188924
    Two-Electron Energy =                  68.7113040707389473
    DFT Exchange-Correlation Energy =     -10.9029914233311711
    Empirical Dispersion Energy =           0.0000000000000000
    VV10 Nonlocal Energy =                  0.0000000000000000
    Total Energy =                       -108.8552793890787598

  UHF NO Occupations:
  HONO-2 :    2B1u 1.9997231
  HONO-1 :    3 Ag 1.9997184
  HONO-0 :    1B3u 1.0000000
  LUNO+0 :    4 Ag 0.0002816
  LUNO+1 :    3B1u 0.0002769
  LUNO+2 :    5 Ag 0.0000376
  LUNO+3 :    2B2u 0.0000360


Computation Completed


Properties will be evaluated at   0.000000,   0.000000,   0.000000 [a0]

Properties computed using the B3LYP density matrix


 Multipole Moments:

 ------------------------------------------------------------------------------------
     Multipole            Electronic (a.u.)      Nuclear  (a.u.)        Total (a.u.)
 ------------------------------------------------------------------------------------

 L = 1.  Multiply by 2.5417464519 to convert [e a0] to [Debye]
 Dipole X            :          0.0000000            0.0000000            0.0000000
 Dipole Y            :          0.0000000            0.0000000            0.0000000
 Dipole Z            :          0.0000000            0.0000000            0.0000000
 Magnitude           :                                                    0.0000000

 L = 2.  Multiply by 1.3450342976 to convert [e a0^2] to [Debye ang]
 Quadrupole XX       :         -5.2763748            0.0000000           -5.2763748
 Quadrupole XY       :          0.0000000            0.0000000            0.0000000
 Quadrupole XZ       :          0.0000000            0.0000000            0.0000000
 Quadrupole YY       :         -6.0318554            0.0000000           -6.0318554
 Quadrupole YZ       :          0.0000000            0.0000000            0.0000000
 Quadrupole ZZ       :        -18.3346842           12.0779475           -6.2567367
 Traceless XX        :          4.6045967           -4.0259825            0.5786142
 Traceless YY        :          3.8491161           -4.0259825           -0.1768664
 Traceless ZZ        :         -8.4537127            8.0519650           -0.4017477

 ------------------------------------------------------------------------------------
  ==> Computing MBIS Charges <==

  Electron Count from Grid (Expected Number): 13.00000 (13.00000)
  Difference: -0.00000

  MBIS Charges: (a.u.)
   Center  Symbol  Z      Pop.       Charge
      1       N    7    6.500000    0.500000
      2       N    7    6.500000    0.500000

  MBIS Dipoles: [e a0]
   Center  Symbol  Z        X           Y           Z
      1       N    7    0.000000   -0.000000    0.114440
      2       N    7   -0.000000    0.000000   -0.114440

  MBIS Quadrupoles: [e a0^2]
   Center  Symbol  Z      XX        XY        XZ        YY        YZ        ZZ
      1       N    7   -2.6382    0.0000   -0.0000   -3.0159    0.0000   -3.3471
      2       N    7   -2.6382    0.0000    0.0000   -3.0159   -0.0000   -3.3471

  MBIS Octupoles: [e a0^3]
   Center  Symbol  Z      XXX       XXY       XXZ       XYY       XYZ       XZZ       YYY       YYZ       YZZ       ZZZ
      1       N    7   -0.0000   -0.0000    0.1648    0.0000    0.0000    0.0000   -0.0000    0.0569   -0.0000    0.2655
      2       N    7   -0.0000   -0.0000   -0.1648    0.0000   -0.0000    0.0000   -0.0000   -0.0569   -0.0000   -0.2655

  MBIS Radial Moments:
   Center  Symbol  Z      [a0^2]      [a0^3]      [a0^4]      
      1       N    7    9.001249   16.818745   37.598030
      2       N    7    9.001249   16.818745   37.598030

  MBIS Valence Widths: [a0]
   Center  Symbol  Z     Width
      1       N    7    0.394139
      2       N    7    0.394139


  MBIS Valence Charges: (a.u.)
   Center  Symbol  Z     Charge
      1       N    7   -4.923989
      2       N    7   -4.923989

*** tstop() called on cics-quant-001 at Tue Dec 23 13:38:39 2025
Module time:
	user time   =       0.58 seconds =       0.01 minutes
	system time =       0.04 seconds =       0.00 minutes
	total time  =          0 seconds =       0.00 minutes
Total time:
	user time   =       1.53 seconds =       0.03 minutes
	system time =       0.08 seconds =       0.00 minutes
	total time  =          0 seconds =       0.00 minutes

    Psi4 stopped on: Tuesday, 23 December 2025 01:38PM
    Psi4 wall time for execution: 0:00:00.69

*** Psi4 exiting successfully. Buy a developer a beer!
