
    -----------------------------------------------------------------------
          Psi4: An Open-Source Ab Initio Electronic Structure Package
                               Psi4 1.9.1 release

                         Git: Rev {} zzzzzzz 


    D. G. A. Smith, L. A. Burns, A. C. Simmonett, R. M. Parrish,
    M. C. Schieber, R. Galvelis, P. Kraus, H. Kruse, R. Di Remigio,
    A. Alenaizan, A. M. James, S. Lehtola, J. P. Misiewicz, M. Scheurer,
    R. A. Shaw, J. B. Schriber, Y. Xie, Z. L. Glick, D. A. Sirianni,
    J. S. O'Brien, J. M. Waldrop, A. Kumar, E. G. Hohenstein,
    B. P. Pritchard, B. R. Brooks, H. F. Schaefer III, A. Yu. Sokolov,
    K. Patkowski, A. E. DePrince III, U. Bozkaya, R. A. King,
    F. A. Evangelista, J. M. Turney, T. D. Crawford, C. D. Sherrill,
    J. Chem. Phys. 152(18) 184108 (2020). https://doi.org/10.1063/5.0006002

                            Additional Code Authors
    E. T. Seidl, C. L. Janssen, E. F. Valeev, M. L. Leininger,
    J. F. Gonthier, R. M. Richard, H. R. McAlexander, M. Saitow, X. Wang,
    P. Verma, M. H. Lechner, A. Jiang, S. Behnle, A. G. Heide,
    M. F. Herbst, and D. L. Poole

             Previous Authors, Complete List of Code Contributors,
                       and Citations for Specific Modules
    https://github.com/psi4/psi4/blob/master/codemeta.json
    https://github.com/psi4/psi4/graphs/contributors
    http://psicode.org/psi4manual/master/introduction.html#citing-psifour

    -----------------------------------------------------------------------


    Psi4 started on: Wednesday, 27 August 2025 10:44AM

    Process ID: 68101
    Host:       Mac.lan
    PSIDATADIR: /Users/joseantoniorodriguesromero/anaconda3/share/psi4
    Memory:     500.0 MiB
    Threads:    1
    
  ==> Input File <==

--------------------------------------------------------------------------
molecule { 
1 2
N           0.000000           0.000000           0.000000
N           0.000000           0.000000           0.561406
}

set { 
basis              cc-pvtz
reference          uks
maxiter            500
DAMPING_PERCENTAGE 1
E_CONVERGENCE      1.0E-8
D_CONVERGENCE      1.0E-8
DIIS_MAX_VECS      400
MBIS_MAXITER       8000
guess              read
}

E, wfn = energy('b3lyp', restart_file='last_wfn', return_wfn=True)
properties('b3lyp','MBIS_CHARGES', wfn=wfn)
wfn.to_file('last_wfn')
--------------------------------------------------------------------------

Scratch directory: /tmp/
 Found user provided orbital data. Setting orbital guess to READ 
 Copying restart file <last_wfn.npy> to </tmp/scan_NN_7.default.68101.180.npy> for internal processing
   => Libint2 <=

    Primary   basis highest AM E, G, H:  6, 6, 3
    Auxiliary basis highest AM E, G, H:  7, 7, 4
    Onebody   basis highest AM E, G, H:  -, -, -
    Solid Harmonics ordering:            Gaussian

*** tstart() called on Mac.lan
*** at Wed Aug 27 10:44:47 2025

   => Loading Basis Set <=

    Name: CC-PVTZ
    Role: ORBITAL
    Keyword: BASIS
    atoms 1-2 entry N          line   224 file /Users/joseantoniorodriguesromero/anaconda3/share/psi4/basis/cc-pvtz.gbs 


         ---------------------------------------------------------
                                   SCF
               by Justin Turney, Rob Parrish, Andy Simmonett
                          and Daniel G. A. Smith
                              UKS Reference
                        1 Threads,    500 MiB Core
         ---------------------------------------------------------

  ==> Geometry <==

    Molecular point group: d2h
    Full point group: D_inf_h

    Geometry (in Angstrom), charge = 1, multiplicity = 2:

       Center              X                  Y                   Z               Mass       
    ------------   -----------------  -----------------  -----------------  -----------------
         N            0.000000000000     0.000000000000    -0.280703000000    14.003074004430
         N            0.000000000000     0.000000000000     0.280703000000    14.003074004430

  Running in d2h symmetry.

  Rotational constants: A = ************  B =      7.63922  C =      7.63922 [cm^-1]
  Rotational constants: A = ************  B = 229018.04939  C = 229018.04939 [MHz]
  Nuclear repulsion =   46.187043463785571

  Charge       = 1
  Multiplicity = 2
  Electrons    = 13
  Nalpha       = 7
  Nbeta        = 6

  ==> Algorithm <==

  SCF Algorithm Type is DF.
  DIIS enabled.
  MOM disabled.
  Fractional occupation disabled.
  Guess Type is READ.
  Energy threshold   = 1.00e-08
  Density threshold  = 1.00e-08
  Integral threshold = 1.00e-12

  ==> Primary Basis <==

  Basis Set: CC-PVTZ
    Blend: CC-PVTZ
    Number of shells: 20
    Number of basis functions: 60
    Number of Cartesian functions: 70
    Spherical Harmonics?: true
    Max angular momentum: 3

  ==> DFT Potential <==

   => LibXC <=

    Version 6.2.2
    S. Lehtola, C. Steigemann, M. J.T. Oliveira, and M. A.L. Marques.,  SoftwareX 7, 1–5 (2018) (10.1016/j.softx.2017.11.002)

   => Composite Functional: B3LYP <= 

    B3LYP Hyb-GGA Exchange-Correlation Functional

    P. J. Stephens, F. J. Devlin, C. F. Chabalowski, and M. J. Frisch.,  J. Phys. Chem. 98, 11623 (1994) (10.1021/j100096a001)

    Deriv               =              1
    GGA                 =           TRUE
    Meta                =          FALSE

    Exchange Hybrid     =           TRUE
    MP2 Hybrid          =          FALSE

   => Exchange Functionals <=

    0.0800   Slater exchange
    0.7200         Becke 88

   => Exact (HF) Exchange <=

    0.2000               HF 

   => Correlation Functionals <=

    0.1900   Vosko, Wilk & Nusair (VWN5_RPA)
    0.8100   Lee, Yang & Parr

   => LibXC Density Thresholds  <==

    XC_HYB_GGA_XC_B3LYP:  1.00E-15 

   => Molecular Quadrature <=

    Radial Scheme          =       TREUTLER
    Pruning Scheme         =           NONE
    Nuclear Scheme         =       TREUTLER

    Blocking Scheme        =         OCTREE
    BS radius alpha        =              1
    Pruning alpha          =              1
    Radial Points          =             75
    Spherical Points       =            302
    Total Points           =          42242
    Total Blocks           =            378
    Max Points             =            252
    Max Functions          =             60
    Weights Tolerance      =       1.00E-15

   => Loading Basis Set <=

    Name: (CC-PVTZ AUX)
    Role: JKFIT
    Keyword: DF_BASIS_SCF
    atoms 1-2 entry N          line   177 file /Users/joseantoniorodriguesromero/anaconda3/share/psi4/basis/cc-pvtz-jkfit.gbs 

   => Loading Basis Set <=

    Name: CC-PVTZ
    Role: ORBITAL
    Keyword: BASIS
    atoms 1-2 entry N          line   224 file /Users/joseantoniorodriguesromero/anaconda3/share/psi4/basis/cc-pvtz.gbs 

  Reading orbitals from file /tmp/scan_NN_7.default.68101.180.npy, no projection.

  ==> Integral Setup <==

  DFHelper Memory: AOs need 0.005 GiB; user supplied 0.295 GiB. 
  Using in-core AOs.

  ==> MemDFJK: Density-Fitted J/K Matrices <==

    J tasked:                   Yes
    K tasked:                   Yes
    wK tasked:                   No
    OpenMP threads:               1
    Memory [MiB]:               301
    Algorithm:                 Core
    Schwarz Cutoff:           1E-12
    Mask sparsity (%):       0.0000
    Fitting Condition:        1E-10

   => Auxiliary Basis Set <=

  Basis Set: (CC-PVTZ AUX)
    Blend: CC-PVTZ-JKFIT
    Number of shells: 50
    Number of basis functions: 158
    Number of Cartesian functions: 192
    Spherical Harmonics?: true
    Max angular momentum: 4

  Cached 100.0% of DFT collocation blocks in 0.071 [GiB].

  Minimum eigenvalue in the overlap matrix is 5.5929087203E-04.
  Reciprocal condition number of the overlap matrix is 1.3410673124E-04.
    Using symmetric orthogonalization.

  ==> Pre-Iterations <==

  SCF Guess: Orbitals guess was supplied from a previous computation.

   -------------------------------------------------------
    Irrep   Nso     Nmo     Nalpha   Nbeta   Ndocc  Nsocc
   -------------------------------------------------------
     Ag        13      13       3       2       2       1
     B1g        3       3       0       0       0       0
     B2g        7       7       0       0       0       0
     B3g        7       7       0       0       0       0
     Au         3       3       0       0       0       0
     B1u       13      13       2       2       2       0
     B2u        7       7       1       1       1       0
     B3u        7       7       1       1       1       0
   -------------------------------------------------------
    Total      60      60       7       6       6       1
   -------------------------------------------------------

  ==> Iterations <==

                           Total Energy        Delta E     RMS |[F,P]|

   @DF-UKS iter   0:  -105.31570277832171   -1.05316e+02   2.07750e-02 
   @DF-UKS iter   1:  -105.39232017257649   -7.66174e-02   4.19543e-03 DIIS/ADIIS
   @DF-UKS iter   2:  -105.39381391393374   -1.49374e-03   2.97342e-03 DIIS/ADIIS/DAMP=1%
   @DF-UKS iter   3:  -105.39333642248663    4.77491e-04   1.02961e-04 DIIS/ADIIS/DAMP=1%
   @DF-UKS iter   4:  -105.39503010959295   -1.69369e-03   4.55544e-05 DIIS/DAMP=1%
   @DF-UKS iter   5:  -105.39501365903975    1.64506e-05   1.61969e-06 DIIS/DAMP=1%
   @DF-UKS iter   6:  -105.39502753967935   -1.38806e-05   1.31802e-07 DIIS/DAMP=1%
   @DF-UKS iter   7:  -105.39502850343062   -9.63751e-07   1.82453e-08 DIIS/DAMP=1%
   @DF-UKS iter   8:  -105.39502842957545    7.38552e-08   1.91332e-09 DIIS/DAMP=1%
   @DF-UKS iter   9:  -105.39502844150969   -1.19342e-08   1.46635e-10 DIIS/DAMP=1%
   @DF-UKS iter  10:  -105.39502844027147    1.23822e-09   7.97821e-12 DIIS/DAMP=1%
  Energy and wave function converged.


  ==> Post-Iterations <==

   Electrons on quadrature grid:
      Nalpha   =    6.9999998131 ; deviation = -1.869e-07
      Nbeta    =    5.9999998143 ; deviation = -1.857e-07
      Ntotal   =   12.9999996274 ; deviation = -3.726e-07 

   @Spin Contamination Metric:   2.234118265E-03
   @S^2 Expected:                7.500000000E-01
   @S^2 Observed:                7.522341183E-01
   @S   Expected:                5.000000000E-01
   @S   Observed:                5.000000000E-01

    Orbital Energies [Eh]
    ---------------------

    Alpha Occupied:                                                       

       1Ag   -15.309781     1B1u  -14.938297     2Ag    -1.635134  
       1B2u   -1.355596     1B3u   -1.355596     3Ag    -0.975418  
       2B1u   -0.877406  

    Alpha Virtual:                                                        

       1B3g   -0.101508     1B2g   -0.101508     2B3u   -0.040338  
       2B2u   -0.040338     3B1u    0.008516     4Ag     0.039048  
       5Ag     0.174033     2B3g    0.360636     2B2g    0.360636  
       1B1g    0.442925     6Ag     0.442925     4B1u    0.604157  
       3B3u    1.005623     3B2u    1.005623     5B1u    1.057649  
       1Au     1.057649     6B1u    1.098670     7Ag     1.103305  
       3B2g    1.416198     3B3g    1.416198     4B2u    1.827551  
       4B3u    1.827551     8Ag     2.609725     7B1u    2.946398  
       5B2u    3.019253     5B3u    3.019253     2B1g    3.124951  
       9Ag     3.124952     4B2g    3.270433     4B3g    3.270433  
       8B1u    3.527707     6B3u    3.568263     6B2u    3.568263  
       2Au     3.642691     9B1u    3.642691    10Ag     4.000451  
       5B2g    4.195434     5B3g    4.195434     3B1g    4.225992  
      11Ag     4.225992     6B2g    4.305884     6B3g    4.305884  
      12Ag     4.437361    10B1u    5.453450     7B2u    6.337106  
       7B3u    6.337106     3Au     6.571276    11B1u    6.571277  
      13Ag     6.865494     7B2g    8.395788     7B3g    8.395788  
      12B1u   10.251839    13B1u   30.187248  

    Beta Occupied:                                                        

       1Ag   -15.279403     1B1u  -14.915940     2Ag    -1.588505  
       1B2u   -1.336245     1B3u   -1.336245     2B1u   -0.788524  

    Beta Virtual:                                                         

       3Ag    -0.748942     1B3g   -0.084033     1B2g   -0.084033  
       2B3u   -0.035241     2B2u   -0.035241     3B1u    0.020927  
       4Ag     0.063303     5Ag     0.194064     2B2g    0.375478  
       2B3g    0.375478     1B1g    0.446645     6Ag     0.446645  
       4B1u    0.625422     3B3u    1.029662     3B2u    1.029662  
       5B1u    1.066023     1Au     1.066023     6B1u    1.121988  
       7Ag     1.146730     3B2g    1.431162     3B3g    1.431162  
       4B2u    1.841696     4B3u    1.841696     8Ag     2.644568  
       5B2u    3.020778     5B3u    3.020778     7B1u    3.028158  
       2B1g    3.130584     9Ag     3.130585     4B2g    3.287678  
       4B3g    3.287678     8B1u    3.566600     6B3u    3.635259  
       6B2u    3.635259     9B1u    3.669711     2Au     3.669711  
      10Ag     4.055612     5B2g    4.204074     5B3g    4.204074  
       3B1g    4.255090    11Ag     4.255090     6B2g    4.352225  
       6B3g    4.352225    12Ag     4.478833    10B1u    5.488967  
       7B2u    6.372453     7B3u    6.372453     3Au     6.581398  
      11B1u    6.581399    13Ag     6.929557     7B2g    8.433689  
       7B3g    8.433689    12B1u   10.330715    13B1u   30.213336  

    Final Occupation by Irrep:
             Ag   B1g   B2g   B3g    Au   B1u   B2u   B3u 
    DOCC [     2,    0,    0,    0,    0,    2,    1,    1 ]
    SOCC [     1,    0,    0,    0,    0,    0,    0,    0 ]
    NA   [     3,    0,    0,    0,    0,    2,    1,    1 ]
    NB   [     2,    0,    0,    0,    0,    2,    1,    1 ]

  @DF-UKS Final Energy:  -105.39502844027147

   => Energetics <=

    Nuclear Repulsion Energy =             46.1870434637855709
    One-Electron Energy =                -223.0432104081036186
    Two-Electron Energy =                  83.2150147267318943
    DFT Exchange-Correlation Energy =     -11.7538762226853297
    Empirical Dispersion Energy =           0.0000000000000000
    VV10 Nonlocal Energy =                  0.0000000000000000
    Total Energy =                       -105.3950284402714743

  UHF NO Occupations:
  HONO-2 :    2 Ag 1.9998125
  HONO-1 :    2B1u 1.9991227
  HONO-0 :    3 Ag 1.0000000
  LUNO+0 :    3B1u 0.0008773
  LUNO+1 :    4 Ag 0.0001875
  LUNO+2 :    2B3u 0.0000256
  LUNO+3 :    2B2u 0.0000256


Computation Completed


Properties will be evaluated at   0.000000,   0.000000,   0.000000 [a0]

Properties computed using the SCF density matrix


 Multipole Moments:

 ------------------------------------------------------------------------------------
     Multipole            Electronic (a.u.)      Nuclear  (a.u.)        Total (a.u.)
 ------------------------------------------------------------------------------------

 L = 1.  Multiply by 2.5417464519 to convert [e a0] to [Debye]
 Dipole X            :          0.0000000            0.0000000            0.0000000
 Dipole Y            :          0.0000000            0.0000000            0.0000000
 Dipole Z            :          0.0000000           -0.0000000           -0.0000000
 Magnitude           :                                                    0.0000000

 ------------------------------------------------------------------------------------

*** tstop() called on Mac.lan at Wed Aug 27 10:45:01 2025
Module time:
	user time   =     139.84 seconds =       2.33 minutes
	system time =       3.13 seconds =       0.05 minutes
	total time  =         14 seconds =       0.23 minutes
Total time:
	user time   =     139.84 seconds =       2.33 minutes
	system time =       3.13 seconds =       0.05 minutes
	total time  =         14 seconds =       0.23 minutes

*** tstart() called on Mac.lan
*** at Wed Aug 27 10:45:01 2025

   => Libint2 <=

    Primary   basis highest AM E, G, H:  6, 6, 3
    Auxiliary basis highest AM E, G, H:  7, 7, 4
    Onebody   basis highest AM E, G, H:  -, -, -
    Solid Harmonics ordering:            Gaussian
   => Loading Basis Set <=

    Name: CC-PVTZ
    Role: ORBITAL
    Keyword: BASIS
    atoms 1-2 entry N          line   224 file /Users/joseantoniorodriguesromero/anaconda3/share/psi4/basis/cc-pvtz.gbs 


         ---------------------------------------------------------
                                   SCF
               by Justin Turney, Rob Parrish, Andy Simmonett
                          and Daniel G. A. Smith
                              UKS Reference
                        1 Threads,    500 MiB Core
         ---------------------------------------------------------

  ==> Geometry <==

    Molecular point group: d2h
    Full point group: D_inf_h

    Geometry (in Angstrom), charge = 1, multiplicity = 2:

       Center              X                  Y                   Z               Mass       
    ------------   -----------------  -----------------  -----------------  -----------------
         N            0.000000000000     0.000000000000    -0.280703000000    14.003074004430
         N            0.000000000000     0.000000000000     0.280703000000    14.003074004430

  Running in d2h symmetry.

  Rotational constants: A = ************  B =      7.63922  C =      7.63922 [cm^-1]
  Rotational constants: A = ************  B = 229018.04939  C = 229018.04939 [MHz]
  Nuclear repulsion =   46.187043463785571

  Charge       = 1
  Multiplicity = 2
  Electrons    = 13
  Nalpha       = 7
  Nbeta        = 6

  ==> Algorithm <==

  SCF Algorithm Type is DF.
  DIIS enabled.
  MOM disabled.
  Fractional occupation disabled.
  Guess Type is READ.
  Energy threshold   = 1.00e-08
  Density threshold  = 1.00e-08
  Integral threshold = 1.00e-12

  ==> Primary Basis <==

  Basis Set: CC-PVTZ
    Blend: CC-PVTZ
    Number of shells: 20
    Number of basis functions: 60
    Number of Cartesian functions: 70
    Spherical Harmonics?: true
    Max angular momentum: 3

  ==> DFT Potential <==

   => LibXC <=

    Version 6.2.2
    S. Lehtola, C. Steigemann, M. J.T. Oliveira, and M. A.L. Marques.,  SoftwareX 7, 1–5 (2018) (10.1016/j.softx.2017.11.002)

   => Composite Functional: B3LYP <= 

    B3LYP Hyb-GGA Exchange-Correlation Functional

    P. J. Stephens, F. J. Devlin, C. F. Chabalowski, and M. J. Frisch.,  J. Phys. Chem. 98, 11623 (1994) (10.1021/j100096a001)

    Deriv               =              1
    GGA                 =           TRUE
    Meta                =          FALSE

    Exchange Hybrid     =           TRUE
    MP2 Hybrid          =          FALSE

   => Exchange Functionals <=

    0.0800   Slater exchange
    0.7200         Becke 88

   => Exact (HF) Exchange <=

    0.2000               HF 

   => Correlation Functionals <=

    0.1900   Vosko, Wilk & Nusair (VWN5_RPA)
    0.8100   Lee, Yang & Parr

   => LibXC Density Thresholds  <==

    XC_HYB_GGA_XC_B3LYP:  1.00E-15 

   => Molecular Quadrature <=

    Radial Scheme          =       TREUTLER
    Pruning Scheme         =           NONE
    Nuclear Scheme         =       TREUTLER

    Blocking Scheme        =         OCTREE
    BS radius alpha        =              1
    Pruning alpha          =              1
    Radial Points          =             75
    Spherical Points       =            302
    Total Points           =          42242
    Total Blocks           =            378
    Max Points             =            252
    Max Functions          =             60
    Weights Tolerance      =       1.00E-15

   => Loading Basis Set <=

    Name: (CC-PVTZ AUX)
    Role: JKFIT
    Keyword: DF_BASIS_SCF
    atoms 1-2 entry N          line   177 file /Users/joseantoniorodriguesromero/anaconda3/share/psi4/basis/cc-pvtz-jkfit.gbs 

   => Loading Basis Set <=

    Name: CC-PVTZ
    Role: ORBITAL
    Keyword: BASIS
    atoms 1-2 entry N          line   224 file /Users/joseantoniorodriguesromero/anaconda3/share/psi4/basis/cc-pvtz.gbs 

  Reading orbitals from file /tmp/scan_NN_7.default.68101.180.npy, no projection.

  ==> Integral Setup <==

  DFHelper Memory: AOs need 0.005 GiB; user supplied 0.295 GiB. 
  Using in-core AOs.

  ==> MemDFJK: Density-Fitted J/K Matrices <==

    J tasked:                   Yes
    K tasked:                   Yes
    wK tasked:                   No
    OpenMP threads:               1
    Memory [MiB]:               301
    Algorithm:                 Core
    Schwarz Cutoff:           1E-12
    Mask sparsity (%):       0.0000
    Fitting Condition:        1E-10

   => Auxiliary Basis Set <=

  Basis Set: (CC-PVTZ AUX)
    Blend: CC-PVTZ-JKFIT
    Number of shells: 50
    Number of basis functions: 158
    Number of Cartesian functions: 192
    Spherical Harmonics?: true
    Max angular momentum: 4

  Cached 100.0% of DFT collocation blocks in 0.071 [GiB].

  Minimum eigenvalue in the overlap matrix is 5.5929087203E-04.
  Reciprocal condition number of the overlap matrix is 1.3410673124E-04.
    Using symmetric orthogonalization.

  ==> Pre-Iterations <==

  SCF Guess: Orbitals guess was supplied from a previous computation.

   -------------------------------------------------------
    Irrep   Nso     Nmo     Nalpha   Nbeta   Ndocc  Nsocc
   -------------------------------------------------------
     Ag        13      13       3       2       2       1
     B1g        3       3       0       0       0       0
     B2g        7       7       0       0       0       0
     B3g        7       7       0       0       0       0
     Au         3       3       0       0       0       0
     B1u       13      13       2       2       2       0
     B2u        7       7       1       1       1       0
     B3u        7       7       1       1       1       0
   -------------------------------------------------------
    Total      60      60       7       6       6       1
   -------------------------------------------------------

  ==> Iterations <==

                           Total Energy        Delta E     RMS |[F,P]|

   @DF-UKS iter   0:  -105.39502844032903   -1.05395e+02   4.67149e-13 
   @DF-UKS iter   1:  -105.39502844032904   -1.42109e-14   3.14107e-13 DIIS
  Energy and wave function converged.


  ==> Post-Iterations <==

   Electrons on quadrature grid:
      Nalpha   =    6.9999998131 ; deviation = -1.869e-07
      Nbeta    =    5.9999998143 ; deviation = -1.857e-07
      Ntotal   =   12.9999996274 ; deviation = -3.726e-07 

   @Spin Contamination Metric:   2.234118265E-03
   @S^2 Expected:                7.500000000E-01
   @S^2 Observed:                7.522341183E-01
   @S   Expected:                5.000000000E-01
   @S   Observed:                5.000000000E-01

    Orbital Energies [Eh]
    ---------------------

    Alpha Occupied:                                                       

       1Ag   -15.309781     1B1u  -14.938297     2Ag    -1.635134  
       1B2u   -1.355596     1B3u   -1.355596     3Ag    -0.975418  
       2B1u   -0.877406  

    Alpha Virtual:                                                        

       1B3g   -0.101508     1B2g   -0.101508     2B3u   -0.040338  
       2B2u   -0.040338     3B1u    0.008516     4Ag     0.039048  
       5Ag     0.174033     2B3g    0.360636     2B2g    0.360636  
       1B1g    0.442925     6Ag     0.442925     4B1u    0.604157  
       3B3u    1.005623     3B2u    1.005623     5B1u    1.057649  
       1Au     1.057649     6B1u    1.098670     7Ag     1.103305  
       3B2g    1.416198     3B3g    1.416198     4B2u    1.827551  
       4B3u    1.827551     8Ag     2.609725     7B1u    2.946398  
       5B2u    3.019253     5B3u    3.019253     2B1g    3.124951  
       9Ag     3.124952     4B2g    3.270433     4B3g    3.270433  
       8B1u    3.527707     6B3u    3.568263     6B2u    3.568263  
       2Au     3.642691     9B1u    3.642691    10Ag     4.000451  
       5B2g    4.195434     5B3g    4.195434     3B1g    4.225992  
      11Ag     4.225992     6B2g    4.305884     6B3g    4.305884  
      12Ag     4.437361    10B1u    5.453450     7B2u    6.337106  
       7B3u    6.337106     3Au     6.571276    11B1u    6.571277  
      13Ag     6.865494     7B2g    8.395788     7B3g    8.395788  
      12B1u   10.251839    13B1u   30.187248  

    Beta Occupied:                                                        

       1Ag   -15.279403     1B1u  -14.915940     2Ag    -1.588505  
       1B2u   -1.336245     1B3u   -1.336245     2B1u   -0.788524  

    Beta Virtual:                                                         

       3Ag    -0.748942     1B3g   -0.084033     1B2g   -0.084033  
       2B3u   -0.035241     2B2u   -0.035241     3B1u    0.020927  
       4Ag     0.063303     5Ag     0.194064     2B2g    0.375478  
       2B3g    0.375478     1B1g    0.446645     6Ag     0.446645  
       4B1u    0.625422     3B3u    1.029662     3B2u    1.029662  
       5B1u    1.066023     1Au     1.066023     6B1u    1.121988  
       7Ag     1.146730     3B2g    1.431162     3B3g    1.431162  
       4B2u    1.841696     4B3u    1.841696     8Ag     2.644568  
       5B2u    3.020778     5B3u    3.020778     7B1u    3.028158  
       2B1g    3.130584     9Ag     3.130585     4B2g    3.287678  
       4B3g    3.287678     8B1u    3.566600     6B3u    3.635259  
       6B2u    3.635259     9B1u    3.669711     2Au     3.669711  
      10Ag     4.055612     5B2g    4.204074     5B3g    4.204074  
       3B1g    4.255090    11Ag     4.255090     6B2g    4.352225  
       6B3g    4.352225    12Ag     4.478833    10B1u    5.488967  
       7B2u    6.372453     7B3u    6.372453     3Au     6.581398  
      11B1u    6.581399    13Ag     6.929557     7B2g    8.433689  
       7B3g    8.433689    12B1u   10.330715    13B1u   30.213336  

    Final Occupation by Irrep:
             Ag   B1g   B2g   B3g    Au   B1u   B2u   B3u 
    DOCC [     2,    0,    0,    0,    0,    2,    1,    1 ]
    SOCC [     1,    0,    0,    0,    0,    0,    0,    0 ]
    NA   [     3,    0,    0,    0,    0,    2,    1,    1 ]
    NB   [     2,    0,    0,    0,    0,    2,    1,    1 ]

  @DF-UKS Final Energy:  -105.39502844032904

   => Energetics <=

    Nuclear Repulsion Energy =             46.1870434637855709
    One-Electron Energy =                -223.0432104090405687
    Two-Electron Energy =                  83.2150147277032630
    DFT Exchange-Correlation Energy =     -11.7538762227773219
    Empirical Dispersion Energy =           0.0000000000000000
    VV10 Nonlocal Energy =                  0.0000000000000000
    Total Energy =                       -105.3950284403290425

  UHF NO Occupations:
  HONO-2 :    2 Ag 1.9998125
  HONO-1 :    2B1u 1.9991227
  HONO-0 :    3 Ag 1.0000000
  LUNO+0 :    3B1u 0.0008773
  LUNO+1 :    4 Ag 0.0001875
  LUNO+2 :    2B3u 0.0000256
  LUNO+3 :    2B2u 0.0000256


Computation Completed


Properties will be evaluated at   0.000000,   0.000000,   0.000000 [a0]

Properties computed using the B3LYP density matrix


 Multipole Moments:

 ------------------------------------------------------------------------------------
     Multipole            Electronic (a.u.)      Nuclear  (a.u.)        Total (a.u.)
 ------------------------------------------------------------------------------------

 L = 1.  Multiply by 2.5417464519 to convert [e a0] to [Debye]
 Dipole X            :          0.0000000            0.0000000            0.0000000
 Dipole Y            :          0.0000000            0.0000000            0.0000000
 Dipole Z            :          0.0000000           -0.0000000           -0.0000000
 Magnitude           :                                                    0.0000000

 L = 2.  Multiply by 1.3450342976 to convert [e a0^2] to [Debye ang]
 Quadrupole XX       :         -4.6652739            0.0000000           -4.6652739
 Quadrupole XY       :          0.0000000            0.0000000            0.0000000
 Quadrupole XZ       :          0.0000000            0.0000000            0.0000000
 Quadrupole YY       :         -4.6652739            0.0000000           -4.6652739
 Quadrupole YZ       :          0.0000000            0.0000000            0.0000000
 Quadrupole ZZ       :         -9.2093132            3.9393075           -5.2700058
 Traceless XX        :          1.5146798           -1.3131025            0.2015773
 Traceless YY        :          1.5146798           -1.3131025            0.2015773
 Traceless ZZ        :         -3.0293596            2.6262050           -0.4031546

 ------------------------------------------------------------------------------------
  ==> Computing MBIS Charges <==

  Electron Count from Grid (Expected Number): 13.00000 (13.00000)
  Difference:  0.00000

  MBIS Charges: (a.u.)
   Center  Symbol  Z      Pop.       Charge
      1       N    7    6.500001    0.499999
      2       N    7    6.500001    0.499999

  MBIS Dipoles: [e a0]
   Center  Symbol  Z        X           Y           Z
      1       N    7    0.000000    0.000000    0.008761
      2       N    7    0.000000    0.000000   -0.008761

  MBIS Quadrupoles: [e a0^2]
   Center  Symbol  Z      XX        XY        XZ        YY        YZ        ZZ
      1       N    7   -2.3326   -0.0000   -0.0000   -2.3326   -0.0000   -2.7664
      2       N    7   -2.3326   -0.0000    0.0000   -2.3326    0.0000   -2.7664

  MBIS Octupoles: [e a0^3]
   Center  Symbol  Z      XXX       XXY       XXZ       XYY       XYZ       XZZ       YYY       YYZ       YZZ       ZZZ
      1       N    7    0.0000   -0.0000    0.1086    0.0000   -0.0000    0.0000    0.0000    0.1086    0.0000    0.4425
      2       N    7    0.0000   -0.0000   -0.1086    0.0000    0.0000    0.0000    0.0000   -0.1086    0.0000   -0.4425

  MBIS Radial Moments:
   Center  Symbol  Z      [a0^2]      [a0^3]      [a0^4]      
      1       N    7    7.431671   12.789776   26.706413
      2       N    7    7.431671   12.789776   26.706413

  MBIS Valence Widths: [a0]
   Center  Symbol  Z     Width
      1       N    7    0.353163
      2       N    7    0.353163

*** tstop() called on Mac.lan at Wed Aug 27 10:45:06 2025
Module time:
	user time   =      44.69 seconds =       0.74 minutes
	system time =       2.80 seconds =       0.05 minutes
	total time  =          5 seconds =       0.08 minutes
Total time:
	user time   =     184.62 seconds =       3.08 minutes
	system time =       6.01 seconds =       0.10 minutes
	total time  =         19 seconds =       0.32 minutes

    Psi4 stopped on: Wednesday, 27 August 2025 10:45AM
    Psi4 wall time for execution: 0:00:19.16

*** Psi4 exiting successfully. Buy a developer a beer!
