
    -----------------------------------------------------------------------
          Psi4: An Open-Source Ab Initio Electronic Structure Package
                               Psi4 1.10 release

                         Git: Rev {} zzzzzzz 


    D. G. A. Smith, L. A. Burns, A. C. Simmonett, R. M. Parrish,
    M. C. Schieber, R. Galvelis, P. Kraus, H. Kruse, R. Di Remigio,
    A. Alenaizan, A. M. James, S. Lehtola, J. P. Misiewicz, M. Scheurer,
    R. A. Shaw, J. B. Schriber, Y. Xie, Z. L. Glick, D. A. Sirianni,
    J. S. O'Brien, J. M. Waldrop, A. Kumar, E. G. Hohenstein,
    B. P. Pritchard, B. R. Brooks, H. F. Schaefer III, A. Yu. Sokolov,
    K. Patkowski, A. E. DePrince III, U. Bozkaya, R. A. King,
    F. A. Evangelista, J. M. Turney, T. D. Crawford, C. D. Sherrill,
    J. Chem. Phys. 152(18) 184108 (2020). https://doi.org/10.1063/5.0006002

                            Additional Code Authors
    E. T. Seidl, C. L. Janssen, E. F. Valeev, M. L. Leininger,
    J. F. Gonthier, R. M. Richard, H. R. McAlexander, M. Saitow, X. Wang,
    P. Verma, M. H. Lechner, A. Jiang, S. Behnle, A. G. Heide,
    M. F. Herbst, D. L. Poole, T. Győri, E. C. Mitchell, J. P. Pederson,
    and A. M. Wallace

             Previous Authors, Complete List of Code Contributors,
                       and Citations for Specific Modules
    https://github.com/psi4/psi4/blob/master/codemeta.json
    https://github.com/psi4/psi4/graphs/contributors
    https://psicode.org/psi4manual/master/introduction.html#citing-psifour

    -----------------------------------------------------------------------


    Psi4 started on: Tuesday, 23 December 2025 01:37PM

    Process ID: 494710
    Host:       cics-quant-001
    PSIDATADIR: /home/jrodriguesro/psi4conda/share/psi4
    Memory:     500.0 MiB
    Threads:    5
    Addons:     adcc, a̶m̶b̶i̶t̶, b̶s̶e̶, c̶c̶t̶3̶, c̶f̶o̶u̶r̶, c̶h̶e̶m̶p̶s̶2̶, c̶p̶p̶e̶, ddx, dftd3, dftd4,
                dkh, ecpint, einsums, f̶o̶r̶t̶e̶, g̶a̶u̶x̶c̶, gcp, g̶d̶m̶a̶, geometric,
                g̶p̶u̶_̶d̶f̶c̶c̶, i̶n̶t̶e̶g̶r̶a̶t̶o̶r̶x̶x̶, i̶p̶i̶, libefp, m̶d̶i̶, m̶p̶2̶d̶,
                m̶r̶c̶c̶, ooo, o̶p̶e̶n̶f̶e̶r̶m̶i̶o̶n̶p̶s̶i̶4̶, pcmsolver, p̶s̶i̶4̶f̶o̶c̶k̶c̶i̶,
                p̶s̶i̶x̶a̶s̶, r̶e̶s̶p̶, s̶i̶m̶i̶n̶t̶, s̶n̶s̶m̶p̶2̶, v̶2̶r̶d̶m̶_̶c̶a̶s̶s̶c̶f̶

  ==> Input File <==

--------------------------------------------------------------------------
molecule { 
1 4
C           0.000000           0.000000           0.000000
C           0.000000           0.000000           0.761236
}

set { 
basis              cc-pvtz
reference          uks
maxiter            500
DAMPING_PERCENTAGE 1
E_CONVERGENCE      1.0E-8
D_CONVERGENCE      1.0E-8
DIIS_MAX_VECS      400
MBIS_MAXITER       8000
guess              read
}

E, wfn = energy('b3lyp', restart_file='last_wfn', return_wfn=True)
properties('b3lyp','MBIS_CHARGES', wfn=wfn)
wfn.to_file('last_wfn')
--------------------------------------------------------------------------

Scratch directory: /tmp/
 Found user provided orbital data. Setting orbital guess to READ 
 Copying restart file <last_wfn.npy> to </tmp/scan_CC_10.default.494710.180.npy> for internal processing
   => Libint2 <=

    Primary   basis highest AM E, G, H:  6, 6, 3
    Auxiliary basis highest AM E, G, H:  7, 7, 4
    Onebody   basis highest AM E, G, H:  -, -, -
    Solid Harmonics ordering:            Gaussian

*** tstart() called on cics-quant-001
*** at Tue Dec 23 13:37:36 2025

   => Loading Basis Set <=

    Name: CC-PVTZ
    Role: ORBITAL
    Keyword: BASIS
    atoms 1-2 entry C          line   186 file /home/jrodriguesro/psi4conda/share/psi4/basis/cc-pvtz.gbs 


         ---------------------------------------------------------
                                   SCF
               by Justin Turney, Rob Parrish, Andy Simmonett
                          and Daniel G. A. Smith
                              UKS Reference
                        5 Threads,    500 MiB Core
         ---------------------------------------------------------

  ==> Geometry <==

    Molecular point group: d2h
    Full point group: D_inf_h

    Geometry (in Angstrom), charge = 1, multiplicity = 4:

       Center              X                  Y                   Z               Mass       
    ------------   -----------------  -----------------  -----------------  -----------------
         C            0.000000000000     0.000000000000    -0.380618000000    12.000000000000
         C            0.000000000000     0.000000000000     0.380618000000    12.000000000000

  Running in d2h symmetry.

  Rotational constants: A = ************  B =      4.84849  C =      4.84849 [cm^-1]
  Rotational constants: A = ************  B = 145354.10852  C = 145354.10852 [MHz]
  Nuclear repulsion =   25.025589415266758

  Charge       = 1
  Multiplicity = 4
  Electrons    = 11
  Nalpha       = 7
  Nbeta        = 4

  ==> Algorithm <==

  SCF Algorithm Type is DF.
  DIIS enabled.
  MOM disabled.
  Fractional occupation disabled.
  Guess Type is READ.
  Energy threshold   = 1.00e-08
  Density threshold  = 1.00e-08
  Integral threshold = 1.00e-12

  ==> Primary Basis <==

  Basis Set: CC-PVTZ
    Blend: CC-PVTZ
    Number of shells: 20
    Number of basis functions: 60
    Number of Cartesian functions: 70
    Spherical Harmonics?: true
    Max angular momentum: 3

  ==> DFT Potential <==

   => LibXC <=

    Version 7.0.0
    S. Lehtola, C. Steigemann, M. J.T. Oliveira, and M. A.L. Marques.,  SoftwareX 7, 1–5 (2018) (10.1016/j.softx.2017.11.002)

   => Composite Functional: B3LYP <= 

    B3LYP Hyb-GGA Exchange-Correlation Functional

    P. J. Stephens, F. J. Devlin, C. F. Chabalowski, and M. J. Frisch.,  J. Phys. Chem. 98, 11623 (1994) (10.1021/j100096a001)

    Deriv               =              1
    GGA                 =           TRUE
    Meta                =          FALSE

    Exchange Hybrid     =           TRUE
    MP2 Hybrid          =          FALSE

   => Exchange Functionals <=

    0.0800   Slater exchange
    0.7200         Becke 88

   => Exact (HF) Exchange <=

    0.2000               HF 

   => Correlation Functionals <=

    0.1900   Vosko, Wilk & Nusair (VWN5_RPA)
    0.8100   Lee, Yang & Parr

   => LibXC Density Thresholds  <==

    XC_HYB_GGA_XC_B3LYP:  1.00E-15 

   => Molecular Quadrature <=

    Radial Scheme          =       TREUTLER
    Pruning Scheme         =           NONE
    Nuclear Scheme         =       TREUTLER

    Blocking Scheme        =         OCTREE
    BS radius alpha        =              1
    Pruning alpha          =              1
    Radial Points          =             75
    Spherical Points       =            302
    Total Points           =          42928
    Total Blocks           =            388
    Max Points             =            254
    Max Functions          =             60
    Weights Tolerance      =       1.00E-15

   => Loading Basis Set <=

    Name: (CC-PVTZ AUX)
    Role: JKFIT
    Keyword: DF_BASIS_SCF
    atoms 1-2 entry C          line   125 file /home/jrodriguesro/psi4conda/share/psi4/basis/cc-pvtz-jkfit.gbs 

   => Loading Basis Set <=

    Name: CC-PVTZ
    Role: ORBITAL
    Keyword: BASIS
    atoms 1-2 entry C          line   186 file /home/jrodriguesro/psi4conda/share/psi4/basis/cc-pvtz.gbs 

  Reading orbitals from file /tmp/scan_CC_10.default.494710.180.npy, no projection.

  ==> Integral Setup <==

  DFHelper Memory: AOs need 0.005 GiB; user supplied 0.293 GiB. 
  SCF_SUBTYPE=INCORE selected. In-core MEM_DF algorithm will be used.
  Using in-core AOs.

  ==> MemDFJK: Density-Fitted J/K Matrices <==

    J tasked:                   Yes
    K tasked:                   Yes
    wK tasked:                   No
    OpenMP threads:               5
    Memory [MiB]:               300
    Algorithm:                 Core
    Schwarz Cutoff:           1E-12
    Mask sparsity (%):       0.0000
    Fitting Condition:        1E-10

   => Auxiliary Basis Set <=

  Basis Set: (CC-PVTZ AUX)
    Blend: CC-PVTZ-JKFIT
    Number of shells: 50
    Number of basis functions: 158
    Number of Cartesian functions: 192
    Spherical Harmonics?: true
    Max angular momentum: 4

  Cached 100.0% of DFT collocation blocks in 0.073 [GiB].

  Minimum eigenvalue in the overlap matrix is 8.9229076655E-04.
  Reciprocal condition number of the overlap matrix is 2.1318516112E-04.
    Using symmetric orthogonalization.

  ==> Pre-Iterations <==

  SCF Guess: Orbitals guess was supplied from a previous computation.

   -------------------------------------------------------
    Irrep   Nso     Nmo     Nalpha   Nbeta   Ndocc  Nsocc
   -------------------------------------------------------
     Ag        13      13       3       2       2       1
     B1g        3       3       0       0       0       0
     B2g        7       7       0       0       0       0
     B3g        7       7       0       0       0       0
     Au         3       3       0       0       0       0
     B1u       13      13       2       1       1       1
     B2u        7       7       1       1       1       0
     B3u        7       7       1       0       0       1
   -------------------------------------------------------
    Total      60      60       7       4       4       3
   -------------------------------------------------------

  ==> Iterations <==

                           Total Energy        Delta E     RMS |[F,P]|

   @DF-UKS iter   0:   -74.35028661093601   -7.43503e+01   1.27745e-02 
   @DF-UKS iter   1:   -74.36311675686362   -1.28301e-02   1.58180e-03 DIIS/ADIIS
   @DF-UKS iter   2:   -74.36341201504560   -2.95258e-04   8.67559e-04 DIIS/ADIIS/DAMP=1%
   @DF-UKS iter   3:   -74.36310320766819    3.08807e-04   4.21105e-05 DIIS/DAMP=1%
   @DF-UKS iter   4:   -74.36357089229347   -4.67685e-04   1.51662e-05 DIIS/DAMP=1%
   @DF-UKS iter   5:   -74.36354644291927    2.44494e-05   3.94904e-07 DIIS/DAMP=1%
   @DF-UKS iter   6:   -74.36355101369183   -4.57077e-06   3.71708e-08 DIIS/DAMP=1%
   @DF-UKS iter   7:   -74.36355098566308    2.80288e-08   3.07149e-09 DIIS/DAMP=1%
   @DF-UKS iter   8:   -74.36355099755605   -1.18930e-08   3.12289e-10 DIIS/DAMP=1%
   @DF-UKS iter   9:   -74.36355099950364   -1.94760e-09   2.35245e-11 DIIS/DAMP=1%
  Energy and wave function converged.


  ==> Post-Iterations <==

   Electrons on quadrature grid:
      Nalpha   =    6.9999998754 ; deviation = -1.246e-07
      Nbeta    =    3.9999998648 ; deviation = -1.352e-07
      Ntotal   =   10.9999997402 ; deviation = -2.598e-07 

   @Spin Contamination Metric:   2.007073822E-03
   @S^2 Expected:                3.750000000E+00
   @S^2 Observed:                3.752007074E+00
   @S   Expected:                1.500000000E+00
   @S   Observed:                1.500000000E+00

    Orbital Energies [Eh]
    ---------------------

    Alpha Occupied:                                                       

       1Ag   -10.760024     1B1u  -10.647990     2Ag    -1.290277  
       1B3u   -0.969989     1B2u   -0.913063     3Ag    -0.782510  
       2B1u   -0.765355  

    Alpha Virtual:                                                        

       1B2g   -0.196640     1B3g   -0.171732     2B3u   -0.065724  
       2B2u   -0.053272     3B1u   -0.045399     4Ag    -0.014220  
       5Ag     0.051930     2B2g    0.162776     2B3g    0.178289  
       1B1g    0.217731     6Ag     0.218684     4B1u    0.368624  
       3B3u    0.565707     3B2u    0.584044     5B1u    0.617219  
       1Au     0.631380     6B1u    0.637381     7Ag     0.726832  
       3B2g    0.865353     3B3g    0.881660     4B3u    1.275649  
       4B2u    1.314181     8Ag     1.828484     7B1u    1.902129  
       5B3u    2.016638     5B2u    2.016877     2B1g    2.052268  
       9Ag     2.054301     4B2g    2.078438     4B3g    2.106109  
       8B1u    2.263942     6B3u    2.296408     6B2u    2.326837  
       2Au     2.458584     9B1u    2.459133    10Ag     2.540615  
       3B1g    2.736127    11Ag     2.736959     5B2g    2.742537  
       5B3g    2.762801     6B2g    2.774176     6B3g    2.782902  
      12Ag     3.107932    10B1u    3.401599     7B3u    3.925974  
       7B2u    3.961865     3Au     4.103684    11B1u    4.104211  
      13Ag     5.185130     7B2g    5.292784     7B3g    5.325307  
      12B1u    6.028230    13B1u   19.557882  

    Beta Occupied:                                                        

       1Ag   -10.718742     1B1u  -10.610512     2Ag    -1.181171  
       1B2u   -0.868001  

    Beta Virtual:                                                         

       1B3u   -0.735774     2B1u   -0.506427     3Ag    -0.506425  
       1B3g   -0.120956     1B2g   -0.104113     2B2u   -0.047164  
       2B3u   -0.039671     3B1u   -0.013060     4Ag     0.024032  
       5Ag     0.111602     2B3g    0.208938     2B2g    0.228374  
       1B1g    0.251371     6Ag     0.255094     4B1u    0.417156  
       3B2u    0.633114     3B3u    0.641353     1Au     0.660714  
       5B1u    0.664752     6B1u    0.699320     7Ag     0.803077  
       3B3g    0.913642     3B2g    0.928056     4B2u    1.337001  
       4B3u    1.350571     8Ag     1.896434     7B1u    2.053920  
       5B2u    2.063263     5B3u    2.065392     2B1g    2.111554  
       9Ag     2.117948     4B3g    2.140964     4B2g    2.153096  
       8B1u    2.361161     6B2u    2.440948     6B3u    2.473447  
       2Au     2.546552     9B1u    2.558761    10Ag     2.695532  
       5B3g    2.825489     3B1g    2.826054     5B2g    2.828698  
      11Ag     2.837945     6B3g    2.871620     6B2g    2.896061  
      12Ag     3.195091    10B1u    3.521906     7B2u    4.028754  
       7B3u    4.046915     3Au     4.172663    11B1u    4.181740  
      13Ag     5.281769     7B3g    5.397362     7B2g    5.423031  
      12B1u    6.132453    13B1u   19.619356  

    Final Occupation by Irrep:
             Ag   B1g   B2g   B3g    Au   B1u   B2u   B3u 
    DOCC [     2,    0,    0,    0,    0,    1,    1,    0 ]
    SOCC [     1,    0,    0,    0,    0,    1,    0,    1 ]
    NA   [     3,    0,    0,    0,    0,    2,    1,    1 ]
    NB   [     2,    0,    0,    0,    0,    1,    1,    0 ]

  @DF-UKS Final Energy:   -74.36355099950364

   => Energetics <=

    Nuclear Repulsion Energy =             25.0255894152667580
    One-Electron Energy =                -142.8844411070903107
    Two-Electron Energy =                  52.3737538480218632
    DFT Exchange-Correlation Energy =      -8.8784531557019530
    Empirical Dispersion Energy =           0.0000000000000000
    VV10 Nonlocal Energy =                  0.0000000000000000
    Total Energy =                        -74.3635509995036443

  UHF NO Occupations:
  HONO-2 :    1B3u 1.0000000
  HONO-1 :    3 Ag 1.0000000
  HONO-0 :    2B1u 1.0000000
  LUNO+0 :    4 Ag 0.0007117
  LUNO+1 :    2B2u 0.0002889
  LUNO+2 :    3B1u 0.0000017
  LUNO+3 :    5 Ag 0.0000016


Computation Completed


Properties will be evaluated at   0.000000,   0.000000,   0.000000 [a0]

Properties computed using the SCF density matrix


 Multipole Moments:

 ------------------------------------------------------------------------------------
     Multipole            Electronic (a.u.)      Nuclear  (a.u.)        Total (a.u.)
 ------------------------------------------------------------------------------------

 L = 1.  Multiply by 2.5417464519 to convert [e a0] to [Debye]
 Dipole X            :          0.0000000            0.0000000            0.0000000
 Dipole Y            :          0.0000000            0.0000000            0.0000000
 Dipole Z            :          0.0000000            0.0000000            0.0000000
 Magnitude           :                                                    0.0000000

 ------------------------------------------------------------------------------------

*** tstop() called on cics-quant-001 at Tue Dec 23 13:37:37 2025
Module time:
	user time   =       1.08 seconds =       0.02 minutes
	system time =       0.06 seconds =       0.00 minutes
	total time  =          1 seconds =       0.02 minutes
Total time:
	user time   =       1.08 seconds =       0.02 minutes
	system time =       0.06 seconds =       0.00 minutes
	total time  =          1 seconds =       0.02 minutes

*** tstart() called on cics-quant-001
*** at Tue Dec 23 13:37:37 2025

   => Libint2 <=

    Primary   basis highest AM E, G, H:  6, 6, 3
    Auxiliary basis highest AM E, G, H:  7, 7, 4
    Onebody   basis highest AM E, G, H:  -, -, -
    Solid Harmonics ordering:            Gaussian
   => Loading Basis Set <=

    Name: CC-PVTZ
    Role: ORBITAL
    Keyword: BASIS
    atoms 1-2 entry C          line   186 file /home/jrodriguesro/psi4conda/share/psi4/basis/cc-pvtz.gbs 


         ---------------------------------------------------------
                                   SCF
               by Justin Turney, Rob Parrish, Andy Simmonett
                          and Daniel G. A. Smith
                              UKS Reference
                        5 Threads,    500 MiB Core
         ---------------------------------------------------------

  ==> Geometry <==

    Molecular point group: d2h
    Full point group: D_inf_h

    Geometry (in Angstrom), charge = 1, multiplicity = 4:

       Center              X                  Y                   Z               Mass       
    ------------   -----------------  -----------------  -----------------  -----------------
         C            0.000000000000     0.000000000000    -0.380618000000    12.000000000000
         C            0.000000000000     0.000000000000     0.380618000000    12.000000000000

  Running in d2h symmetry.

  Rotational constants: A = ************  B =      4.84849  C =      4.84849 [cm^-1]
  Rotational constants: A = ************  B = 145354.10852  C = 145354.10852 [MHz]
  Nuclear repulsion =   25.025589415266758

  Charge       = 1
  Multiplicity = 4
  Electrons    = 11
  Nalpha       = 7
  Nbeta        = 4

  ==> Algorithm <==

  SCF Algorithm Type is DF.
  DIIS enabled.
  MOM disabled.
  Fractional occupation disabled.
  Guess Type is READ.
  Energy threshold   = 1.00e-08
  Density threshold  = 1.00e-08
  Integral threshold = 1.00e-12

  ==> Primary Basis <==

  Basis Set: CC-PVTZ
    Blend: CC-PVTZ
    Number of shells: 20
    Number of basis functions: 60
    Number of Cartesian functions: 70
    Spherical Harmonics?: true
    Max angular momentum: 3

  ==> DFT Potential <==

   => LibXC <=

    Version 7.0.0
    S. Lehtola, C. Steigemann, M. J.T. Oliveira, and M. A.L. Marques.,  SoftwareX 7, 1–5 (2018) (10.1016/j.softx.2017.11.002)

   => Composite Functional: B3LYP <= 

    B3LYP Hyb-GGA Exchange-Correlation Functional

    P. J. Stephens, F. J. Devlin, C. F. Chabalowski, and M. J. Frisch.,  J. Phys. Chem. 98, 11623 (1994) (10.1021/j100096a001)

    Deriv               =              1
    GGA                 =           TRUE
    Meta                =          FALSE

    Exchange Hybrid     =           TRUE
    MP2 Hybrid          =          FALSE

   => Exchange Functionals <=

    0.0800   Slater exchange
    0.7200         Becke 88

   => Exact (HF) Exchange <=

    0.2000               HF 

   => Correlation Functionals <=

    0.1900   Vosko, Wilk & Nusair (VWN5_RPA)
    0.8100   Lee, Yang & Parr

   => LibXC Density Thresholds  <==

    XC_HYB_GGA_XC_B3LYP:  1.00E-15 

   => Molecular Quadrature <=

    Radial Scheme          =       TREUTLER
    Pruning Scheme         =           NONE
    Nuclear Scheme         =       TREUTLER

    Blocking Scheme        =         OCTREE
    BS radius alpha        =              1
    Pruning alpha          =              1
    Radial Points          =             75
    Spherical Points       =            302
    Total Points           =          42928
    Total Blocks           =            388
    Max Points             =            254
    Max Functions          =             60
    Weights Tolerance      =       1.00E-15

   => Loading Basis Set <=

    Name: (CC-PVTZ AUX)
    Role: JKFIT
    Keyword: DF_BASIS_SCF
    atoms 1-2 entry C          line   125 file /home/jrodriguesro/psi4conda/share/psi4/basis/cc-pvtz-jkfit.gbs 

   => Loading Basis Set <=

    Name: CC-PVTZ
    Role: ORBITAL
    Keyword: BASIS
    atoms 1-2 entry C          line   186 file /home/jrodriguesro/psi4conda/share/psi4/basis/cc-pvtz.gbs 

  Reading orbitals from file /tmp/scan_CC_10.default.494710.180.npy, no projection.

  ==> Integral Setup <==

  DFHelper Memory: AOs need 0.005 GiB; user supplied 0.293 GiB. 
  SCF_SUBTYPE=INCORE selected. In-core MEM_DF algorithm will be used.
  Using in-core AOs.

  ==> MemDFJK: Density-Fitted J/K Matrices <==

    J tasked:                   Yes
    K tasked:                   Yes
    wK tasked:                   No
    OpenMP threads:               5
    Memory [MiB]:               300
    Algorithm:                 Core
    Schwarz Cutoff:           1E-12
    Mask sparsity (%):       0.0000
    Fitting Condition:        1E-10

   => Auxiliary Basis Set <=

  Basis Set: (CC-PVTZ AUX)
    Blend: CC-PVTZ-JKFIT
    Number of shells: 50
    Number of basis functions: 158
    Number of Cartesian functions: 192
    Spherical Harmonics?: true
    Max angular momentum: 4

  Cached 100.0% of DFT collocation blocks in 0.073 [GiB].

  Minimum eigenvalue in the overlap matrix is 8.9229076655E-04.
  Reciprocal condition number of the overlap matrix is 2.1318516112E-04.
    Using symmetric orthogonalization.

  ==> Pre-Iterations <==

  SCF Guess: Orbitals guess was supplied from a previous computation.

   -------------------------------------------------------
    Irrep   Nso     Nmo     Nalpha   Nbeta   Ndocc  Nsocc
   -------------------------------------------------------
     Ag        13      13       3       2       2       1
     B1g        3       3       0       0       0       0
     B2g        7       7       0       0       0       0
     B3g        7       7       0       0       0       0
     Au         3       3       0       0       0       0
     B1u       13      13       2       1       1       1
     B2u        7       7       1       1       1       0
     B3u        7       7       1       0       0       1
   -------------------------------------------------------
    Total      60      60       7       4       4       3
   -------------------------------------------------------

  ==> Iterations <==

                           Total Energy        Delta E     RMS |[F,P]|

   @DF-UKS iter   0:   -74.36355099933571   -7.43636e+01   1.41172e-12 
   @DF-UKS iter   1:   -74.36355099933573   -1.42109e-14   6.54807e-13 DIIS
  Energy and wave function converged.


  ==> Post-Iterations <==

   Electrons on quadrature grid:
      Nalpha   =    6.9999998754 ; deviation = -1.246e-07
      Nbeta    =    3.9999998648 ; deviation = -1.352e-07
      Ntotal   =   10.9999997402 ; deviation = -2.598e-07 

   @Spin Contamination Metric:   2.007073822E-03
   @S^2 Expected:                3.750000000E+00
   @S^2 Observed:                3.752007074E+00
   @S   Expected:                1.500000000E+00
   @S   Observed:                1.500000000E+00

    Orbital Energies [Eh]
    ---------------------

    Alpha Occupied:                                                       

       1Ag   -10.760024     1B1u  -10.647990     2Ag    -1.290277  
       1B3u   -0.969989     1B2u   -0.913063     3Ag    -0.782510  
       2B1u   -0.765355  

    Alpha Virtual:                                                        

       1B2g   -0.196640     1B3g   -0.171732     2B3u   -0.065724  
       2B2u   -0.053272     3B1u   -0.045399     4Ag    -0.014220  
       5Ag     0.051930     2B2g    0.162776     2B3g    0.178289  
       1B1g    0.217731     6Ag     0.218684     4B1u    0.368624  
       3B3u    0.565707     3B2u    0.584044     5B1u    0.617219  
       1Au     0.631380     6B1u    0.637381     7Ag     0.726832  
       3B2g    0.865353     3B3g    0.881660     4B3u    1.275649  
       4B2u    1.314181     8Ag     1.828484     7B1u    1.902129  
       5B3u    2.016638     5B2u    2.016877     2B1g    2.052268  
       9Ag     2.054301     4B2g    2.078438     4B3g    2.106109  
       8B1u    2.263942     6B3u    2.296408     6B2u    2.326837  
       2Au     2.458584     9B1u    2.459133    10Ag     2.540615  
       3B1g    2.736127    11Ag     2.736959     5B2g    2.742537  
       5B3g    2.762801     6B2g    2.774176     6B3g    2.782902  
      12Ag     3.107932    10B1u    3.401599     7B3u    3.925974  
       7B2u    3.961865     3Au     4.103684    11B1u    4.104211  
      13Ag     5.185130     7B2g    5.292784     7B3g    5.325307  
      12B1u    6.028230    13B1u   19.557882  

    Beta Occupied:                                                        

       1Ag   -10.718742     1B1u  -10.610512     2Ag    -1.181171  
       1B2u   -0.868001  

    Beta Virtual:                                                         

       1B3u   -0.735774     2B1u   -0.506427     3Ag    -0.506425  
       1B3g   -0.120956     1B2g   -0.104113     2B2u   -0.047164  
       2B3u   -0.039671     3B1u   -0.013060     4Ag     0.024032  
       5Ag     0.111602     2B3g    0.208938     2B2g    0.228374  
       1B1g    0.251371     6Ag     0.255094     4B1u    0.417156  
       3B2u    0.633114     3B3u    0.641353     1Au     0.660714  
       5B1u    0.664752     6B1u    0.699320     7Ag     0.803077  
       3B3g    0.913642     3B2g    0.928056     4B2u    1.337001  
       4B3u    1.350571     8Ag     1.896434     7B1u    2.053920  
       5B2u    2.063263     5B3u    2.065392     2B1g    2.111554  
       9Ag     2.117948     4B3g    2.140964     4B2g    2.153096  
       8B1u    2.361161     6B2u    2.440948     6B3u    2.473447  
       2Au     2.546552     9B1u    2.558761    10Ag     2.695532  
       5B3g    2.825489     3B1g    2.826054     5B2g    2.828698  
      11Ag     2.837945     6B3g    2.871620     6B2g    2.896061  
      12Ag     3.195091    10B1u    3.521906     7B2u    4.028754  
       7B3u    4.046915     3Au     4.172663    11B1u    4.181740  
      13Ag     5.281769     7B3g    5.397362     7B2g    5.423031  
      12B1u    6.132453    13B1u   19.619356  

    Final Occupation by Irrep:
             Ag   B1g   B2g   B3g    Au   B1u   B2u   B3u 
    DOCC [     2,    0,    0,    0,    0,    1,    1,    0 ]
    SOCC [     1,    0,    0,    0,    0,    1,    0,    1 ]
    NA   [     3,    0,    0,    0,    0,    2,    1,    1 ]
    NB   [     2,    0,    0,    0,    0,    1,    1,    0 ]

  @DF-UKS Final Energy:   -74.36355099933573

   => Energetics <=

    Nuclear Repulsion Energy =             25.0255894152667580
    One-Electron Energy =                -142.8844411091106110
    Two-Electron Energy =                  52.3737538504567937
    DFT Exchange-Correlation Energy =      -8.8784531559486695
    Empirical Dispersion Energy =           0.0000000000000000
    VV10 Nonlocal Energy =                  0.0000000000000000
    Total Energy =                        -74.3635509993357289

  UHF NO Occupations:
  HONO-2 :    3 Ag 1.0000000
  HONO-1 :    1B3u 1.0000000
  HONO-0 :    2B1u 1.0000000
  LUNO+0 :    4 Ag 0.0007117
  LUNO+1 :    2B2u 0.0002889
  LUNO+2 :    3B1u 0.0000017
  LUNO+3 :    5 Ag 0.0000016


Computation Completed


Properties will be evaluated at   0.000000,   0.000000,   0.000000 [a0]

Properties computed using the B3LYP density matrix


 Multipole Moments:

 ------------------------------------------------------------------------------------
     Multipole            Electronic (a.u.)      Nuclear  (a.u.)        Total (a.u.)
 ------------------------------------------------------------------------------------

 L = 1.  Multiply by 2.5417464519 to convert [e a0] to [Debye]
 Dipole X            :          0.0000000            0.0000000            0.0000000
 Dipole Y            :          0.0000000            0.0000000            0.0000000
 Dipole Z            :          0.0000000            0.0000000            0.0000000
 Magnitude           :                                                    0.0000000

 L = 2.  Multiply by 1.3450342976 to convert [e a0^2] to [Debye ang]
 Quadrupole XX       :         -4.8901828            0.0000000           -4.8901828
 Quadrupole XY       :          0.0000000            0.0000000            0.0000000
 Quadrupole XZ       :          0.0000000            0.0000000            0.0000000
 Quadrupole YY       :         -5.6947473            0.0000000           -5.6947473
 Quadrupole YZ       :          0.0000000            0.0000000            0.0000000
 Quadrupole ZZ       :        -10.7890269            6.2080846           -4.5809423
 Traceless XX        :          2.2344695           -2.0693615            0.1651080
 Traceless YY        :          1.4299051           -2.0693615           -0.6394565
 Traceless ZZ        :         -3.6643746            4.1387231            0.4743485

 ------------------------------------------------------------------------------------
  ==> Computing MBIS Charges <==

  Electron Count from Grid (Expected Number): 11.00000 (11.00000)
  Difference: -0.00000

  MBIS Charges: (a.u.)
   Center  Symbol  Z      Pop.       Charge
      1       C    6    5.500000    0.500000
      2       C    6    5.500000    0.500000

  MBIS Dipoles: [e a0]
   Center  Symbol  Z        X           Y           Z
      1       C    6   -0.000000    0.000000   -0.200421
      2       C    6   -0.000000   -0.000000    0.200421

  MBIS Quadrupoles: [e a0^2]
   Center  Symbol  Z      XX        XY        XZ        YY        YZ        ZZ
      1       C    6   -2.4451    0.0000    0.0000   -2.8474   -0.0000   -2.8375
      2       C    6   -2.4451    0.0000   -0.0000   -2.8474    0.0000   -2.8375

  MBIS Octupoles: [e a0^3]
   Center  Symbol  Z      XXX       XXY       XXZ       XYY       XYZ       XZZ       YYY       YYZ       YZZ       ZZZ
      1       C    6   -0.0000   -0.0000   -0.0358   -0.0000    0.0000   -0.0000    0.0000   -0.1356    0.0000    0.1268
      2       C    6   -0.0000   -0.0000    0.0358   -0.0000   -0.0000   -0.0000    0.0000    0.1356    0.0000   -0.1268

  MBIS Radial Moments:
   Center  Symbol  Z      [a0^2]      [a0^3]      [a0^4]      
      1       C    6    8.129918   16.133060   38.458240
      2       C    6    8.129918   16.133060   38.458240

  MBIS Valence Widths: [a0]
   Center  Symbol  Z     Width
      1       C    6    0.417510
      2       C    6    0.417510


  MBIS Valence Charges: (a.u.)
   Center  Symbol  Z     Charge
      1       C    6   -3.927043
      2       C    6   -3.927043

*** tstop() called on cics-quant-001 at Tue Dec 23 13:37:37 2025
Module time:
	user time   =       0.70 seconds =       0.01 minutes
	system time =       0.04 seconds =       0.00 minutes
	total time  =          0 seconds =       0.00 minutes
Total time:
	user time   =       1.80 seconds =       0.03 minutes
	system time =       0.10 seconds =       0.00 minutes
	total time  =          1 seconds =       0.02 minutes

    Psi4 stopped on: Tuesday, 23 December 2025 01:37PM
    Psi4 wall time for execution: 0:00:00.80

*** Psi4 exiting successfully. Buy a developer a beer!
