
    -----------------------------------------------------------------------
          Psi4: An Open-Source Ab Initio Electronic Structure Package
                               Psi4 1.9.1 release

                         Git: Rev {} zzzzzzz 


    D. G. A. Smith, L. A. Burns, A. C. Simmonett, R. M. Parrish,
    M. C. Schieber, R. Galvelis, P. Kraus, H. Kruse, R. Di Remigio,
    A. Alenaizan, A. M. James, S. Lehtola, J. P. Misiewicz, M. Scheurer,
    R. A. Shaw, J. B. Schriber, Y. Xie, Z. L. Glick, D. A. Sirianni,
    J. S. O'Brien, J. M. Waldrop, A. Kumar, E. G. Hohenstein,
    B. P. Pritchard, B. R. Brooks, H. F. Schaefer III, A. Yu. Sokolov,
    K. Patkowski, A. E. DePrince III, U. Bozkaya, R. A. King,
    F. A. Evangelista, J. M. Turney, T. D. Crawford, C. D. Sherrill,
    J. Chem. Phys. 152(18) 184108 (2020). https://doi.org/10.1063/5.0006002

                            Additional Code Authors
    E. T. Seidl, C. L. Janssen, E. F. Valeev, M. L. Leininger,
    J. F. Gonthier, R. M. Richard, H. R. McAlexander, M. Saitow, X. Wang,
    P. Verma, M. H. Lechner, A. Jiang, S. Behnle, A. G. Heide,
    M. F. Herbst, and D. L. Poole

             Previous Authors, Complete List of Code Contributors,
                       and Citations for Specific Modules
    https://github.com/psi4/psi4/blob/master/codemeta.json
    https://github.com/psi4/psi4/graphs/contributors
    http://psicode.org/psi4manual/master/introduction.html#citing-psifour

    -----------------------------------------------------------------------


    Psi4 started on: Wednesday, 27 August 2025 10:27AM

    Process ID: 67486
    Host:       Mac.lan
    PSIDATADIR: /Users/joseantoniorodriguesromero/anaconda3/share/psi4
    Memory:     500.0 MiB
    Threads:    1
    
  ==> Input File <==

--------------------------------------------------------------------------
molecule { 
1 2
O           0.000000           0.000000           0.000000
O           0.000000           0.000000           1.560128
}

set { 
basis              cc-pvtz
reference          uks
maxiter            500
DAMPING_PERCENTAGE 1
E_CONVERGENCE      1.0E-8
D_CONVERGENCE      1.0E-8
DIIS_MAX_VECS      400
MBIS_MAXITER       8000
guess              read
}

E, wfn = energy('b3lyp', restart_file='last_wfn', return_wfn=True)
properties('b3lyp','MBIS_CHARGES', wfn=wfn)
wfn.to_file('last_wfn')
--------------------------------------------------------------------------

Scratch directory: /tmp/
 Found user provided orbital data. Setting orbital guess to READ 
 Copying restart file <last_wfn.npy> to </tmp/scan_OO_33.default.67486.180.npy> for internal processing
   => Libint2 <=

    Primary   basis highest AM E, G, H:  6, 6, 3
    Auxiliary basis highest AM E, G, H:  7, 7, 4
    Onebody   basis highest AM E, G, H:  -, -, -
    Solid Harmonics ordering:            Gaussian

*** tstart() called on Mac.lan
*** at Wed Aug 27 10:27:40 2025

   => Loading Basis Set <=

    Name: CC-PVTZ
    Role: ORBITAL
    Keyword: BASIS
    atoms 1-2 entry O          line   262 file /Users/joseantoniorodriguesromero/anaconda3/share/psi4/basis/cc-pvtz.gbs 


         ---------------------------------------------------------
                                   SCF
               by Justin Turney, Rob Parrish, Andy Simmonett
                          and Daniel G. A. Smith
                              UKS Reference
                        1 Threads,    500 MiB Core
         ---------------------------------------------------------

  ==> Geometry <==

    Molecular point group: d2h
    Full point group: D_inf_h

    Geometry (in Angstrom), charge = 1, multiplicity = 2:

       Center              X                  Y                   Z               Mass       
    ------------   -----------------  -----------------  -----------------  -----------------
         O            0.000000000000     0.000000000000    -0.780064000000    15.994914619570
         O            0.000000000000     0.000000000000     0.780064000000    15.994914619570

  Running in d2h symmetry.

  Rotational constants: A = ************  B =      0.86601  C =      0.86601 [cm^-1]
  Rotational constants: A = ************  B =  25962.39817  C =  25962.39817 [MHz]
  Nuclear repulsion =   21.708053110308896

  Charge       = 1
  Multiplicity = 2
  Electrons    = 15
  Nalpha       = 8
  Nbeta        = 7

  ==> Algorithm <==

  SCF Algorithm Type is DF.
  DIIS enabled.
  MOM disabled.
  Fractional occupation disabled.
  Guess Type is READ.
  Energy threshold   = 1.00e-08
  Density threshold  = 1.00e-08
  Integral threshold = 1.00e-12

  ==> Primary Basis <==

  Basis Set: CC-PVTZ
    Blend: CC-PVTZ
    Number of shells: 20
    Number of basis functions: 60
    Number of Cartesian functions: 70
    Spherical Harmonics?: true
    Max angular momentum: 3

  ==> DFT Potential <==

   => LibXC <=

    Version 6.2.2
    S. Lehtola, C. Steigemann, M. J.T. Oliveira, and M. A.L. Marques.,  SoftwareX 7, 1–5 (2018) (10.1016/j.softx.2017.11.002)

   => Composite Functional: B3LYP <= 

    B3LYP Hyb-GGA Exchange-Correlation Functional

    P. J. Stephens, F. J. Devlin, C. F. Chabalowski, and M. J. Frisch.,  J. Phys. Chem. 98, 11623 (1994) (10.1021/j100096a001)

    Deriv               =              1
    GGA                 =           TRUE
    Meta                =          FALSE

    Exchange Hybrid     =           TRUE
    MP2 Hybrid          =          FALSE

   => Exchange Functionals <=

    0.0800   Slater exchange
    0.7200         Becke 88

   => Exact (HF) Exchange <=

    0.2000               HF 

   => Correlation Functionals <=

    0.1900   Vosko, Wilk & Nusair (VWN5_RPA)
    0.8100   Lee, Yang & Parr

   => LibXC Density Thresholds  <==

    XC_HYB_GGA_XC_B3LYP:  1.00E-15 

   => Molecular Quadrature <=

    Radial Scheme          =       TREUTLER
    Pruning Scheme         =           NONE
    Nuclear Scheme         =       TREUTLER

    Blocking Scheme        =         OCTREE
    BS radius alpha        =              1
    Pruning alpha          =              1
    Radial Points          =             75
    Spherical Points       =            302
    Total Points           =          42486
    Total Blocks           =            380
    Max Points             =            245
    Max Functions          =             60
    Weights Tolerance      =       1.00E-15

   => Loading Basis Set <=

    Name: (CC-PVTZ AUX)
    Role: JKFIT
    Keyword: DF_BASIS_SCF
    atoms 1-2 entry O          line   229 file /Users/joseantoniorodriguesromero/anaconda3/share/psi4/basis/cc-pvtz-jkfit.gbs 

   => Loading Basis Set <=

    Name: CC-PVTZ
    Role: ORBITAL
    Keyword: BASIS
    atoms 1-2 entry O          line   262 file /Users/joseantoniorodriguesromero/anaconda3/share/psi4/basis/cc-pvtz.gbs 

  Reading orbitals from file /tmp/scan_OO_33.default.67486.180.npy, no projection.

  ==> Integral Setup <==

  DFHelper Memory: AOs need 0.005 GiB; user supplied 0.297 GiB. 
  Using in-core AOs.

  ==> MemDFJK: Density-Fitted J/K Matrices <==

    J tasked:                   Yes
    K tasked:                   Yes
    wK tasked:                   No
    OpenMP threads:               1
    Memory [MiB]:               303
    Algorithm:                 Core
    Schwarz Cutoff:           1E-12
    Mask sparsity (%):       0.0000
    Fitting Condition:        1E-10

   => Auxiliary Basis Set <=

  Basis Set: (CC-PVTZ AUX)
    Blend: CC-PVTZ-JKFIT
    Number of shells: 50
    Number of basis functions: 158
    Number of Cartesian functions: 192
    Spherical Harmonics?: true
    Max angular momentum: 4

  Cached 100.0% of DFT collocation blocks in 0.069 [GiB].

  Minimum eigenvalue in the overlap matrix is 1.8219480063E-02.
  Reciprocal condition number of the overlap matrix is 6.2191355364E-03.
    Using symmetric orthogonalization.

  ==> Pre-Iterations <==

  SCF Guess: Orbitals guess was supplied from a previous computation.

   -------------------------------------------------------
    Irrep   Nso     Nmo     Nalpha   Nbeta   Ndocc  Nsocc
   -------------------------------------------------------
     Ag        13      13       3       3       3       0
     B1g        3       3       0       0       0       0
     B2g        7       7       0       0       0       0
     B3g        7       7       1       0       0       1
     Au         3       3       0       0       0       0
     B1u       13      13       2       2       2       0
     B2u        7       7       1       1       1       0
     B3u        7       7       1       1       1       0
   -------------------------------------------------------
    Total      60      60       8       7       7       1
   -------------------------------------------------------

  ==> Iterations <==

                           Total Energy        Delta E     RMS |[F,P]|

   @DF-UKS iter   0:  -149.71458048397133   -1.49715e+02   2.54828e-03 
   @DF-UKS iter   1:  -149.74905257483888   -3.44721e-02   1.04443e-03 ADIIS/DIIS
   @DF-UKS iter   2:  -149.74919422229874   -1.41647e-04   6.28133e-04 ADIIS/DIIS/DAMP=1%
   @DF-UKS iter   3:  -149.74898883164843    2.05391e-04   2.86502e-05 DIIS/DAMP=1%
   @DF-UKS iter   4:  -149.74928179928364   -2.92968e-04   6.91634e-06 DIIS/DAMP=1%
   @DF-UKS iter   5:  -149.74926389211959    1.79072e-05   3.06735e-07 DIIS/DAMP=1%
   @DF-UKS iter   6:  -149.74926803242991   -4.14031e-06   8.39661e-08 DIIS/DAMP=1%
   @DF-UKS iter   7:  -149.74926802100833    1.14216e-08   1.36630e-08 DIIS/DAMP=1%
   @DF-UKS iter   8:  -149.74926801507490    5.93343e-09   7.71500e-10 DIIS/DAMP=1%
  Energy and wave function converged.


  ==> Post-Iterations <==

   Electrons on quadrature grid:
      Nalpha   =    7.9999991161 ; deviation = -8.839e-07
      Nbeta    =    6.9999995862 ; deviation = -4.138e-07
      Ntotal   =   14.9999987022 ; deviation = -1.298e-06 

   @Spin Contamination Metric:   3.748576681E-03
   @S^2 Expected:                7.500000000E-01
   @S^2 Observed:                7.537485767E-01
   @S   Expected:                5.000000000E-01
   @S   Observed:                5.000000000E-01

    Orbital Energies [Eh]
    ---------------------

    Alpha Occupied:                                                       

       1Ag   -19.817827     1B1u  -19.817747     2Ag    -1.549841  
       2B1u   -1.347903     3Ag    -0.928395     1B2u   -0.915283  
       1B3u   -0.866409     1B3g   -0.817351  

    Alpha Virtual:                                                        

       1B2g   -0.699695     3B1u   -0.545401     2B2u    0.161581  
       2B3u    0.168427     4B1u    0.172245     4Ag     0.265998  
       2B3g    0.286929     2B2g    0.293251     5Ag     0.321903  
       5B1u    0.759295     3B3u    0.790909     3B2u    0.793404  
       1B1g    0.912375     6Ag     0.913674     1Au     1.106803  
       6B1u    1.108283     7Ag     1.179383     3B3g    1.502648  
       3B2g    1.503750     7B1u    1.889779     8Ag     2.913324  
       4B2u    2.967372     4B3u    2.983952     4B3g    3.111809  
       4B2g    3.127815     8B1u    3.628973     5B3u    4.256589  
       5B2u    4.259075     9Ag     4.320446     2B1g    4.437306  
      10Ag     4.438773     6B2u    4.576345     6B3u    4.576611  
       5B3g    4.609534     5B2g    4.609806     2Au     4.737921  
       9B1u    4.739460     6B3g    5.070669     6B2g    5.072032  
      10B1u    5.344762     3B1g    5.545314    11Ag     5.549194  
       7B2u    5.597330     7B3u    5.608034     3Au     5.675508  
      11B1u    5.679355    12Ag     5.930663     7B3g    6.155034  
       7B2g    6.162232    12B1u    6.820278    13Ag     6.823535  
      13B1u    7.578113  

    Beta Occupied:                                                        

       1Ag   -19.801999     1B1u  -19.801886     2Ag    -1.514068  
       2B1u   -1.301234     3Ag    -0.912534     1B3u   -0.852257  
       1B2u   -0.809130  

    Beta Virtual:                                                         

       1B2g   -0.683106     1B3g   -0.635990     3B1u   -0.526199  
       2B3u    0.173332     4B1u    0.178003     2B2u    0.194819  
       4Ag     0.272996     2B2g    0.297796     2B3g    0.316064  
       5Ag     0.331442     5B1u    0.773902     3B3u    0.792419  
       3B2u    0.814682     6Ag     0.936814     1B1g    0.937218  
       1Au     1.136504     6B1u    1.136722     7Ag     1.194465  
       3B2g    1.507546     3B3g    1.533312     7B1u    1.901304  
       8Ag     2.922285     4B3u    2.994634     4B2u    3.031598  
       4B2g    3.139432     4B3g    3.178443     8B1u    3.644747  
       5B3u    4.260706     5B2u    4.291269     9Ag     4.335662  
       2B1g    4.462496    10Ag     4.465329     6B3u    4.614319  
       6B2u    4.614366     5B2g    4.647360     5B3g    4.647389  
       9B1u    4.764531     2Au     4.764666     6B2g    5.077373  
       6B3g    5.108969    10B1u    5.361150    11Ag     5.603002  
       3B1g    5.603594     7B3u    5.615348     7B2u    5.653468  
       3Au     5.732824    11B1u    5.732969    12Ag     5.944072  
       7B2g    6.168084     7B3g    6.203887    12B1u    6.838030  
      13Ag     6.856637    13B1u    7.602341  

    Final Occupation by Irrep:
             Ag   B1g   B2g   B3g    Au   B1u   B2u   B3u 
    DOCC [     3,    0,    0,    0,    0,    2,    1,    1 ]
    SOCC [     0,    0,    0,    1,    0,    0,    0,    0 ]
    NA   [     3,    0,    0,    1,    0,    2,    1,    1 ]
    NB   [     3,    0,    0,    0,    0,    2,    1,    1 ]

  @DF-UKS Final Energy:  -149.74926801507490

   => Energetics <=

    Nuclear Repulsion Energy =             21.7080531103088958
    One-Electron Energy =                -242.3652856735445198
    Two-Electron Energy =                  84.1060224457407912
    DFT Exchange-Correlation Energy =     -13.1980578975800729
    Empirical Dispersion Energy =           0.0000000000000000
    VV10 Nonlocal Energy =                  0.0000000000000000
    Total Energy =                       -149.7492680150749038

  UHF NO Occupations:
  HONO-2 :    2B1u 1.9997788
  HONO-1 :    1B2u 1.9985614
  HONO-0 :    1B3g 1.0000000
  LUNO+0 :    2B2u 0.0014386
  LUNO+1 :    3B1u 0.0002212
  LUNO+2 :    4 Ag 0.0001515
  LUNO+3 :    2B3u 0.0000420


Computation Completed


Properties will be evaluated at   0.000000,   0.000000,   0.000000 [a0]

Properties computed using the SCF density matrix


 Multipole Moments:

 ------------------------------------------------------------------------------------
     Multipole            Electronic (a.u.)      Nuclear  (a.u.)        Total (a.u.)
 ------------------------------------------------------------------------------------

 L = 1.  Multiply by 2.5417464519 to convert [e a0] to [Debye]
 Dipole X            :          0.0000000            0.0000000            0.0000000
 Dipole Y            :          0.0000000            0.0000000            0.0000000
 Dipole Z            :          0.0000000            0.0000000            0.0000000
 Magnitude           :                                                    0.0000000

 ------------------------------------------------------------------------------------

*** tstop() called on Mac.lan at Wed Aug 27 10:27:51 2025
Module time:
	user time   =      96.57 seconds =       1.61 minutes
	system time =       4.75 seconds =       0.08 minutes
	total time  =         11 seconds =       0.18 minutes
Total time:
	user time   =      96.57 seconds =       1.61 minutes
	system time =       4.75 seconds =       0.08 minutes
	total time  =         11 seconds =       0.18 minutes

*** tstart() called on Mac.lan
*** at Wed Aug 27 10:27:51 2025

   => Libint2 <=

    Primary   basis highest AM E, G, H:  6, 6, 3
    Auxiliary basis highest AM E, G, H:  7, 7, 4
    Onebody   basis highest AM E, G, H:  -, -, -
    Solid Harmonics ordering:            Gaussian
   => Loading Basis Set <=

    Name: CC-PVTZ
    Role: ORBITAL
    Keyword: BASIS
    atoms 1-2 entry O          line   262 file /Users/joseantoniorodriguesromero/anaconda3/share/psi4/basis/cc-pvtz.gbs 


         ---------------------------------------------------------
                                   SCF
               by Justin Turney, Rob Parrish, Andy Simmonett
                          and Daniel G. A. Smith
                              UKS Reference
                        1 Threads,    500 MiB Core
         ---------------------------------------------------------

  ==> Geometry <==

    Molecular point group: d2h
    Full point group: D_inf_h

    Geometry (in Angstrom), charge = 1, multiplicity = 2:

       Center              X                  Y                   Z               Mass       
    ------------   -----------------  -----------------  -----------------  -----------------
         O            0.000000000000     0.000000000000    -0.780064000000    15.994914619570
         O            0.000000000000     0.000000000000     0.780064000000    15.994914619570

  Running in d2h symmetry.

  Rotational constants: A = ************  B =      0.86601  C =      0.86601 [cm^-1]
  Rotational constants: A = ************  B =  25962.39817  C =  25962.39817 [MHz]
  Nuclear repulsion =   21.708053110308896

  Charge       = 1
  Multiplicity = 2
  Electrons    = 15
  Nalpha       = 8
  Nbeta        = 7

  ==> Algorithm <==

  SCF Algorithm Type is DF.
  DIIS enabled.
  MOM disabled.
  Fractional occupation disabled.
  Guess Type is READ.
  Energy threshold   = 1.00e-08
  Density threshold  = 1.00e-08
  Integral threshold = 1.00e-12

  ==> Primary Basis <==

  Basis Set: CC-PVTZ
    Blend: CC-PVTZ
    Number of shells: 20
    Number of basis functions: 60
    Number of Cartesian functions: 70
    Spherical Harmonics?: true
    Max angular momentum: 3

  ==> DFT Potential <==

   => LibXC <=

    Version 6.2.2
    S. Lehtola, C. Steigemann, M. J.T. Oliveira, and M. A.L. Marques.,  SoftwareX 7, 1–5 (2018) (10.1016/j.softx.2017.11.002)

   => Composite Functional: B3LYP <= 

    B3LYP Hyb-GGA Exchange-Correlation Functional

    P. J. Stephens, F. J. Devlin, C. F. Chabalowski, and M. J. Frisch.,  J. Phys. Chem. 98, 11623 (1994) (10.1021/j100096a001)

    Deriv               =              1
    GGA                 =           TRUE
    Meta                =          FALSE

    Exchange Hybrid     =           TRUE
    MP2 Hybrid          =          FALSE

   => Exchange Functionals <=

    0.0800   Slater exchange
    0.7200         Becke 88

   => Exact (HF) Exchange <=

    0.2000               HF 

   => Correlation Functionals <=

    0.1900   Vosko, Wilk & Nusair (VWN5_RPA)
    0.8100   Lee, Yang & Parr

   => LibXC Density Thresholds  <==

    XC_HYB_GGA_XC_B3LYP:  1.00E-15 

   => Molecular Quadrature <=

    Radial Scheme          =       TREUTLER
    Pruning Scheme         =           NONE
    Nuclear Scheme         =       TREUTLER

    Blocking Scheme        =         OCTREE
    BS radius alpha        =              1
    Pruning alpha          =              1
    Radial Points          =             75
    Spherical Points       =            302
    Total Points           =          42486
    Total Blocks           =            380
    Max Points             =            245
    Max Functions          =             60
    Weights Tolerance      =       1.00E-15

   => Loading Basis Set <=

    Name: (CC-PVTZ AUX)
    Role: JKFIT
    Keyword: DF_BASIS_SCF
    atoms 1-2 entry O          line   229 file /Users/joseantoniorodriguesromero/anaconda3/share/psi4/basis/cc-pvtz-jkfit.gbs 

   => Loading Basis Set <=

    Name: CC-PVTZ
    Role: ORBITAL
    Keyword: BASIS
    atoms 1-2 entry O          line   262 file /Users/joseantoniorodriguesromero/anaconda3/share/psi4/basis/cc-pvtz.gbs 

  Reading orbitals from file /tmp/scan_OO_33.default.67486.180.npy, no projection.

  ==> Integral Setup <==

  DFHelper Memory: AOs need 0.005 GiB; user supplied 0.297 GiB. 
  Using in-core AOs.

  ==> MemDFJK: Density-Fitted J/K Matrices <==

    J tasked:                   Yes
    K tasked:                   Yes
    wK tasked:                   No
    OpenMP threads:               1
    Memory [MiB]:               303
    Algorithm:                 Core
    Schwarz Cutoff:           1E-12
    Mask sparsity (%):       0.0000
    Fitting Condition:        1E-10

   => Auxiliary Basis Set <=

  Basis Set: (CC-PVTZ AUX)
    Blend: CC-PVTZ-JKFIT
    Number of shells: 50
    Number of basis functions: 158
    Number of Cartesian functions: 192
    Spherical Harmonics?: true
    Max angular momentum: 4

  Cached 100.0% of DFT collocation blocks in 0.069 [GiB].

  Minimum eigenvalue in the overlap matrix is 1.8219480063E-02.
  Reciprocal condition number of the overlap matrix is 6.2191355364E-03.
    Using symmetric orthogonalization.

  ==> Pre-Iterations <==

  SCF Guess: Orbitals guess was supplied from a previous computation.

   -------------------------------------------------------
    Irrep   Nso     Nmo     Nalpha   Nbeta   Ndocc  Nsocc
   -------------------------------------------------------
     Ag        13      13       3       3       3       0
     B1g        3       3       0       0       0       0
     B2g        7       7       0       0       0       0
     B3g        7       7       1       0       0       1
     Au         3       3       0       0       0       0
     B1u       13      13       2       2       2       0
     B2u        7       7       1       1       1       0
     B3u        7       7       1       1       1       0
   -------------------------------------------------------
    Total      60      60       8       7       7       1
   -------------------------------------------------------

  ==> Iterations <==

                           Total Energy        Delta E     RMS |[F,P]|

   @DF-UKS iter   0:  -149.74926801565474   -1.49749e+02   7.58787e-11 
   @DF-UKS iter   1:  -149.74926801565479   -5.68434e-14   4.41848e-11 DIIS
  Energy and wave function converged.


  ==> Post-Iterations <==

   Electrons on quadrature grid:
      Nalpha   =    7.9999991161 ; deviation = -8.839e-07
      Nbeta    =    6.9999995862 ; deviation = -4.138e-07
      Ntotal   =   14.9999987022 ; deviation = -1.298e-06 

   @Spin Contamination Metric:   3.748576760E-03
   @S^2 Expected:                7.500000000E-01
   @S^2 Observed:                7.537485768E-01
   @S   Expected:                5.000000000E-01
   @S   Observed:                5.000000000E-01

    Orbital Energies [Eh]
    ---------------------

    Alpha Occupied:                                                       

       1Ag   -19.817827     1B1u  -19.817747     2Ag    -1.549841  
       2B1u   -1.347903     3Ag    -0.928395     1B2u   -0.915283  
       1B3u   -0.866409     1B3g   -0.817351  

    Alpha Virtual:                                                        

       1B2g   -0.699695     3B1u   -0.545401     2B2u    0.161581  
       2B3u    0.168427     4B1u    0.172245     4Ag     0.265998  
       2B3g    0.286929     2B2g    0.293251     5Ag     0.321903  
       5B1u    0.759295     3B3u    0.790909     3B2u    0.793404  
       1B1g    0.912375     6Ag     0.913674     1Au     1.106803  
       6B1u    1.108283     7Ag     1.179383     3B3g    1.502648  
       3B2g    1.503750     7B1u    1.889779     8Ag     2.913324  
       4B2u    2.967372     4B3u    2.983952     4B3g    3.111809  
       4B2g    3.127815     8B1u    3.628973     5B3u    4.256589  
       5B2u    4.259075     9Ag     4.320446     2B1g    4.437306  
      10Ag     4.438773     6B2u    4.576345     6B3u    4.576611  
       5B3g    4.609534     5B2g    4.609806     2Au     4.737921  
       9B1u    4.739460     6B3g    5.070669     6B2g    5.072032  
      10B1u    5.344762     3B1g    5.545314    11Ag     5.549194  
       7B2u    5.597330     7B3u    5.608034     3Au     5.675508  
      11B1u    5.679355    12Ag     5.930663     7B3g    6.155034  
       7B2g    6.162232    12B1u    6.820278    13Ag     6.823535  
      13B1u    7.578113  

    Beta Occupied:                                                        

       1Ag   -19.801999     1B1u  -19.801886     2Ag    -1.514068  
       2B1u   -1.301234     3Ag    -0.912534     1B3u   -0.852257  
       1B2u   -0.809130  

    Beta Virtual:                                                         

       1B2g   -0.683106     1B3g   -0.635990     3B1u   -0.526199  
       2B3u    0.173332     4B1u    0.178003     2B2u    0.194819  
       4Ag     0.272996     2B2g    0.297796     2B3g    0.316064  
       5Ag     0.331442     5B1u    0.773902     3B3u    0.792419  
       3B2u    0.814682     6Ag     0.936814     1B1g    0.937218  
       1Au     1.136504     6B1u    1.136722     7Ag     1.194465  
       3B2g    1.507546     3B3g    1.533312     7B1u    1.901304  
       8Ag     2.922285     4B3u    2.994634     4B2u    3.031598  
       4B2g    3.139432     4B3g    3.178443     8B1u    3.644747  
       5B3u    4.260706     5B2u    4.291269     9Ag     4.335662  
       2B1g    4.462496    10Ag     4.465329     6B3u    4.614319  
       6B2u    4.614366     5B2g    4.647360     5B3g    4.647389  
       9B1u    4.764531     2Au     4.764666     6B2g    5.077373  
       6B3g    5.108969    10B1u    5.361150    11Ag     5.603002  
       3B1g    5.603594     7B3u    5.615348     7B2u    5.653468  
       3Au     5.732824    11B1u    5.732969    12Ag     5.944072  
       7B2g    6.168084     7B3g    6.203887    12B1u    6.838030  
      13Ag     6.856637    13B1u    7.602341  

    Final Occupation by Irrep:
             Ag   B1g   B2g   B3g    Au   B1u   B2u   B3u 
    DOCC [     3,    0,    0,    0,    0,    2,    1,    1 ]
    SOCC [     0,    0,    0,    1,    0,    0,    0,    0 ]
    NA   [     3,    0,    0,    1,    0,    2,    1,    1 ]
    NB   [     3,    0,    0,    0,    0,    2,    1,    1 ]

  @DF-UKS Final Energy:  -149.74926801565479

   => Energetics <=

    Nuclear Repulsion Energy =             21.7080531103088958
    One-Electron Energy =                -242.3652856463767478
    Two-Electron Energy =                  84.1060224159274554
    DFT Exchange-Correlation Energy =     -13.1980578955144079
    Empirical Dispersion Energy =           0.0000000000000000
    VV10 Nonlocal Energy =                  0.0000000000000000
    Total Energy =                       -149.7492680156548204

  UHF NO Occupations:
  HONO-2 :    2B1u 1.9997788
  HONO-1 :    1B2u 1.9985614
  HONO-0 :    1B3g 1.0000000
  LUNO+0 :    2B2u 0.0014386
  LUNO+1 :    3B1u 0.0002212
  LUNO+2 :    4 Ag 0.0001515
  LUNO+3 :    2B3u 0.0000420


Computation Completed


Properties will be evaluated at   0.000000,   0.000000,   0.000000 [a0]

Properties computed using the B3LYP density matrix


 Multipole Moments:

 ------------------------------------------------------------------------------------
     Multipole            Electronic (a.u.)      Nuclear  (a.u.)        Total (a.u.)
 ------------------------------------------------------------------------------------

 L = 1.  Multiply by 2.5417464519 to convert [e a0] to [Debye]
 Dipole X            :          0.0000000            0.0000000            0.0000000
 Dipole Y            :          0.0000000            0.0000000            0.0000000
 Dipole Z            :          0.0000000            0.0000000            0.0000000
 Magnitude           :                                                    0.0000000

 L = 2.  Multiply by 1.3450342976 to convert [e a0^2] to [Debye ang]
 Quadrupole XX       :         -6.0414971            0.0000000           -6.0414971
 Quadrupole XY       :          0.0000000            0.0000000            0.0000000
 Quadrupole XZ       :          0.0000000            0.0000000            0.0000000
 Quadrupole YY       :         -6.5993146            0.0000000           -6.5993146
 Quadrupole YZ       :          0.0000000            0.0000000            0.0000000
 Quadrupole ZZ       :        -38.1476622           34.7678783           -3.3797839
 Traceless XX        :         10.8879942          -11.5892928           -0.7012986
 Traceless YY        :         10.3301767          -11.5892928           -1.2591161
 Traceless ZZ        :        -21.2181709           23.1785855            1.9604146

 ------------------------------------------------------------------------------------
  ==> Computing MBIS Charges <==

  Electron Count from Grid (Expected Number): 15.00000 (15.00000)
  Difference: -0.00000

  MBIS Charges: (a.u.)
   Center  Symbol  Z      Pop.       Charge
      1       O    8    7.499999    0.500001
      2       O    8    7.499999    0.500001

  MBIS Dipoles: [e a0]
   Center  Symbol  Z        X           Y           Z
      1       O    8    0.000000    0.000000   -0.124354
      2       O    8   -0.000000    0.000000    0.124354

  MBIS Quadrupoles: [e a0^2]
   Center  Symbol  Z      XX        XY        XZ        YY        YZ        ZZ
      1       O    8   -3.0207    0.0000    0.0000   -3.2997   -0.0000   -3.1430
      2       O    8   -3.0207    0.0000   -0.0000   -3.2997   -0.0000   -3.1430

  MBIS Octupoles: [e a0^3]
   Center  Symbol  Z      XXX       XXY       XXZ       XYY       XYZ       XZZ       YYY       YYZ       YZZ       ZZZ
      1       O    8   -0.0000   -0.0000   -0.1784   -0.0000   -0.0000   -0.0000    0.0000   -0.1305    0.0000   -0.5022
      2       O    8   -0.0000    0.0000    0.1784    0.0000    0.0000   -0.0000    0.0000    0.1305    0.0000    0.5022

  MBIS Radial Moments:
   Center  Symbol  Z      [a0^2]      [a0^3]      [a0^4]      
      1       O    8    9.463416   16.814134   35.886326
      2       O    8    9.463416   16.814134   35.886326

  MBIS Valence Widths: [a0]
   Center  Symbol  Z     Width
      1       O    8    0.368270
      2       O    8    0.368270

*** tstop() called on Mac.lan at Wed Aug 27 10:27:54 2025
Module time:
	user time   =      24.07 seconds =       0.40 minutes
	system time =       2.44 seconds =       0.04 minutes
	total time  =          3 seconds =       0.05 minutes
Total time:
	user time   =     120.71 seconds =       2.01 minutes
	system time =       7.29 seconds =       0.12 minutes
	total time  =         14 seconds =       0.23 minutes

    Psi4 stopped on: Wednesday, 27 August 2025 10:27AM
    Psi4 wall time for execution: 0:00:13.57

*** Psi4 exiting successfully. Buy a developer a beer!
