
    -----------------------------------------------------------------------
          Psi4: An Open-Source Ab Initio Electronic Structure Package
                               Psi4 1.9.1 release

                         Git: Rev {} zzzzzzz 


    D. G. A. Smith, L. A. Burns, A. C. Simmonett, R. M. Parrish,
    M. C. Schieber, R. Galvelis, P. Kraus, H. Kruse, R. Di Remigio,
    A. Alenaizan, A. M. James, S. Lehtola, J. P. Misiewicz, M. Scheurer,
    R. A. Shaw, J. B. Schriber, Y. Xie, Z. L. Glick, D. A. Sirianni,
    J. S. O'Brien, J. M. Waldrop, A. Kumar, E. G. Hohenstein,
    B. P. Pritchard, B. R. Brooks, H. F. Schaefer III, A. Yu. Sokolov,
    K. Patkowski, A. E. DePrince III, U. Bozkaya, R. A. King,
    F. A. Evangelista, J. M. Turney, T. D. Crawford, C. D. Sherrill,
    J. Chem. Phys. 152(18) 184108 (2020). https://doi.org/10.1063/5.0006002

                            Additional Code Authors
    E. T. Seidl, C. L. Janssen, E. F. Valeev, M. L. Leininger,
    J. F. Gonthier, R. M. Richard, H. R. McAlexander, M. Saitow, X. Wang,
    P. Verma, M. H. Lechner, A. Jiang, S. Behnle, A. G. Heide,
    M. F. Herbst, and D. L. Poole

             Previous Authors, Complete List of Code Contributors,
                       and Citations for Specific Modules
    https://github.com/psi4/psi4/blob/master/codemeta.json
    https://github.com/psi4/psi4/graphs/contributors
    http://psicode.org/psi4manual/master/introduction.html#citing-psifour

    -----------------------------------------------------------------------


    Psi4 started on: Wednesday, 27 August 2025 11:06AM

    Process ID: 68798
    Host:       Mac.lan
    PSIDATADIR: /Users/joseantoniorodriguesromero/anaconda3/share/psi4
    Memory:     500.0 MiB
    Threads:    1
    
  ==> Input File <==

--------------------------------------------------------------------------
molecule { 
1 3
N           0.000000           0.000000           0.000000
C           0.000000           0.000000           0.583108
}

set { 
basis              cc-pvtz
reference          uks
maxiter            500
DAMPING_PERCENTAGE 1
E_CONVERGENCE      1.0E-8
D_CONVERGENCE      1.0E-8
DIIS_MAX_VECS      400
MBIS_MAXITER       8000
guess              read
}

E, wfn = energy('b3lyp', restart_file='last_wfn', return_wfn=True)
properties('b3lyp','MBIS_CHARGES', wfn=wfn)
wfn.to_file('last_wfn')
--------------------------------------------------------------------------

Scratch directory: /tmp/
 Found user provided orbital data. Setting orbital guess to READ 
 Copying restart file <last_wfn.npy> to </tmp/scan_CN_6.default.68798.180.npy> for internal processing
   => Libint2 <=

    Primary   basis highest AM E, G, H:  6, 6, 3
    Auxiliary basis highest AM E, G, H:  7, 7, 4
    Onebody   basis highest AM E, G, H:  -, -, -
    Solid Harmonics ordering:            Gaussian

*** tstart() called on Mac.lan
*** at Wed Aug 27 11:06:44 2025

   => Loading Basis Set <=

    Name: CC-PVTZ
    Role: ORBITAL
    Keyword: BASIS
    atoms 1 entry N          line   224 file /Users/joseantoniorodriguesromero/anaconda3/share/psi4/basis/cc-pvtz.gbs 
    atoms 2 entry C          line   186 file /Users/joseantoniorodriguesromero/anaconda3/share/psi4/basis/cc-pvtz.gbs 


         ---------------------------------------------------------
                                   SCF
               by Justin Turney, Rob Parrish, Andy Simmonett
                          and Daniel G. A. Smith
                              UKS Reference
                        1 Threads,    500 MiB Core
         ---------------------------------------------------------

  ==> Geometry <==

    Molecular point group: c2v
    Full point group: C_inf_v

    Geometry (in Angstrom), charge = 1, multiplicity = 3:

       Center              X                  Y                   Z               Mass       
    ------------   -----------------  -----------------  -----------------  -----------------
         N            0.000000000000     0.000000000000    -0.269094953882    14.003074004430
         C            0.000000000000     0.000000000000     0.314013046118    12.000000000000

  Running in c2v symmetry.

  Rotational constants: A = ************  B =      7.67218  C =      7.67218 [cm^-1]
  Rotational constants: A = ************  B = 230006.05104  C = 230006.05104 [MHz]
  Nuclear repulsion =   38.115482634674883

  Charge       = 1
  Multiplicity = 3
  Electrons    = 12
  Nalpha       = 7
  Nbeta        = 5

  ==> Algorithm <==

  SCF Algorithm Type is DF.
  DIIS enabled.
  MOM disabled.
  Fractional occupation disabled.
  Guess Type is READ.
  Energy threshold   = 1.00e-08
  Density threshold  = 1.00e-08
  Integral threshold = 1.00e-12

  ==> Primary Basis <==

  Basis Set: CC-PVTZ
    Blend: CC-PVTZ
    Number of shells: 20
    Number of basis functions: 60
    Number of Cartesian functions: 70
    Spherical Harmonics?: true
    Max angular momentum: 3

  ==> DFT Potential <==

   => LibXC <=

    Version 6.2.2
    S. Lehtola, C. Steigemann, M. J.T. Oliveira, and M. A.L. Marques.,  SoftwareX 7, 1–5 (2018) (10.1016/j.softx.2017.11.002)

   => Composite Functional: B3LYP <= 

    B3LYP Hyb-GGA Exchange-Correlation Functional

    P. J. Stephens, F. J. Devlin, C. F. Chabalowski, and M. J. Frisch.,  J. Phys. Chem. 98, 11623 (1994) (10.1021/j100096a001)

    Deriv               =              1
    GGA                 =           TRUE
    Meta                =          FALSE

    Exchange Hybrid     =           TRUE
    MP2 Hybrid          =          FALSE

   => Exchange Functionals <=

    0.0800   Slater exchange
    0.7200         Becke 88

   => Exact (HF) Exchange <=

    0.2000               HF 

   => Correlation Functionals <=

    0.1900   Vosko, Wilk & Nusair (VWN5_RPA)
    0.8100   Lee, Yang & Parr

   => LibXC Density Thresholds  <==

    XC_HYB_GGA_XC_B3LYP:  1.00E-15 

   => Molecular Quadrature <=

    Radial Scheme          =       TREUTLER
    Pruning Scheme         =           NONE
    Nuclear Scheme         =       TREUTLER

    Blocking Scheme        =         OCTREE
    BS radius alpha        =              1
    Pruning alpha          =              1
    Radial Points          =             75
    Spherical Points       =            302
    Total Points           =          43068
    Total Blocks           =            386
    Max Points             =            256
    Max Functions          =             60
    Weights Tolerance      =       1.00E-15

   => Loading Basis Set <=

    Name: (CC-PVTZ AUX)
    Role: JKFIT
    Keyword: DF_BASIS_SCF
    atoms 1 entry N          line   177 file /Users/joseantoniorodriguesromero/anaconda3/share/psi4/basis/cc-pvtz-jkfit.gbs 
    atoms 2 entry C          line   125 file /Users/joseantoniorodriguesromero/anaconda3/share/psi4/basis/cc-pvtz-jkfit.gbs 

   => Loading Basis Set <=

    Name: CC-PVTZ
    Role: ORBITAL
    Keyword: BASIS
    atoms 1 entry N          line   224 file /Users/joseantoniorodriguesromero/anaconda3/share/psi4/basis/cc-pvtz.gbs 
    atoms 2 entry C          line   186 file /Users/joseantoniorodriguesromero/anaconda3/share/psi4/basis/cc-pvtz.gbs 

  Reading orbitals from file /tmp/scan_CN_6.default.68798.180.npy, no projection.

  ==> Integral Setup <==

  DFHelper Memory: AOs need 0.005 GiB; user supplied 0.294 GiB. 
  Using in-core AOs.

  ==> MemDFJK: Density-Fitted J/K Matrices <==

    J tasked:                   Yes
    K tasked:                   Yes
    wK tasked:                   No
    OpenMP threads:               1
    Memory [MiB]:               300
    Algorithm:                 Core
    Schwarz Cutoff:           1E-12
    Mask sparsity (%):       0.0000
    Fitting Condition:        1E-10

   => Auxiliary Basis Set <=

  Basis Set: (CC-PVTZ AUX)
    Blend: CC-PVTZ-JKFIT
    Number of shells: 50
    Number of basis functions: 158
    Number of Cartesian functions: 192
    Spherical Harmonics?: true
    Max angular momentum: 4

  Cached 100.0% of DFT collocation blocks in 0.072 [GiB].

  Minimum eigenvalue in the overlap matrix is 1.3568219998E-03.
  Reciprocal condition number of the overlap matrix is 3.0679792114E-04.
    Using symmetric orthogonalization.

  ==> Pre-Iterations <==

  SCF Guess: Orbitals guess was supplied from a previous computation.

   -------------------------------------------------------
    Irrep   Nso     Nmo     Nalpha   Nbeta   Ndocc  Nsocc
   -------------------------------------------------------
     A1        26      26       5       3       3       2
     A2         6       6       0       0       0       0
     B1        14      14       1       1       1       0
     B2        14      14       1       1       1       0
   -------------------------------------------------------
    Total      60      60       7       5       5       2
   -------------------------------------------------------

  ==> Iterations <==

                           Total Energy        Delta E     RMS |[F,P]|

   @DF-UKS iter   0:   -89.20458123560746   -8.92046e+01   1.22408e-02 
   @DF-UKS iter   1:   -89.20995079480278   -5.36956e-03   2.23796e-03 ADIIS/DIIS
   @DF-UKS iter   2:   -89.21100122760271   -1.05043e-03   1.59588e-03 ADIIS/DIIS/DAMP=1%
   @DF-UKS iter   3:   -89.21058421369995    4.17014e-04   8.78185e-05 DIIS/DAMP=1%
   @DF-UKS iter   4:   -89.21175805728922   -1.17384e-03   3.62101e-05 DIIS/DAMP=1%
   @DF-UKS iter   5:   -89.21172394543559    3.41119e-05   1.53093e-06 DIIS/DAMP=1%
   @DF-UKS iter   6:   -89.21174261176381   -1.86663e-05   7.68919e-07 DIIS/DAMP=1%
   @DF-UKS iter   7:   -89.21174206835587    5.43408e-07   1.46901e-07 DIIS/DAMP=1%
   @DF-UKS iter   8:   -89.21174216843060   -1.00075e-07   1.91991e-08 DIIS/DAMP=1%
   @DF-UKS iter   9:   -89.21174213348576    3.49448e-08   1.32590e-09 DIIS/DAMP=1%
   @DF-UKS iter  10:   -89.21174214361393   -1.01282e-08   1.44136e-10 DIIS/DAMP=1%
   @DF-UKS iter  11:   -89.21174214271214    9.01792e-10   5.89268e-12 DIIS/DAMP=1%
  Energy and wave function converged.


  ==> Post-Iterations <==

   Electrons on quadrature grid:
      Nalpha   =    6.9999999242 ; deviation = -7.576e-08
      Nbeta    =    4.9999999261 ; deviation = -7.390e-08
      Ntotal   =   11.9999998503 ; deviation = -1.497e-07 

   @Spin Contamination Metric:   1.674977081E-03
   @S^2 Expected:                2.000000000E+00
   @S^2 Observed:                2.001674977E+00
   @S   Expected:                1.000000000E+00
   @S   Observed:                1.000000000E+00

    Orbital Energies [Eh]
    ---------------------

    Alpha Occupied:                                                       

       1A1   -15.049717     2A1   -10.962297     3A1    -1.356137  
       1B2    -1.174599     1B1    -1.174599     4A1    -0.865192  
       5A1    -0.780232  

    Alpha Virtual:                                                        

       2B1    -0.128002     2B2    -0.128002     6A1    -0.103545  
       3B1    -0.028076     3B2    -0.028076     7A1    -0.012481  
       8A1     0.155111     9A1     0.279507     1A2     0.279507  
       4B2     0.289227     4B1     0.289227    10A1     0.565949  
       5B1     0.757552     5B2     0.757552    11A1     0.821249  
       2A2     0.944227    12A1     0.944227     6B1     1.010984  
       6B2     1.010984    13A1     1.096663     7B1     1.672260  
       7B2     1.672260    14A1     1.769386     8B2     2.220846  
       8B1     2.220846    15A1     2.288825    16A1     2.366840  
       3A2     2.366841     9B1     2.542966     9B2     2.542966  
      17A1     2.658301     4A2     2.703396    18A1     2.703396  
      10B1     3.062603    10B2     3.062603    19A1     3.486987  
      11B1     3.751199    11B2     3.751199    12B1     3.901573  
      12B2     3.901573     5A2     4.006895    20A1     4.006895  
      21A1     4.490563    13B2     5.310153    13B1     5.310153  
       6A2     5.700436    22A1     5.700436    23A1     5.764032  
      24A1     6.151229    14B1     6.915413    14B2     6.915413  
      25A1     8.385985    26A1    21.320944  

    Beta Occupied:                                                        

       1A1   -15.010223     2A1   -10.915896     3A1    -1.291428  
       1B2    -1.137080     1B1    -1.137080  

    Beta Virtual:                                                         

       4A1    -0.566346     5A1    -0.519856     2B1    -0.106699  
       2B2    -0.106699     6A1    -0.080036     3B1     0.001825  
       3B2     0.001825     7A1     0.026998     8A1     0.201942  
       1A2     0.289844     9A1     0.289844     4B2     0.324125  
       4B1     0.324125    10A1     0.613058     5B1     0.799241  
       5B2     0.799241    11A1     0.878261     2A2     0.957977  
      12A1     0.957977     6B1     1.035043     6B2     1.035043  
      13A1     1.189071     7B1     1.722648     7B2     1.722648  
      14A1     1.845830     8B2     2.238523     8B1     2.238523  
       3A2     2.408761    15A1     2.408762    16A1     2.447366  
       9B1     2.644066     9B2     2.644066    17A1     2.748896  
       4A2     2.751147    18A1     2.751150    10B1     3.100382  
      10B2     3.100382    19A1     3.589646    11B1     3.845254  
      11B2     3.845254    12B1     3.918144    12B2     3.918144  
       5A2     4.061480    20A1     4.061481    21A1     4.597396  
      13B2     5.394287    13B1     5.394287     6A2     5.735674  
      22A1     5.735676    23A1     5.880755    24A1     6.208600  
      14B1     6.981025    14B2     6.981025    25A1     8.502298  
      26A1    21.369427  

    Final Occupation by Irrep:
             A1    A2    B1    B2 
    DOCC [     3,    0,    1,    1 ]
    SOCC [     2,    0,    0,    0 ]
    NA   [     5,    0,    1,    1 ]
    NB   [     3,    0,    1,    1 ]

  @DF-UKS Final Energy:   -89.21174214271214

   => Energetics <=

    Nuclear Repulsion Energy =             38.1154826346748834
    One-Electron Energy =                -186.3057249369871329
    Two-Electron Energy =                  69.4191154203879677
    DFT Exchange-Correlation Energy =     -10.4406152607878671
    Empirical Dispersion Energy =           0.0000000000000000
    VV10 Nonlocal Energy =                  0.0000000000000000
    Total Energy =                        -89.2117421427121400

  UHF NO Occupations:
  HONO-2 :    3 A1 1.9994600
  HONO-1 :    4 A1 1.0000000
  HONO-0 :    5 A1 1.0000000
  LUNO+0 :    6 A1 0.0005400
  LUNO+1 :    2 B2 0.0001470
  LUNO+2 :    2 B1 0.0001470
  LUNO+3 :    7 A1 0.0000024


Computation Completed


Properties will be evaluated at   0.000000,   0.000000,   0.000000 [a0]

Properties computed using the SCF density matrix


 Multipole Moments:

 ------------------------------------------------------------------------------------
     Multipole            Electronic (a.u.)      Nuclear  (a.u.)        Total (a.u.)
 ------------------------------------------------------------------------------------

 L = 1.  Multiply by 2.5417464519 to convert [e a0] to [Debye]
 Dipole X            :          0.0000000            0.0000000            0.0000000
 Dipole Y            :          0.0000000            0.0000000            0.0000000
 Dipole Z            :          0.0182142            0.0007816            0.0189958
 Magnitude           :                                                    0.0189958

 ------------------------------------------------------------------------------------

*** tstop() called on Mac.lan at Wed Aug 27 11:06:50 2025
Module time:
	user time   =      53.68 seconds =       0.89 minutes
	system time =       2.09 seconds =       0.03 minutes
	total time  =          6 seconds =       0.10 minutes
Total time:
	user time   =      53.68 seconds =       0.89 minutes
	system time =       2.09 seconds =       0.03 minutes
	total time  =          6 seconds =       0.10 minutes

*** tstart() called on Mac.lan
*** at Wed Aug 27 11:06:50 2025

   => Libint2 <=

    Primary   basis highest AM E, G, H:  6, 6, 3
    Auxiliary basis highest AM E, G, H:  7, 7, 4
    Onebody   basis highest AM E, G, H:  -, -, -
    Solid Harmonics ordering:            Gaussian
   => Loading Basis Set <=

    Name: CC-PVTZ
    Role: ORBITAL
    Keyword: BASIS
    atoms 1 entry N          line   224 file /Users/joseantoniorodriguesromero/anaconda3/share/psi4/basis/cc-pvtz.gbs 
    atoms 2 entry C          line   186 file /Users/joseantoniorodriguesromero/anaconda3/share/psi4/basis/cc-pvtz.gbs 


         ---------------------------------------------------------
                                   SCF
               by Justin Turney, Rob Parrish, Andy Simmonett
                          and Daniel G. A. Smith
                              UKS Reference
                        1 Threads,    500 MiB Core
         ---------------------------------------------------------

  ==> Geometry <==

    Molecular point group: c2v
    Full point group: C_inf_v

    Geometry (in Angstrom), charge = 1, multiplicity = 3:

       Center              X                  Y                   Z               Mass       
    ------------   -----------------  -----------------  -----------------  -----------------
         N            0.000000000000     0.000000000000    -0.269094953882    14.003074004430
         C            0.000000000000     0.000000000000     0.314013046118    12.000000000000

  Running in c2v symmetry.

  Rotational constants: A = ************  B =      7.67218  C =      7.67218 [cm^-1]
  Rotational constants: A = ************  B = 230006.05104  C = 230006.05104 [MHz]
  Nuclear repulsion =   38.115482634674883

  Charge       = 1
  Multiplicity = 3
  Electrons    = 12
  Nalpha       = 7
  Nbeta        = 5

  ==> Algorithm <==

  SCF Algorithm Type is DF.
  DIIS enabled.
  MOM disabled.
  Fractional occupation disabled.
  Guess Type is READ.
  Energy threshold   = 1.00e-08
  Density threshold  = 1.00e-08
  Integral threshold = 1.00e-12

  ==> Primary Basis <==

  Basis Set: CC-PVTZ
    Blend: CC-PVTZ
    Number of shells: 20
    Number of basis functions: 60
    Number of Cartesian functions: 70
    Spherical Harmonics?: true
    Max angular momentum: 3

  ==> DFT Potential <==

   => LibXC <=

    Version 6.2.2
    S. Lehtola, C. Steigemann, M. J.T. Oliveira, and M. A.L. Marques.,  SoftwareX 7, 1–5 (2018) (10.1016/j.softx.2017.11.002)

   => Composite Functional: B3LYP <= 

    B3LYP Hyb-GGA Exchange-Correlation Functional

    P. J. Stephens, F. J. Devlin, C. F. Chabalowski, and M. J. Frisch.,  J. Phys. Chem. 98, 11623 (1994) (10.1021/j100096a001)

    Deriv               =              1
    GGA                 =           TRUE
    Meta                =          FALSE

    Exchange Hybrid     =           TRUE
    MP2 Hybrid          =          FALSE

   => Exchange Functionals <=

    0.0800   Slater exchange
    0.7200         Becke 88

   => Exact (HF) Exchange <=

    0.2000               HF 

   => Correlation Functionals <=

    0.1900   Vosko, Wilk & Nusair (VWN5_RPA)
    0.8100   Lee, Yang & Parr

   => LibXC Density Thresholds  <==

    XC_HYB_GGA_XC_B3LYP:  1.00E-15 

   => Molecular Quadrature <=

    Radial Scheme          =       TREUTLER
    Pruning Scheme         =           NONE
    Nuclear Scheme         =       TREUTLER

    Blocking Scheme        =         OCTREE
    BS radius alpha        =              1
    Pruning alpha          =              1
    Radial Points          =             75
    Spherical Points       =            302
    Total Points           =          43068
    Total Blocks           =            386
    Max Points             =            256
    Max Functions          =             60
    Weights Tolerance      =       1.00E-15

   => Loading Basis Set <=

    Name: (CC-PVTZ AUX)
    Role: JKFIT
    Keyword: DF_BASIS_SCF
    atoms 1 entry N          line   177 file /Users/joseantoniorodriguesromero/anaconda3/share/psi4/basis/cc-pvtz-jkfit.gbs 
    atoms 2 entry C          line   125 file /Users/joseantoniorodriguesromero/anaconda3/share/psi4/basis/cc-pvtz-jkfit.gbs 

   => Loading Basis Set <=

    Name: CC-PVTZ
    Role: ORBITAL
    Keyword: BASIS
    atoms 1 entry N          line   224 file /Users/joseantoniorodriguesromero/anaconda3/share/psi4/basis/cc-pvtz.gbs 
    atoms 2 entry C          line   186 file /Users/joseantoniorodriguesromero/anaconda3/share/psi4/basis/cc-pvtz.gbs 

  Reading orbitals from file /tmp/scan_CN_6.default.68798.180.npy, no projection.

  ==> Integral Setup <==

  DFHelper Memory: AOs need 0.005 GiB; user supplied 0.294 GiB. 
  Using in-core AOs.

  ==> MemDFJK: Density-Fitted J/K Matrices <==

    J tasked:                   Yes
    K tasked:                   Yes
    wK tasked:                   No
    OpenMP threads:               1
    Memory [MiB]:               300
    Algorithm:                 Core
    Schwarz Cutoff:           1E-12
    Mask sparsity (%):       0.0000
    Fitting Condition:        1E-10

   => Auxiliary Basis Set <=

  Basis Set: (CC-PVTZ AUX)
    Blend: CC-PVTZ-JKFIT
    Number of shells: 50
    Number of basis functions: 158
    Number of Cartesian functions: 192
    Spherical Harmonics?: true
    Max angular momentum: 4

  Cached 100.0% of DFT collocation blocks in 0.072 [GiB].

  Minimum eigenvalue in the overlap matrix is 1.3568219998E-03.
  Reciprocal condition number of the overlap matrix is 3.0679792114E-04.
    Using symmetric orthogonalization.

  ==> Pre-Iterations <==

  SCF Guess: Orbitals guess was supplied from a previous computation.

   -------------------------------------------------------
    Irrep   Nso     Nmo     Nalpha   Nbeta   Ndocc  Nsocc
   -------------------------------------------------------
     A1        26      26       5       3       3       2
     A2         6       6       0       0       0       0
     B1        14      14       1       1       1       0
     B2        14      14       1       1       1       0
   -------------------------------------------------------
    Total      60      60       7       5       5       2
   -------------------------------------------------------

  ==> Iterations <==

                           Total Energy        Delta E     RMS |[F,P]|

   @DF-UKS iter   0:   -89.21174214277161   -8.92117e+01   5.07534e-13 
   @DF-UKS iter   1:   -89.21174214277160    1.42109e-14   3.15821e-13 DIIS
  Energy and wave function converged.


  ==> Post-Iterations <==

   Electrons on quadrature grid:
      Nalpha   =    6.9999999242 ; deviation = -7.576e-08
      Nbeta    =    4.9999999261 ; deviation = -7.390e-08
      Ntotal   =   11.9999998503 ; deviation = -1.497e-07 

   @Spin Contamination Metric:   1.674977081E-03
   @S^2 Expected:                2.000000000E+00
   @S^2 Observed:                2.001674977E+00
   @S   Expected:                1.000000000E+00
   @S   Observed:                1.000000000E+00

    Orbital Energies [Eh]
    ---------------------

    Alpha Occupied:                                                       

       1A1   -15.049717     2A1   -10.962297     3A1    -1.356137  
       1B2    -1.174599     1B1    -1.174599     4A1    -0.865192  
       5A1    -0.780232  

    Alpha Virtual:                                                        

       2B1    -0.128002     2B2    -0.128002     6A1    -0.103545  
       3B1    -0.028076     3B2    -0.028076     7A1    -0.012481  
       8A1     0.155111     9A1     0.279507     1A2     0.279507  
       4B2     0.289227     4B1     0.289227    10A1     0.565949  
       5B1     0.757552     5B2     0.757552    11A1     0.821249  
       2A2     0.944227    12A1     0.944227     6B1     1.010984  
       6B2     1.010984    13A1     1.096663     7B1     1.672260  
       7B2     1.672260    14A1     1.769386     8B2     2.220846  
       8B1     2.220846    15A1     2.288825    16A1     2.366840  
       3A2     2.366841     9B1     2.542966     9B2     2.542966  
      17A1     2.658301     4A2     2.703396    18A1     2.703396  
      10B1     3.062603    10B2     3.062603    19A1     3.486987  
      11B1     3.751199    11B2     3.751199    12B1     3.901573  
      12B2     3.901573     5A2     4.006895    20A1     4.006895  
      21A1     4.490563    13B2     5.310153    13B1     5.310153  
       6A2     5.700436    22A1     5.700436    23A1     5.764032  
      24A1     6.151229    14B1     6.915413    14B2     6.915413  
      25A1     8.385985    26A1    21.320944  

    Beta Occupied:                                                        

       1A1   -15.010223     2A1   -10.915896     3A1    -1.291428  
       1B2    -1.137080     1B1    -1.137080  

    Beta Virtual:                                                         

       4A1    -0.566346     5A1    -0.519856     2B1    -0.106699  
       2B2    -0.106699     6A1    -0.080036     3B1     0.001825  
       3B2     0.001825     7A1     0.026998     8A1     0.201942  
       1A2     0.289844     9A1     0.289844     4B2     0.324125  
       4B1     0.324125    10A1     0.613058     5B1     0.799241  
       5B2     0.799241    11A1     0.878261     2A2     0.957977  
      12A1     0.957977     6B1     1.035043     6B2     1.035043  
      13A1     1.189071     7B1     1.722648     7B2     1.722648  
      14A1     1.845830     8B2     2.238523     8B1     2.238523  
       3A2     2.408761    15A1     2.408762    16A1     2.447366  
       9B1     2.644066     9B2     2.644066    17A1     2.748896  
       4A2     2.751147    18A1     2.751150    10B1     3.100382  
      10B2     3.100382    19A1     3.589646    11B1     3.845254  
      11B2     3.845254    12B1     3.918144    12B2     3.918144  
       5A2     4.061480    20A1     4.061481    21A1     4.597396  
      13B2     5.394287    13B1     5.394287     6A2     5.735674  
      22A1     5.735676    23A1     5.880755    24A1     6.208600  
      14B1     6.981025    14B2     6.981025    25A1     8.502298  
      26A1    21.369427  

    Final Occupation by Irrep:
             A1    A2    B1    B2 
    DOCC [     3,    0,    1,    1 ]
    SOCC [     2,    0,    0,    0 ]
    NA   [     5,    0,    1,    1 ]
    NB   [     3,    0,    1,    1 ]

  @DF-UKS Final Energy:   -89.21174214277160

   => Energetics <=

    Nuclear Repulsion Energy =             38.1154826346748834
    One-Electron Energy =                -186.3057249369286410
    Two-Electron Energy =                  69.4191154202562331
    DFT Exchange-Correlation Energy =     -10.4406152607740825
    Empirical Dispersion Energy =           0.0000000000000000
    VV10 Nonlocal Energy =                  0.0000000000000000
    Total Energy =                        -89.2117421427715982

  UHF NO Occupations:
  HONO-2 :    3 A1 1.9994600
  HONO-1 :    4 A1 1.0000000
  HONO-0 :    5 A1 1.0000000
  LUNO+0 :    6 A1 0.0005400
  LUNO+1 :    2 B2 0.0001470
  LUNO+2 :    2 B1 0.0001470
  LUNO+3 :    7 A1 0.0000024


Computation Completed


Properties will be evaluated at   0.000000,   0.000000,   0.000000 [a0]

Properties computed using the B3LYP density matrix


 Multipole Moments:

 ------------------------------------------------------------------------------------
     Multipole            Electronic (a.u.)      Nuclear  (a.u.)        Total (a.u.)
 ------------------------------------------------------------------------------------

 L = 1.  Multiply by 2.5417464519 to convert [e a0] to [Debye]
 Dipole X            :          0.0000000            0.0000000            0.0000000
 Dipole Y            :          0.0000000            0.0000000            0.0000000
 Dipole Z            :          0.0182142            0.0007816            0.0189958
 Magnitude           :                                                    0.0189958

 L = 2.  Multiply by 1.3450342976 to convert [e a0^2] to [Debye ang]
 Quadrupole XX       :         -4.7794277            0.0000000           -4.7794277
 Quadrupole XY       :          0.0000000            0.0000000            0.0000000
 Quadrupole XZ       :          0.0000000            0.0000000            0.0000000
 Quadrupole YY       :         -4.7794277            0.0000000           -4.7794277
 Quadrupole YZ       :          0.0000000            0.0000000            0.0000000
 Quadrupole ZZ       :         -8.2961974            3.9228498           -4.3733476
 Traceless XX        :          1.1722565           -1.3076166           -0.1353600
 Traceless YY        :          1.1722565           -1.3076166           -0.1353600
 Traceless ZZ        :         -2.3445131            2.6152332            0.2707201

 ------------------------------------------------------------------------------------
  ==> Computing MBIS Charges <==

  Electron Count from Grid (Expected Number): 12.00000 (12.00000)
  Difference:  0.00000

  MBIS Charges: (a.u.)
   Center  Symbol  Z      Pop.       Charge
      1       N    7    6.606766    0.393234
      2       C    6    5.393235    0.606765

  MBIS Dipoles: [e a0]
   Center  Symbol  Z        X           Y           Z
      1       N    7   -0.000000   -0.000000   -0.237709
      2       C    6   -0.000000   -0.000000    0.096617

  MBIS Quadrupoles: [e a0^2]
   Center  Symbol  Z      XX        XY        XZ        YY        YZ        ZZ
      1       N    7   -2.4943    0.0000   -0.0000   -2.4943   -0.0000   -2.5353
      2       C    6   -2.2852    0.0000    0.0000   -2.2852    0.0000   -2.5098

  MBIS Octupoles: [e a0^3]
   Center  Symbol  Z      XXX       XXY       XXZ       XYY       XYZ       XZZ       YYY       YYZ       YZZ       ZZZ
      1       N    7   -0.0000   -0.0000   -0.1031   -0.0000   -0.0000   -0.0000   -0.0000   -0.1031    0.0000    0.0253
      2       C    6   -0.0000   -0.0000   -0.0337   -0.0000    0.0000    0.0000   -0.0000   -0.0337    0.0000   -0.4496

  MBIS Radial Moments:
   Center  Symbol  Z      [a0^2]      [a0^3]      [a0^4]      
      1       N    7    7.523812   12.677803   25.712866
      2       C    6    7.080155   13.347660   30.470678

  MBIS Valence Widths: [a0]
   Center  Symbol  Z     Width
      1       N    7    0.352498
      2       C    6    0.391320

*** tstop() called on Mac.lan at Wed Aug 27 11:06:52 2025
Module time:
	user time   =      12.79 seconds =       0.21 minutes
	system time =       3.02 seconds =       0.05 minutes
	total time  =          2 seconds =       0.03 minutes
Total time:
	user time   =      66.51 seconds =       1.11 minutes
	system time =       5.33 seconds =       0.09 minutes
	total time  =          8 seconds =       0.13 minutes

    Psi4 stopped on: Wednesday, 27 August 2025 11:06AM
    Psi4 wall time for execution: 0:00:07.40

*** Psi4 exiting successfully. Buy a developer a beer!
