
    -----------------------------------------------------------------------
          Psi4: An Open-Source Ab Initio Electronic Structure Package
                               Psi4 1.10 release

                         Git: Rev {} zzzzzzz 


    D. G. A. Smith, L. A. Burns, A. C. Simmonett, R. M. Parrish,
    M. C. Schieber, R. Galvelis, P. Kraus, H. Kruse, R. Di Remigio,
    A. Alenaizan, A. M. James, S. Lehtola, J. P. Misiewicz, M. Scheurer,
    R. A. Shaw, J. B. Schriber, Y. Xie, Z. L. Glick, D. A. Sirianni,
    J. S. O'Brien, J. M. Waldrop, A. Kumar, E. G. Hohenstein,
    B. P. Pritchard, B. R. Brooks, H. F. Schaefer III, A. Yu. Sokolov,
    K. Patkowski, A. E. DePrince III, U. Bozkaya, R. A. King,
    F. A. Evangelista, J. M. Turney, T. D. Crawford, C. D. Sherrill,
    J. Chem. Phys. 152(18) 184108 (2020). https://doi.org/10.1063/5.0006002

                            Additional Code Authors
    E. T. Seidl, C. L. Janssen, E. F. Valeev, M. L. Leininger,
    J. F. Gonthier, R. M. Richard, H. R. McAlexander, M. Saitow, X. Wang,
    P. Verma, M. H. Lechner, A. Jiang, S. Behnle, A. G. Heide,
    M. F. Herbst, D. L. Poole, T. Győri, E. C. Mitchell, J. P. Pederson,
    and A. M. Wallace

             Previous Authors, Complete List of Code Contributors,
                       and Citations for Specific Modules
    https://github.com/psi4/psi4/blob/master/codemeta.json
    https://github.com/psi4/psi4/graphs/contributors
    https://psicode.org/psi4manual/master/introduction.html#citing-psifour

    -----------------------------------------------------------------------


    Psi4 started on: Tuesday, 23 December 2025 01:39PM

    Process ID: 510216
    Host:       cics-quant-001
    PSIDATADIR: /home/jrodriguesro/psi4conda/share/psi4
    Memory:     500.0 MiB
    Threads:    5
    Addons:     adcc, a̶m̶b̶i̶t̶, b̶s̶e̶, c̶c̶t̶3̶, c̶f̶o̶u̶r̶, c̶h̶e̶m̶p̶s̶2̶, c̶p̶p̶e̶, ddx, dftd3, dftd4,
                dkh, ecpint, einsums, f̶o̶r̶t̶e̶, g̶a̶u̶x̶c̶, gcp, g̶d̶m̶a̶, geometric,
                g̶p̶u̶_̶d̶f̶c̶c̶, i̶n̶t̶e̶g̶r̶a̶t̶o̶r̶x̶x̶, i̶p̶i̶, libefp, m̶d̶i̶, m̶p̶2̶d̶,
                m̶r̶c̶c̶, ooo, o̶p̶e̶n̶f̶e̶r̶m̶i̶o̶n̶p̶s̶i̶4̶, pcmsolver, p̶s̶i̶4̶f̶o̶c̶k̶c̶i̶,
                p̶s̶i̶x̶a̶s̶, r̶e̶s̶p̶, s̶i̶m̶i̶n̶t̶, s̶n̶s̶m̶p̶2̶, v̶2̶r̶d̶m̶_̶c̶a̶s̶s̶c̶f̶

  ==> Input File <==

--------------------------------------------------------------------------
molecule { 
1 1
C           0.000000           0.000000           0.000000
H           0.000000           0.000000           0.774822
}

set { 
basis              cc-pvtz
reference          uks
maxiter            500
DAMPING_PERCENTAGE 1
E_CONVERGENCE      1.0E-8
D_CONVERGENCE      1.0E-8
DIIS_MAX_VECS      400
MBIS_MAXITER       8000
guess              read
}

E, wfn = energy('b3lyp', restart_file='last_wfn', return_wfn=True)
properties('b3lyp','MBIS_CHARGES', wfn=wfn)
wfn.to_file('last_wfn')
--------------------------------------------------------------------------

Scratch directory: /tmp/
 Found user provided orbital data. Setting orbital guess to READ 
 Copying restart file <last_wfn.npy> to </tmp/scan_HC_12.default.510216.180.npy> for internal processing
   => Libint2 <=

    Primary   basis highest AM E, G, H:  6, 6, 3
    Auxiliary basis highest AM E, G, H:  7, 7, 4
    Onebody   basis highest AM E, G, H:  -, -, -
    Solid Harmonics ordering:            Gaussian

*** tstart() called on cics-quant-001
*** at Tue Dec 23 13:39:54 2025

   => Loading Basis Set <=

    Name: CC-PVTZ
    Role: ORBITAL
    Keyword: BASIS
    atoms 1 entry C          line   186 file /home/jrodriguesro/psi4conda/share/psi4/basis/cc-pvtz.gbs 
    atoms 2 entry H          line    23 file /home/jrodriguesro/psi4conda/share/psi4/basis/cc-pvtz.gbs 


         ---------------------------------------------------------
                                   SCF
               by Justin Turney, Rob Parrish, Andy Simmonett
                          and Daniel G. A. Smith
                              UKS Reference
                        5 Threads,    500 MiB Core
         ---------------------------------------------------------

  ==> Geometry <==

    Molecular point group: c2v
    Full point group: C_inf_v

    Geometry (in Angstrom), charge = 1, multiplicity = 1:

       Center              X                  Y                   Z               Mass       
    ------------   -----------------  -----------------  -----------------  -----------------
         C            0.000000000000     0.000000000000    -0.060031942710    12.000000000000
         H            0.000000000000     0.000000000000     0.714790057290     1.007825032230

  Running in c2v symmetry.

  Rotational constants: A = ************  B =     30.20167  C =     30.20167 [cm^-1]
  Rotational constants: A = ************  B = 905423.18660  C = 905423.18660 [MHz]
  Nuclear repulsion =    4.097796995981012

  Charge       = 1
  Multiplicity = 1
  Electrons    = 6
  Nalpha       = 3
  Nbeta        = 3

  ==> Algorithm <==

  SCF Algorithm Type is DF.
  DIIS enabled.
  MOM disabled.
  Fractional occupation disabled.
  Guess Type is READ.
  Energy threshold   = 1.00e-08
  Density threshold  = 1.00e-08
  Integral threshold = 1.00e-12

  ==> Primary Basis <==

  Basis Set: CC-PVTZ
    Blend: CC-PVTZ
    Number of shells: 16
    Number of basis functions: 44
    Number of Cartesian functions: 50
    Spherical Harmonics?: true
    Max angular momentum: 3

  ==> DFT Potential <==

   => LibXC <=

    Version 7.0.0
    S. Lehtola, C. Steigemann, M. J.T. Oliveira, and M. A.L. Marques.,  SoftwareX 7, 1–5 (2018) (10.1016/j.softx.2017.11.002)

   => Composite Functional: B3LYP <= 

    B3LYP Hyb-GGA Exchange-Correlation Functional

    P. J. Stephens, F. J. Devlin, C. F. Chabalowski, and M. J. Frisch.,  J. Phys. Chem. 98, 11623 (1994) (10.1021/j100096a001)

    Deriv               =              1
    GGA                 =           TRUE
    Meta                =          FALSE

    Exchange Hybrid     =           TRUE
    MP2 Hybrid          =          FALSE

   => Exchange Functionals <=

    0.0800   Slater exchange
    0.7200         Becke 88

   => Exact (HF) Exchange <=

    0.2000               HF 

   => Correlation Functionals <=

    0.1900   Vosko, Wilk & Nusair (VWN5_RPA)
    0.8100   Lee, Yang & Parr

   => LibXC Density Thresholds  <==

    XC_HYB_GGA_XC_B3LYP:  1.00E-15 

   => Molecular Quadrature <=

    Radial Scheme          =       TREUTLER
    Pruning Scheme         =           NONE
    Nuclear Scheme         =       TREUTLER

    Blocking Scheme        =         OCTREE
    BS radius alpha        =              1
    Pruning alpha          =              1
    Radial Points          =             75
    Spherical Points       =            302
    Total Points           =          43762
    Total Blocks           =            385
    Max Points             =            256
    Max Functions          =             44
    Weights Tolerance      =       1.00E-15

   => Loading Basis Set <=

    Name: (CC-PVTZ AUX)
    Role: JKFIT
    Keyword: DF_BASIS_SCF
    atoms 1 entry C          line   125 file /home/jrodriguesro/psi4conda/share/psi4/basis/cc-pvtz-jkfit.gbs 
    atoms 2 entry H          line    51 file /home/jrodriguesro/psi4conda/share/psi4/basis/cc-pvtz-jkfit.gbs 

   => Loading Basis Set <=

    Name: CC-PVTZ
    Role: ORBITAL
    Keyword: BASIS
    atoms 1 entry C          line   186 file /home/jrodriguesro/psi4conda/share/psi4/basis/cc-pvtz.gbs 
    atoms 2 entry H          line    23 file /home/jrodriguesro/psi4conda/share/psi4/basis/cc-pvtz.gbs 

  Reading orbitals from file /tmp/scan_HC_12.default.510216.180.npy, no projection.

  ==> Integral Setup <==

  DFHelper Memory: AOs need 0.002 GiB; user supplied 0.311 GiB. 
  SCF_SUBTYPE=INCORE selected. In-core MEM_DF algorithm will be used.
  Using in-core AOs.

  ==> MemDFJK: Density-Fitted J/K Matrices <==

    J tasked:                   Yes
    K tasked:                   Yes
    wK tasked:                   No
    OpenMP threads:               5
    Memory [MiB]:               318
    Algorithm:                 Core
    Schwarz Cutoff:           1E-12
    Mask sparsity (%):       0.0000
    Fitting Condition:        1E-10

   => Auxiliary Basis Set <=

  Basis Set: (CC-PVTZ AUX)
    Blend: CC-PVTZ-JKFIT
    Number of shells: 35
    Number of basis functions: 109
    Number of Cartesian functions: 131
    Spherical Harmonics?: true
    Max angular momentum: 4

  Cached 100.0% of DFT collocation blocks in 0.056 [GiB].

  Minimum eigenvalue in the overlap matrix is 1.1620505980E-03.
  Reciprocal condition number of the overlap matrix is 2.6808263657E-04.
    Using symmetric orthogonalization.

  ==> Pre-Iterations <==

  SCF Guess: Orbitals guess was supplied from a previous computation.

   -------------------------------------------------------
    Irrep   Nso     Nmo     Nalpha   Nbeta   Ndocc  Nsocc
   -------------------------------------------------------
     A1        20      20       3       3       3       0
     A2         4       4       0       0       0       0
     B1        10      10       0       0       0       0
     B2        10      10       0       0       0       0
   -------------------------------------------------------
    Total      44      44       3       3       3       0
   -------------------------------------------------------

  ==> Iterations <==

                           Total Energy        Delta E     RMS |[F,P]|

   @DF-UKS iter   0:   -37.96145191138653   -3.79615e+01   3.84773e-03 
   @DF-UKS iter   1:   -37.95121391436094    1.02380e-02   2.35835e-04 ADIIS/DIIS
   @DF-UKS iter   2:   -37.95122673805842   -1.28237e-05   4.30442e-05 DIIS/DAMP=1%
   @DF-UKS iter   3:   -37.95122815896859   -1.42091e-06   2.09376e-06 DIIS/DAMP=1%
   @DF-UKS iter   4:   -37.95122763270935    5.26259e-07   5.32726e-07 DIIS/DAMP=1%
   @DF-UKS iter   5:   -37.95122696152496    6.71184e-07   1.06172e-07 DIIS/DAMP=1%
   @DF-UKS iter   6:   -37.95122717139378   -2.09869e-07   2.63037e-09 DIIS/DAMP=1%
   @DF-UKS iter   7:   -37.95122713866757    3.27262e-08   2.94839e-10 DIIS/DAMP=1%
   @DF-UKS iter   8:   -37.95122713931159   -6.44022e-10   5.20096e-12 DIIS/DAMP=1%
  Energy and wave function converged.


  ==> Post-Iterations <==

   Electrons on quadrature grid:
      Nalpha   =    2.9999999921 ; deviation = -7.862e-09
      Nbeta    =    2.9999999921 ; deviation = -7.862e-09
      Ntotal   =    5.9999999843 ; deviation = -1.572e-08 

   @Spin Contamination Metric:  -5.773159728E-15
   @S^2 Expected:                0.000000000E+00
   @S^2 Observed:               -5.773159728E-15
   @S   Expected:                0.000000000E+00
   @S   Observed:                0.000000000E+00

    Orbital Energies [Eh]
    ---------------------

    Alpha Occupied:                                                       

       1A1   -10.789885     2A1    -1.190607     3A1    -0.745144  

    Alpha Virtual:                                                        

       1B2    -0.564726     1B1    -0.564726     4A1    -0.175515  
       2B2     0.003196     2B1     0.003196     5A1     0.004712  
       6A1     0.063490     3B1     0.263724     3B2     0.263724  
       7A1     0.284555     8A1     0.307013     1A2     0.307013  
       9A1     0.685701     4B1     0.767664     4B2     0.767664  
      10A1     1.468767     5B2     1.512732     5B1     1.512732  
      11A1     1.530713    12A1     1.803674    13A1     2.159436  
       2A2     2.159436     6B2     2.234217     6B1     2.234217  
       7B1     2.278606     7B2     2.278606     3A2     2.457239  
      14A1     2.457239     8B1     2.625972     8B2     2.625972  
      15A1     2.640272    16A1     3.435465     4A2     3.580389  
      17A1     3.580390     9B2     3.647735     9B1     3.647735  
      10B2     5.175348    10B1     5.175348    18A1     5.210226  
      19A1     5.609837    20A1    12.695242  

    Beta Occupied:                                                        

       1A1   -10.789885     2A1    -1.190607     3A1    -0.745144  

    Beta Virtual:                                                         

       1B2    -0.564726     1B1    -0.564726     4A1    -0.175515  
       2B2     0.003196     2B1     0.003196     5A1     0.004712  
       6A1     0.063490     3B1     0.263724     3B2     0.263724  
       7A1     0.284555     8A1     0.307013     1A2     0.307013  
       9A1     0.685701     4B1     0.767664     4B2     0.767664  
      10A1     1.468767     5B2     1.512732     5B1     1.512732  
      11A1     1.530713    12A1     1.803674    13A1     2.159436  
       2A2     2.159436     6B2     2.234217     6B1     2.234217  
       7B1     2.278606     7B2     2.278606     3A2     2.457239  
      14A1     2.457239     8B1     2.625972     8B2     2.625972  
      15A1     2.640272    16A1     3.435465     4A2     3.580389  
      17A1     3.580390     9B2     3.647735     9B1     3.647735  
      10B2     5.175348    10B1     5.175348    18A1     5.210226  
      19A1     5.609837    20A1    12.695242  

    Final Occupation by Irrep:
             A1    A2    B1    B2 
    DOCC [     3,    0,    0,    0 ]
    SOCC [     0,    0,    0,    0 ]
    NA   [     3,    0,    0,    0 ]
    NB   [     3,    0,    0,    0 ]

  @DF-UKS Final Energy:   -37.95122713931159

   => Energetics <=

    Nuclear Repulsion Energy =              4.0977969959810121
    One-Electron Energy =                 -55.4701048680108357
    Two-Electron Energy =                  17.8173029682105586
    DFT Exchange-Correlation Energy =      -4.3962222354923215
    Empirical Dispersion Energy =           0.0000000000000000
    VV10 Nonlocal Energy =                  0.0000000000000000
    Total Energy =                        -37.9512271393115910

  UHF NO Occupations:
  HONO-2 :    1 A1 2.0000000
  HONO-1 :    2 A1 2.0000000
  HONO-0 :    3 A1 2.0000000
  LUNO+0 :    4 A1 0.0000000
  LUNO+1 :    5 A1 0.0000000
  LUNO+2 :    6 A1 0.0000000
  LUNO+3 :    7 A1 0.0000000


Computation Completed


Properties will be evaluated at   0.000000,   0.000000,   0.000000 [a0]

Properties computed using the SCF density matrix


 Multipole Moments:

 ------------------------------------------------------------------------------------
     Multipole            Electronic (a.u.)      Nuclear  (a.u.)        Total (a.u.)
 ------------------------------------------------------------------------------------

 L = 1.  Multiply by 2.5417464519 to convert [e a0] to [Debye]
 Dipole X            :          0.0000000            0.0000000            0.0000000
 Dipole Y            :          0.0000000            0.0000000            0.0000000
 Dipole Z            :          0.0321806            0.6700939            0.7022744
 Magnitude           :                                                    0.7022744

 ------------------------------------------------------------------------------------

*** tstop() called on cics-quant-001 at Tue Dec 23 13:39:54 2025
Module time:
	user time   =       0.70 seconds =       0.01 minutes
	system time =       0.04 seconds =       0.00 minutes
	total time  =          0 seconds =       0.00 minutes
Total time:
	user time   =       0.70 seconds =       0.01 minutes
	system time =       0.04 seconds =       0.00 minutes
	total time  =          0 seconds =       0.00 minutes

*** tstart() called on cics-quant-001
*** at Tue Dec 23 13:39:54 2025

   => Libint2 <=

    Primary   basis highest AM E, G, H:  6, 6, 3
    Auxiliary basis highest AM E, G, H:  7, 7, 4
    Onebody   basis highest AM E, G, H:  -, -, -
    Solid Harmonics ordering:            Gaussian
   => Loading Basis Set <=

    Name: CC-PVTZ
    Role: ORBITAL
    Keyword: BASIS
    atoms 1 entry C          line   186 file /home/jrodriguesro/psi4conda/share/psi4/basis/cc-pvtz.gbs 
    atoms 2 entry H          line    23 file /home/jrodriguesro/psi4conda/share/psi4/basis/cc-pvtz.gbs 


         ---------------------------------------------------------
                                   SCF
               by Justin Turney, Rob Parrish, Andy Simmonett
                          and Daniel G. A. Smith
                              UKS Reference
                        5 Threads,    500 MiB Core
         ---------------------------------------------------------

  ==> Geometry <==

    Molecular point group: c2v
    Full point group: C_inf_v

    Geometry (in Angstrom), charge = 1, multiplicity = 1:

       Center              X                  Y                   Z               Mass       
    ------------   -----------------  -----------------  -----------------  -----------------
         C            0.000000000000     0.000000000000    -0.060031942710    12.000000000000
         H            0.000000000000     0.000000000000     0.714790057290     1.007825032230

  Running in c2v symmetry.

  Rotational constants: A = ************  B =     30.20167  C =     30.20167 [cm^-1]
  Rotational constants: A = ************  B = 905423.18660  C = 905423.18660 [MHz]
  Nuclear repulsion =    4.097796995981012

  Charge       = 1
  Multiplicity = 1
  Electrons    = 6
  Nalpha       = 3
  Nbeta        = 3

  ==> Algorithm <==

  SCF Algorithm Type is DF.
  DIIS enabled.
  MOM disabled.
  Fractional occupation disabled.
  Guess Type is READ.
  Energy threshold   = 1.00e-08
  Density threshold  = 1.00e-08
  Integral threshold = 1.00e-12

  ==> Primary Basis <==

  Basis Set: CC-PVTZ
    Blend: CC-PVTZ
    Number of shells: 16
    Number of basis functions: 44
    Number of Cartesian functions: 50
    Spherical Harmonics?: true
    Max angular momentum: 3

  ==> DFT Potential <==

   => LibXC <=

    Version 7.0.0
    S. Lehtola, C. Steigemann, M. J.T. Oliveira, and M. A.L. Marques.,  SoftwareX 7, 1–5 (2018) (10.1016/j.softx.2017.11.002)

   => Composite Functional: B3LYP <= 

    B3LYP Hyb-GGA Exchange-Correlation Functional

    P. J. Stephens, F. J. Devlin, C. F. Chabalowski, and M. J. Frisch.,  J. Phys. Chem. 98, 11623 (1994) (10.1021/j100096a001)

    Deriv               =              1
    GGA                 =           TRUE
    Meta                =          FALSE

    Exchange Hybrid     =           TRUE
    MP2 Hybrid          =          FALSE

   => Exchange Functionals <=

    0.0800   Slater exchange
    0.7200         Becke 88

   => Exact (HF) Exchange <=

    0.2000               HF 

   => Correlation Functionals <=

    0.1900   Vosko, Wilk & Nusair (VWN5_RPA)
    0.8100   Lee, Yang & Parr

   => LibXC Density Thresholds  <==

    XC_HYB_GGA_XC_B3LYP:  1.00E-15 

   => Molecular Quadrature <=

    Radial Scheme          =       TREUTLER
    Pruning Scheme         =           NONE
    Nuclear Scheme         =       TREUTLER

    Blocking Scheme        =         OCTREE
    BS radius alpha        =              1
    Pruning alpha          =              1
    Radial Points          =             75
    Spherical Points       =            302
    Total Points           =          43762
    Total Blocks           =            385
    Max Points             =            256
    Max Functions          =             44
    Weights Tolerance      =       1.00E-15

   => Loading Basis Set <=

    Name: (CC-PVTZ AUX)
    Role: JKFIT
    Keyword: DF_BASIS_SCF
    atoms 1 entry C          line   125 file /home/jrodriguesro/psi4conda/share/psi4/basis/cc-pvtz-jkfit.gbs 
    atoms 2 entry H          line    51 file /home/jrodriguesro/psi4conda/share/psi4/basis/cc-pvtz-jkfit.gbs 

   => Loading Basis Set <=

    Name: CC-PVTZ
    Role: ORBITAL
    Keyword: BASIS
    atoms 1 entry C          line   186 file /home/jrodriguesro/psi4conda/share/psi4/basis/cc-pvtz.gbs 
    atoms 2 entry H          line    23 file /home/jrodriguesro/psi4conda/share/psi4/basis/cc-pvtz.gbs 

  Reading orbitals from file /tmp/scan_HC_12.default.510216.180.npy, no projection.

  ==> Integral Setup <==

  DFHelper Memory: AOs need 0.002 GiB; user supplied 0.311 GiB. 
  SCF_SUBTYPE=INCORE selected. In-core MEM_DF algorithm will be used.
  Using in-core AOs.

  ==> MemDFJK: Density-Fitted J/K Matrices <==

    J tasked:                   Yes
    K tasked:                   Yes
    wK tasked:                   No
    OpenMP threads:               5
    Memory [MiB]:               318
    Algorithm:                 Core
    Schwarz Cutoff:           1E-12
    Mask sparsity (%):       0.0000
    Fitting Condition:        1E-10

   => Auxiliary Basis Set <=

  Basis Set: (CC-PVTZ AUX)
    Blend: CC-PVTZ-JKFIT
    Number of shells: 35
    Number of basis functions: 109
    Number of Cartesian functions: 131
    Spherical Harmonics?: true
    Max angular momentum: 4

  Cached 100.0% of DFT collocation blocks in 0.056 [GiB].

  Minimum eigenvalue in the overlap matrix is 1.1620505980E-03.
  Reciprocal condition number of the overlap matrix is 2.6808263657E-04.
    Using symmetric orthogonalization.

  ==> Pre-Iterations <==

  SCF Guess: Orbitals guess was supplied from a previous computation.

   -------------------------------------------------------
    Irrep   Nso     Nmo     Nalpha   Nbeta   Ndocc  Nsocc
   -------------------------------------------------------
     A1        20      20       3       3       3       0
     A2         4       4       0       0       0       0
     B1        10      10       0       0       0       0
     B2        10      10       0       0       0       0
   -------------------------------------------------------
    Total      44      44       3       3       3       0
   -------------------------------------------------------

  ==> Iterations <==

                           Total Energy        Delta E     RMS |[F,P]|

   @DF-UKS iter   0:   -37.95122713921949   -3.79512e+01   6.27476e-13 
   @DF-UKS iter   1:   -37.95122713921953   -3.55271e-14   2.35899e-13 DIIS
  Energy and wave function converged.


  ==> Post-Iterations <==

   Electrons on quadrature grid:
      Nalpha   =    2.9999999921 ; deviation = -7.862e-09
      Nbeta    =    2.9999999921 ; deviation = -7.862e-09
      Ntotal   =    5.9999999843 ; deviation = -1.572e-08 

   @Spin Contamination Metric:  -3.108624469E-15
   @S^2 Expected:                0.000000000E+00
   @S^2 Observed:               -3.108624469E-15
   @S   Expected:                0.000000000E+00
   @S   Observed:                0.000000000E+00

    Orbital Energies [Eh]
    ---------------------

    Alpha Occupied:                                                       

       1A1   -10.789885     2A1    -1.190607     3A1    -0.745144  

    Alpha Virtual:                                                        

       1B2    -0.564726     1B1    -0.564726     4A1    -0.175515  
       2B2     0.003196     2B1     0.003196     5A1     0.004712  
       6A1     0.063490     3B1     0.263724     3B2     0.263724  
       7A1     0.284555     8A1     0.307013     1A2     0.307013  
       9A1     0.685701     4B1     0.767664     4B2     0.767664  
      10A1     1.468767     5B2     1.512732     5B1     1.512732  
      11A1     1.530713    12A1     1.803674    13A1     2.159436  
       2A2     2.159436     6B2     2.234217     6B1     2.234217  
       7B1     2.278606     7B2     2.278606     3A2     2.457239  
      14A1     2.457239     8B1     2.625972     8B2     2.625972  
      15A1     2.640272    16A1     3.435465     4A2     3.580389  
      17A1     3.580390     9B2     3.647735     9B1     3.647735  
      10B2     5.175348    10B1     5.175348    18A1     5.210226  
      19A1     5.609837    20A1    12.695242  

    Beta Occupied:                                                        

       1A1   -10.789885     2A1    -1.190607     3A1    -0.745144  

    Beta Virtual:                                                         

       1B2    -0.564726     1B1    -0.564726     4A1    -0.175515  
       2B2     0.003196     2B1     0.003196     5A1     0.004712  
       6A1     0.063490     3B1     0.263724     3B2     0.263724  
       7A1     0.284555     8A1     0.307013     1A2     0.307013  
       9A1     0.685701     4B1     0.767664     4B2     0.767664  
      10A1     1.468767     5B2     1.512732     5B1     1.512732  
      11A1     1.530713    12A1     1.803674    13A1     2.159436  
       2A2     2.159436     6B2     2.234217     6B1     2.234217  
       7B1     2.278606     7B2     2.278606     3A2     2.457239  
      14A1     2.457239     8B1     2.625972     8B2     2.625972  
      15A1     2.640272    16A1     3.435465     4A2     3.580389  
      17A1     3.580390     9B2     3.647735     9B1     3.647735  
      10B2     5.175348    10B1     5.175348    18A1     5.210226  
      19A1     5.609837    20A1    12.695242  

    Final Occupation by Irrep:
             A1    A2    B1    B2 
    DOCC [     3,    0,    0,    0 ]
    SOCC [     0,    0,    0,    0 ]
    NA   [     3,    0,    0,    0 ]
    NB   [     3,    0,    0,    0 ]

  @DF-UKS Final Energy:   -37.95122713921953

   => Energetics <=

    Nuclear Repulsion Energy =              4.0977969959810121
    One-Electron Energy =                 -55.4701048681103686
    Two-Electron Energy =                  17.8173029684156461
    DFT Exchange-Correlation Energy =      -4.3962222355058209
    Empirical Dispersion Energy =           0.0000000000000000
    VV10 Nonlocal Energy =                  0.0000000000000000
    Total Energy =                        -37.9512271392195260

  UHF NO Occupations:
  HONO-2 :    1 A1 2.0000000
  HONO-1 :    2 A1 2.0000000
  HONO-0 :    3 A1 2.0000000
  LUNO+0 :    4 A1 0.0000000
  LUNO+1 :    5 A1 0.0000000
  LUNO+2 :    6 A1 0.0000000
  LUNO+3 :    7 A1 0.0000000


Computation Completed


Properties will be evaluated at   0.000000,   0.000000,   0.000000 [a0]

Properties computed using the B3LYP density matrix


 Multipole Moments:

 ------------------------------------------------------------------------------------
     Multipole            Electronic (a.u.)      Nuclear  (a.u.)        Total (a.u.)
 ------------------------------------------------------------------------------------

 L = 1.  Multiply by 2.5417464519 to convert [e a0] to [Debye]
 Dipole X            :          0.0000000            0.0000000            0.0000000
 Dipole Y            :          0.0000000            0.0000000            0.0000000
 Dipole Z            :          0.0321806            0.6700939            0.7022744
 Magnitude           :                                                    0.7022744

 L = 2.  Multiply by 1.3450342976 to convert [e a0^2] to [Debye ang]
 Quadrupole XX       :         -2.6738656            0.0000000           -2.6738656
 Quadrupole XY       :          0.0000000            0.0000000            0.0000000
 Quadrupole XZ       :          0.0000000            0.0000000            0.0000000
 Quadrupole YY       :         -2.6738656            0.0000000           -2.6738656
 Quadrupole YZ       :          0.0000000            0.0000000            0.0000000
 Quadrupole ZZ       :         -5.4625372            1.9017628           -3.5607744
 Traceless XX        :          0.9295572           -0.6339209            0.2956363
 Traceless YY        :          0.9295572           -0.6339209            0.2956363
 Traceless ZZ        :         -1.8591144            1.2678419           -0.5912725

 ------------------------------------------------------------------------------------
  ==> Computing MBIS Charges <==

  Electron Count from Grid (Expected Number):  6.00000 ( 6.00000)
  Difference:  0.00000

  MBIS Charges: (a.u.)
   Center  Symbol  Z      Pop.       Charge
      1       C    6    5.133645    0.866355
      2       H    1    0.866355    0.133645

  MBIS Dipoles: [e a0]
   Center  Symbol  Z        X           Y           Z
      1       C    6   -0.000000   -0.000000    0.577765
      2       H    1    0.000000    0.000000    0.042270

  MBIS Quadrupoles: [e a0^2]
   Center  Symbol  Z      XX        XY        XZ        YY        YZ        ZZ
      1       C    6   -2.4150    0.0000    0.0000   -2.4150    0.0000   -3.5369
      2       H    1   -0.2588   -0.0000    0.0000   -0.2588   -0.0000   -0.2619

  MBIS Octupoles: [e a0^3]
   Center  Symbol  Z      XXX       XXY       XXZ       XYY       XYZ       XZZ       YYY       YYZ       YZZ       ZZZ
      1       C    6   -0.0000    0.0000    0.6732   -0.0000   -0.0000   -0.0000    0.0000    0.6732   -0.0000    1.7013
      2       H    1    0.0000   -0.0000    0.0007    0.0000   -0.0000   -0.0000   -0.0000    0.0007    0.0000    0.0078

  MBIS Radial Moments:
   Center  Symbol  Z      [a0^2]      [a0^3]      [a0^4]      
      1       C    6    8.367017   17.579684   44.002331
      2       H    1    0.779585    1.025993    1.613881

  MBIS Valence Widths: [a0]
   Center  Symbol  Z     Width
      1       C    6    0.451209
      2       H    1    0.279693


  MBIS Valence Charges: (a.u.)
   Center  Symbol  Z     Charge
      1       C    6   -3.493960
      2       H    1   -0.866355

*** tstop() called on cics-quant-001 at Tue Dec 23 13:39:54 2025
Module time:
	user time   =       0.39 seconds =       0.01 minutes
	system time =       0.03 seconds =       0.00 minutes
	total time  =          0 seconds =       0.00 minutes
Total time:
	user time   =       1.10 seconds =       0.02 minutes
	system time =       0.07 seconds =       0.00 minutes
	total time  =          0 seconds =       0.00 minutes

    Psi4 stopped on: Tuesday, 23 December 2025 01:39PM
    Psi4 wall time for execution: 0:00:00.52

*** Psi4 exiting successfully. Buy a developer a beer!
