
    -----------------------------------------------------------------------
          Psi4: An Open-Source Ab Initio Electronic Structure Package
                               Psi4 1.9.1 release

                         Git: Rev {} zzzzzzz 


    D. G. A. Smith, L. A. Burns, A. C. Simmonett, R. M. Parrish,
    M. C. Schieber, R. Galvelis, P. Kraus, H. Kruse, R. Di Remigio,
    A. Alenaizan, A. M. James, S. Lehtola, J. P. Misiewicz, M. Scheurer,
    R. A. Shaw, J. B. Schriber, Y. Xie, Z. L. Glick, D. A. Sirianni,
    J. S. O'Brien, J. M. Waldrop, A. Kumar, E. G. Hohenstein,
    B. P. Pritchard, B. R. Brooks, H. F. Schaefer III, A. Yu. Sokolov,
    K. Patkowski, A. E. DePrince III, U. Bozkaya, R. A. King,
    F. A. Evangelista, J. M. Turney, T. D. Crawford, C. D. Sherrill,
    J. Chem. Phys. 152(18) 184108 (2020). https://doi.org/10.1063/5.0006002

                            Additional Code Authors
    E. T. Seidl, C. L. Janssen, E. F. Valeev, M. L. Leininger,
    J. F. Gonthier, R. M. Richard, H. R. McAlexander, M. Saitow, X. Wang,
    P. Verma, M. H. Lechner, A. Jiang, S. Behnle, A. G. Heide,
    M. F. Herbst, and D. L. Poole

             Previous Authors, Complete List of Code Contributors,
                       and Citations for Specific Modules
    https://github.com/psi4/psi4/blob/master/codemeta.json
    https://github.com/psi4/psi4/graphs/contributors
    http://psicode.org/psi4manual/master/introduction.html#citing-psifour

    -----------------------------------------------------------------------


    Psi4 started on: Wednesday, 27 August 2025 10:57AM

    Process ID: 68481
    Host:       Mac.lan
    PSIDATADIR: /Users/joseantoniorodriguesromero/anaconda3/share/psi4
    Memory:     500.0 MiB
    Threads:    1
    
  ==> Input File <==

--------------------------------------------------------------------------
molecule { 
1 1
C           0.000000           0.000000           0.000000
H           0.000000           0.000000           0.380452
}

set { 
basis              cc-pvtz
reference          uks
maxiter            500
DAMPING_PERCENTAGE 1
E_CONVERGENCE      1.0E-8
D_CONVERGENCE      1.0E-8
DIIS_MAX_VECS      400
MBIS_MAXITER       8000
guess              read
}

E, wfn = energy('b3lyp', restart_file='last_wfn', return_wfn=True)
properties('b3lyp','MBIS_CHARGES', wfn=wfn)
wfn.to_file('last_wfn')
--------------------------------------------------------------------------

Scratch directory: /tmp/
 Found user provided orbital data. Setting orbital guess to READ 
 Copying restart file <last_wfn.npy> to </tmp/scan_HC_2.default.68481.180.npy> for internal processing
   => Libint2 <=

    Primary   basis highest AM E, G, H:  6, 6, 3
    Auxiliary basis highest AM E, G, H:  7, 7, 4
    Onebody   basis highest AM E, G, H:  -, -, -
    Solid Harmonics ordering:            Gaussian

*** tstart() called on Mac.lan
*** at Wed Aug 27 10:57:54 2025

   => Loading Basis Set <=

    Name: CC-PVTZ
    Role: ORBITAL
    Keyword: BASIS
    atoms 1 entry C          line   186 file /Users/joseantoniorodriguesromero/anaconda3/share/psi4/basis/cc-pvtz.gbs 
    atoms 2 entry H          line    23 file /Users/joseantoniorodriguesromero/anaconda3/share/psi4/basis/cc-pvtz.gbs 


         ---------------------------------------------------------
                                   SCF
               by Justin Turney, Rob Parrish, Andy Simmonett
                          and Daniel G. A. Smith
                              UKS Reference
                        1 Threads,    500 MiB Core
         ---------------------------------------------------------

  ==> Geometry <==

    Molecular point group: c2v
    Full point group: C_inf_v

    Geometry (in Angstrom), charge = 1, multiplicity = 1:

       Center              X                  Y                   Z               Mass       
    ------------   -----------------  -----------------  -----------------  -----------------
         C            0.000000000000     0.000000000000    -0.029476799404    12.000000000000
         H            0.000000000000     0.000000000000     0.350975200596     1.007825032230

  Running in c2v symmetry.

  Rotational constants: A = ************  B =    125.26653  C =    125.26653 [cm^-1]
  Rotational constants: A = ************  B = 3755396.14235  C = 3755396.14235 [MHz]
  Nuclear repulsion =    8.345502886093383

  Charge       = 1
  Multiplicity = 1
  Electrons    = 6
  Nalpha       = 3
  Nbeta        = 3

  ==> Algorithm <==

  SCF Algorithm Type is DF.
  DIIS enabled.
  MOM disabled.
  Fractional occupation disabled.
  Guess Type is READ.
  Energy threshold   = 1.00e-08
  Density threshold  = 1.00e-08
  Integral threshold = 1.00e-12

  ==> Primary Basis <==

  Basis Set: CC-PVTZ
    Blend: CC-PVTZ
    Number of shells: 16
    Number of basis functions: 44
    Number of Cartesian functions: 50
    Spherical Harmonics?: true
    Max angular momentum: 3

  ==> DFT Potential <==

   => LibXC <=

    Version 6.2.2
    S. Lehtola, C. Steigemann, M. J.T. Oliveira, and M. A.L. Marques.,  SoftwareX 7, 1–5 (2018) (10.1016/j.softx.2017.11.002)

   => Composite Functional: B3LYP <= 

    B3LYP Hyb-GGA Exchange-Correlation Functional

    P. J. Stephens, F. J. Devlin, C. F. Chabalowski, and M. J. Frisch.,  J. Phys. Chem. 98, 11623 (1994) (10.1021/j100096a001)

    Deriv               =              1
    GGA                 =           TRUE
    Meta                =          FALSE

    Exchange Hybrid     =           TRUE
    MP2 Hybrid          =          FALSE

   => Exchange Functionals <=

    0.0800   Slater exchange
    0.7200         Becke 88

   => Exact (HF) Exchange <=

    0.2000               HF 

   => Correlation Functionals <=

    0.1900   Vosko, Wilk & Nusair (VWN5_RPA)
    0.8100   Lee, Yang & Parr

   => LibXC Density Thresholds  <==

    XC_HYB_GGA_XC_B3LYP:  1.00E-15 

   => Molecular Quadrature <=

    Radial Scheme          =       TREUTLER
    Pruning Scheme         =           NONE
    Nuclear Scheme         =       TREUTLER

    Blocking Scheme        =         OCTREE
    BS radius alpha        =              1
    Pruning alpha          =              1
    Radial Points          =             75
    Spherical Points       =            302
    Total Points           =          43668
    Total Blocks           =            384
    Max Points             =            255
    Max Functions          =             44
    Weights Tolerance      =       1.00E-15

   => Loading Basis Set <=

    Name: (CC-PVTZ AUX)
    Role: JKFIT
    Keyword: DF_BASIS_SCF
    atoms 1 entry C          line   125 file /Users/joseantoniorodriguesromero/anaconda3/share/psi4/basis/cc-pvtz-jkfit.gbs 
    atoms 2 entry H          line    51 file /Users/joseantoniorodriguesromero/anaconda3/share/psi4/basis/cc-pvtz-jkfit.gbs 

   => Loading Basis Set <=

    Name: CC-PVTZ
    Role: ORBITAL
    Keyword: BASIS
    atoms 1 entry C          line   186 file /Users/joseantoniorodriguesromero/anaconda3/share/psi4/basis/cc-pvtz.gbs 
    atoms 2 entry H          line    23 file /Users/joseantoniorodriguesromero/anaconda3/share/psi4/basis/cc-pvtz.gbs 

  Reading orbitals from file /tmp/scan_HC_2.default.68481.180.npy, no projection.

  ==> Integral Setup <==

  DFHelper Memory: AOs need 0.002 GiB; user supplied 0.311 GiB. 
  Using in-core AOs.

  ==> MemDFJK: Density-Fitted J/K Matrices <==

    J tasked:                   Yes
    K tasked:                   Yes
    wK tasked:                   No
    OpenMP threads:               1
    Memory [MiB]:               318
    Algorithm:                 Core
    Schwarz Cutoff:           1E-12
    Mask sparsity (%):       0.0000
    Fitting Condition:        1E-10

   => Auxiliary Basis Set <=

  Basis Set: (CC-PVTZ AUX)
    Blend: CC-PVTZ-JKFIT
    Number of shells: 35
    Number of basis functions: 109
    Number of Cartesian functions: 131
    Spherical Harmonics?: true
    Max angular momentum: 4

  Cached 100.0% of DFT collocation blocks in 0.056 [GiB].

  Minimum eigenvalue in the overlap matrix is 5.6135272575E-04.
  Reciprocal condition number of the overlap matrix is 1.2531288615E-04.
    Using symmetric orthogonalization.

  ==> Pre-Iterations <==

  SCF Guess: Orbitals guess was supplied from a previous computation.

   -------------------------------------------------------
    Irrep   Nso     Nmo     Nalpha   Nbeta   Ndocc  Nsocc
   -------------------------------------------------------
     A1        20      20       3       3       3       0
     A2         4       4       0       0       0       0
     B1        10      10       0       0       0       0
     B2        10      10       0       0       0       0
   -------------------------------------------------------
    Total      44      44       3       3       3       0
   -------------------------------------------------------

  ==> Iterations <==

                           Total Energy        Delta E     RMS |[F,P]|

   @DF-UKS iter   0:   -35.99131614474004   -3.59913e+01   1.07348e-02 
   @DF-UKS iter   1:   -36.03314510365846   -4.18290e-02   1.73923e-03 DIIS/ADIIS
   @DF-UKS iter   2:   -36.03381854634558   -6.73443e-04   6.44128e-04 DIIS/ADIIS/DAMP=1%
   @DF-UKS iter   3:   -36.03370947920659    1.09067e-04   1.43616e-05 DIIS/DAMP=1%
   @DF-UKS iter   4:   -36.03390741564962   -1.97936e-04   2.97207e-06 DIIS/DAMP=1%
   @DF-UKS iter   5:   -36.03390955222617   -2.13658e-06   1.20827e-07 DIIS/DAMP=1%
   @DF-UKS iter   6:   -36.03391033668986   -7.84464e-07   5.95945e-09 DIIS/DAMP=1%
   @DF-UKS iter   7:   -36.03391036385480   -2.71649e-08   2.17572e-10 DIIS/DAMP=1%
   @DF-UKS iter   8:   -36.03391036506194   -1.20714e-09   1.18624e-11 DIIS/DAMP=1%
  Energy and wave function converged.


  ==> Post-Iterations <==

   Electrons on quadrature grid:
      Nalpha   =    2.9999999973 ; deviation = -2.676e-09
      Nbeta    =    2.9999999973 ; deviation = -2.676e-09
      Ntotal   =    5.9999999946 ; deviation = -5.353e-09 

   @Spin Contamination Metric:   3.463895837E-14
   @S^2 Expected:                0.000000000E+00
   @S^2 Observed:                3.463895837E-14
   @S   Expected:                0.000000000E+00
   @S   Observed:                0.000000000E+00

    Orbital Energies [Eh]
    ---------------------

    Alpha Occupied:                                                       

       1A1   -11.024480     2A1    -1.302590     3A1    -0.795076  

    Alpha Virtual:                                                        

       1B1    -0.608006     1B2    -0.608006     4A1    -0.179198  
       5A1    -0.038222     2B1    -0.013953     2B2    -0.013953  
       6A1     0.212370     3B2     0.286197     3B1     0.286197  
       7A1     0.302204     1A2     0.302204     8A1     0.377489  
       9A1     0.750950     4B2     0.912964     4B1     0.912964  
      10A1     1.315611     5B2     1.376904     5B1     1.376904  
      11A1     1.869892    12A1     2.155438     2A2     2.155438  
       6B2     2.221618     6B1     2.221618    13A1     2.257246  
       7B1     2.267541     7B2     2.267541     3A2     2.359479  
      14A1     2.359479    15A1     2.806760     8B2     2.936750  
       8B1     2.936750    16A1     4.368308     4A2     4.384331  
      17A1     4.384331     9B1     4.386449     9B2     4.386449  
      18A1     5.330570    10B2     7.092339    10B1     7.092339  
      19A1    10.467524    20A1    23.374989  

    Beta Occupied:                                                        

       1A1   -11.024480     2A1    -1.302590     3A1    -0.795076  

    Beta Virtual:                                                         

       1B1    -0.608006     1B2    -0.608006     4A1    -0.179198  
       5A1    -0.038222     2B1    -0.013953     2B2    -0.013953  
       6A1     0.212370     3B2     0.286197     3B1     0.286197  
       7A1     0.302204     1A2     0.302204     8A1     0.377489  
       9A1     0.750950     4B2     0.912964     4B1     0.912964  
      10A1     1.315611     5B2     1.376904     5B1     1.376904  
      11A1     1.869892    12A1     2.155438     2A2     2.155438  
       6B2     2.221618     6B1     2.221618    13A1     2.257246  
       7B1     2.267541     7B2     2.267541     3A2     2.359479  
      14A1     2.359479    15A1     2.806760     8B2     2.936750  
       8B1     2.936750    16A1     4.368308     4A2     4.384331  
      17A1     4.384331     9B1     4.386449     9B2     4.386449  
      18A1     5.330570    10B2     7.092339    10B1     7.092339  
      19A1    10.467524    20A1    23.374989  

    Final Occupation by Irrep:
             A1    A2    B1    B2 
    DOCC [     3,    0,    0,    0 ]
    SOCC [     0,    0,    0,    0 ]
    NA   [     3,    0,    0,    0 ]
    NB   [     3,    0,    0,    0 ]

  @DF-UKS Final Energy:   -36.03391036506194

   => Energetics <=

    Nuclear Repulsion Energy =              8.3455028860933833
    One-Electron Energy =                 -59.1844163084902419
    Two-Electron Energy =                  19.4171151437846206
    DFT Exchange-Correlation Energy =      -4.6121120864497058
    Empirical Dispersion Energy =           0.0000000000000000
    VV10 Nonlocal Energy =                  0.0000000000000000
    Total Energy =                        -36.0339103650619421

  UHF NO Occupations:
  HONO-2 :    1 A1 2.0000000
  HONO-1 :    2 A1 2.0000000
  HONO-0 :    3 A1 2.0000000
  LUNO+0 :    4 A1 0.0000000
  LUNO+1 :    5 A1 0.0000000
  LUNO+2 :    6 A1 0.0000000
  LUNO+3 :    7 A1 0.0000000


Computation Completed


Properties will be evaluated at   0.000000,   0.000000,   0.000000 [a0]

Properties computed using the SCF density matrix


 Multipole Moments:

 ------------------------------------------------------------------------------------
     Multipole            Electronic (a.u.)      Nuclear  (a.u.)        Total (a.u.)
 ------------------------------------------------------------------------------------

 L = 1.  Multiply by 2.5417464519 to convert [e a0] to [Debye]
 Dipole X            :          0.0000000            0.0000000            0.0000000
 Dipole Y            :          0.0000000            0.0000000            0.0000000
 Dipole Z            :          0.2510057            0.3290285            0.5800343
 Magnitude           :                                                    0.5800343

 ------------------------------------------------------------------------------------

*** tstop() called on Mac.lan at Wed Aug 27 10:57:57 2025
Module time:
	user time   =      27.92 seconds =       0.47 minutes
	system time =       2.43 seconds =       0.04 minutes
	total time  =          3 seconds =       0.05 minutes
Total time:
	user time   =      27.92 seconds =       0.47 minutes
	system time =       2.43 seconds =       0.04 minutes
	total time  =          3 seconds =       0.05 minutes

*** tstart() called on Mac.lan
*** at Wed Aug 27 10:57:57 2025

   => Libint2 <=

    Primary   basis highest AM E, G, H:  6, 6, 3
    Auxiliary basis highest AM E, G, H:  7, 7, 4
    Onebody   basis highest AM E, G, H:  -, -, -
    Solid Harmonics ordering:            Gaussian
   => Loading Basis Set <=

    Name: CC-PVTZ
    Role: ORBITAL
    Keyword: BASIS
    atoms 1 entry C          line   186 file /Users/joseantoniorodriguesromero/anaconda3/share/psi4/basis/cc-pvtz.gbs 
    atoms 2 entry H          line    23 file /Users/joseantoniorodriguesromero/anaconda3/share/psi4/basis/cc-pvtz.gbs 


         ---------------------------------------------------------
                                   SCF
               by Justin Turney, Rob Parrish, Andy Simmonett
                          and Daniel G. A. Smith
                              UKS Reference
                        1 Threads,    500 MiB Core
         ---------------------------------------------------------

  ==> Geometry <==

    Molecular point group: c2v
    Full point group: C_inf_v

    Geometry (in Angstrom), charge = 1, multiplicity = 1:

       Center              X                  Y                   Z               Mass       
    ------------   -----------------  -----------------  -----------------  -----------------
         C            0.000000000000     0.000000000000    -0.029476799404    12.000000000000
         H            0.000000000000     0.000000000000     0.350975200596     1.007825032230

  Running in c2v symmetry.

  Rotational constants: A = ************  B =    125.26653  C =    125.26653 [cm^-1]
  Rotational constants: A = ************  B = 3755396.14235  C = 3755396.14235 [MHz]
  Nuclear repulsion =    8.345502886093383

  Charge       = 1
  Multiplicity = 1
  Electrons    = 6
  Nalpha       = 3
  Nbeta        = 3

  ==> Algorithm <==

  SCF Algorithm Type is DF.
  DIIS enabled.
  MOM disabled.
  Fractional occupation disabled.
  Guess Type is READ.
  Energy threshold   = 1.00e-08
  Density threshold  = 1.00e-08
  Integral threshold = 1.00e-12

  ==> Primary Basis <==

  Basis Set: CC-PVTZ
    Blend: CC-PVTZ
    Number of shells: 16
    Number of basis functions: 44
    Number of Cartesian functions: 50
    Spherical Harmonics?: true
    Max angular momentum: 3

  ==> DFT Potential <==

   => LibXC <=

    Version 6.2.2
    S. Lehtola, C. Steigemann, M. J.T. Oliveira, and M. A.L. Marques.,  SoftwareX 7, 1–5 (2018) (10.1016/j.softx.2017.11.002)

   => Composite Functional: B3LYP <= 

    B3LYP Hyb-GGA Exchange-Correlation Functional

    P. J. Stephens, F. J. Devlin, C. F. Chabalowski, and M. J. Frisch.,  J. Phys. Chem. 98, 11623 (1994) (10.1021/j100096a001)

    Deriv               =              1
    GGA                 =           TRUE
    Meta                =          FALSE

    Exchange Hybrid     =           TRUE
    MP2 Hybrid          =          FALSE

   => Exchange Functionals <=

    0.0800   Slater exchange
    0.7200         Becke 88

   => Exact (HF) Exchange <=

    0.2000               HF 

   => Correlation Functionals <=

    0.1900   Vosko, Wilk & Nusair (VWN5_RPA)
    0.8100   Lee, Yang & Parr

   => LibXC Density Thresholds  <==

    XC_HYB_GGA_XC_B3LYP:  1.00E-15 

   => Molecular Quadrature <=

    Radial Scheme          =       TREUTLER
    Pruning Scheme         =           NONE
    Nuclear Scheme         =       TREUTLER

    Blocking Scheme        =         OCTREE
    BS radius alpha        =              1
    Pruning alpha          =              1
    Radial Points          =             75
    Spherical Points       =            302
    Total Points           =          43668
    Total Blocks           =            384
    Max Points             =            255
    Max Functions          =             44
    Weights Tolerance      =       1.00E-15

   => Loading Basis Set <=

    Name: (CC-PVTZ AUX)
    Role: JKFIT
    Keyword: DF_BASIS_SCF
    atoms 1 entry C          line   125 file /Users/joseantoniorodriguesromero/anaconda3/share/psi4/basis/cc-pvtz-jkfit.gbs 
    atoms 2 entry H          line    51 file /Users/joseantoniorodriguesromero/anaconda3/share/psi4/basis/cc-pvtz-jkfit.gbs 

   => Loading Basis Set <=

    Name: CC-PVTZ
    Role: ORBITAL
    Keyword: BASIS
    atoms 1 entry C          line   186 file /Users/joseantoniorodriguesromero/anaconda3/share/psi4/basis/cc-pvtz.gbs 
    atoms 2 entry H          line    23 file /Users/joseantoniorodriguesromero/anaconda3/share/psi4/basis/cc-pvtz.gbs 

  Reading orbitals from file /tmp/scan_HC_2.default.68481.180.npy, no projection.

  ==> Integral Setup <==

  DFHelper Memory: AOs need 0.002 GiB; user supplied 0.311 GiB. 
  Using in-core AOs.

  ==> MemDFJK: Density-Fitted J/K Matrices <==

    J tasked:                   Yes
    K tasked:                   Yes
    wK tasked:                   No
    OpenMP threads:               1
    Memory [MiB]:               318
    Algorithm:                 Core
    Schwarz Cutoff:           1E-12
    Mask sparsity (%):       0.0000
    Fitting Condition:        1E-10

   => Auxiliary Basis Set <=

  Basis Set: (CC-PVTZ AUX)
    Blend: CC-PVTZ-JKFIT
    Number of shells: 35
    Number of basis functions: 109
    Number of Cartesian functions: 131
    Spherical Harmonics?: true
    Max angular momentum: 4

  Cached 100.0% of DFT collocation blocks in 0.056 [GiB].

  Minimum eigenvalue in the overlap matrix is 5.6135272575E-04.
  Reciprocal condition number of the overlap matrix is 1.2531288615E-04.
    Using symmetric orthogonalization.

  ==> Pre-Iterations <==

  SCF Guess: Orbitals guess was supplied from a previous computation.

   -------------------------------------------------------
    Irrep   Nso     Nmo     Nalpha   Nbeta   Ndocc  Nsocc
   -------------------------------------------------------
     A1        20      20       3       3       3       0
     A2         4       4       0       0       0       0
     B1        10      10       0       0       0       0
     B2        10      10       0       0       0       0
   -------------------------------------------------------
    Total      44      44       3       3       3       0
   -------------------------------------------------------

  ==> Iterations <==

                           Total Energy        Delta E     RMS |[F,P]|

   @DF-UKS iter   0:   -36.03391036510516   -3.60339e+01   6.79684e-13 
   @DF-UKS iter   1:   -36.03391036510514    2.13163e-14   2.42630e-13 DIIS
  Energy and wave function converged.


  ==> Post-Iterations <==

   Electrons on quadrature grid:
      Nalpha   =    2.9999999973 ; deviation = -2.676e-09
      Nbeta    =    2.9999999973 ; deviation = -2.676e-09
      Ntotal   =    5.9999999946 ; deviation = -5.353e-09 

   @Spin Contamination Metric:   2.753353101E-14
   @S^2 Expected:                0.000000000E+00
   @S^2 Observed:                2.753353101E-14
   @S   Expected:                0.000000000E+00
   @S   Observed:                0.000000000E+00

    Orbital Energies [Eh]
    ---------------------

    Alpha Occupied:                                                       

       1A1   -11.024480     2A1    -1.302590     3A1    -0.795076  

    Alpha Virtual:                                                        

       1B1    -0.608006     1B2    -0.608006     4A1    -0.179198  
       5A1    -0.038222     2B1    -0.013953     2B2    -0.013953  
       6A1     0.212370     3B2     0.286197     3B1     0.286197  
       7A1     0.302204     1A2     0.302204     8A1     0.377489  
       9A1     0.750950     4B2     0.912964     4B1     0.912964  
      10A1     1.315611     5B2     1.376904     5B1     1.376904  
      11A1     1.869892    12A1     2.155438     2A2     2.155438  
       6B2     2.221618     6B1     2.221618    13A1     2.257246  
       7B1     2.267541     7B2     2.267541     3A2     2.359479  
      14A1     2.359479    15A1     2.806760     8B2     2.936750  
       8B1     2.936750    16A1     4.368308     4A2     4.384331  
      17A1     4.384331     9B1     4.386449     9B2     4.386449  
      18A1     5.330570    10B2     7.092339    10B1     7.092339  
      19A1    10.467524    20A1    23.374989  

    Beta Occupied:                                                        

       1A1   -11.024480     2A1    -1.302590     3A1    -0.795076  

    Beta Virtual:                                                         

       1B1    -0.608006     1B2    -0.608006     4A1    -0.179198  
       5A1    -0.038222     2B1    -0.013953     2B2    -0.013953  
       6A1     0.212370     3B2     0.286197     3B1     0.286197  
       7A1     0.302204     1A2     0.302204     8A1     0.377489  
       9A1     0.750950     4B2     0.912964     4B1     0.912964  
      10A1     1.315611     5B2     1.376904     5B1     1.376904  
      11A1     1.869892    12A1     2.155438     2A2     2.155438  
       6B2     2.221618     6B1     2.221618    13A1     2.257246  
       7B1     2.267541     7B2     2.267541     3A2     2.359479  
      14A1     2.359479    15A1     2.806760     8B2     2.936750  
       8B1     2.936750    16A1     4.368308     4A2     4.384331  
      17A1     4.384331     9B1     4.386449     9B2     4.386449  
      18A1     5.330570    10B2     7.092339    10B1     7.092339  
      19A1    10.467524    20A1    23.374989  

    Final Occupation by Irrep:
             A1    A2    B1    B2 
    DOCC [     3,    0,    0,    0 ]
    SOCC [     0,    0,    0,    0 ]
    NA   [     3,    0,    0,    0 ]
    NB   [     3,    0,    0,    0 ]

  @DF-UKS Final Energy:   -36.03391036510514

   => Energetics <=

    Nuclear Repulsion Energy =              8.3455028860933833
    One-Electron Energy =                 -59.1844163083120378
    Two-Electron Energy =                  19.4171151435208813
    DFT Exchange-Correlation Energy =      -4.6121120864073752
    Empirical Dispersion Energy =           0.0000000000000000
    VV10 Nonlocal Energy =                  0.0000000000000000
    Total Energy =                        -36.0339103651051431

  UHF NO Occupations:
  HONO-2 :    1 A1 2.0000000
  HONO-1 :    2 A1 2.0000000
  HONO-0 :    3 A1 2.0000000
  LUNO+0 :    4 A1 0.0000000
  LUNO+1 :    5 A1 0.0000000
  LUNO+2 :    6 A1 0.0000000
  LUNO+3 :    7 A1 0.0000000


Computation Completed


Properties will be evaluated at   0.000000,   0.000000,   0.000000 [a0]

Properties computed using the B3LYP density matrix


 Multipole Moments:

 ------------------------------------------------------------------------------------
     Multipole            Electronic (a.u.)      Nuclear  (a.u.)        Total (a.u.)
 ------------------------------------------------------------------------------------

 L = 1.  Multiply by 2.5417464519 to convert [e a0] to [Debye]
 Dipole X            :          0.0000000            0.0000000            0.0000000
 Dipole Y            :          0.0000000            0.0000000            0.0000000
 Dipole Z            :          0.2510057            0.3290285            0.5800343
 Magnitude           :                                                    0.5800343

 L = 2.  Multiply by 1.3450342976 to convert [e a0^2] to [Debye ang]
 Quadrupole XX       :         -2.4417058            0.0000000           -2.4417058
 Quadrupole XY       :          0.0000000            0.0000000            0.0000000
 Quadrupole XZ       :          0.0000000            0.0000000            0.0000000
 Quadrupole YY       :         -2.4417058            0.0000000           -2.4417058
 Quadrupole YZ       :          0.0000000            0.0000000            0.0000000
 Quadrupole ZZ       :         -3.9829440            0.4585136           -3.5244304
 Traceless XX        :          0.5137461           -0.1528379            0.3609082
 Traceless YY        :          0.5137461           -0.1528379            0.3609082
 Traceless ZZ        :         -1.0274922            0.3056757           -0.7218164

 ------------------------------------------------------------------------------------
  ==> Computing MBIS Charges <==

  Electron Count from Grid (Expected Number):  6.00000 ( 6.00000)
  Difference:  0.00000

  MBIS Charges: (a.u.)
   Center  Symbol  Z      Pop.       Charge
      1       C    6    5.022920    0.977080
      2       H    1    0.977080    0.022920

  MBIS Dipoles: [e a0]
   Center  Symbol  Z        X           Y           Z
      1       C    6   -0.000000    0.000000    0.664173
      2       H    1   -0.000000    0.000000   -0.044913

  MBIS Quadrupoles: [e a0^2]
   Center  Symbol  Z      XX        XY        XZ        YY        YZ        ZZ
      1       C    6   -2.2576   -0.0000    0.0000   -2.2576    0.0000   -3.1980
      2       H    1   -0.1841   -0.0000    0.0000   -0.1841   -0.0000   -0.2059

  MBIS Octupoles: [e a0^3]
   Center  Symbol  Z      XXX       XXY       XXZ       XYY       XYZ       XZZ       YYY       YYZ       YZZ       ZZZ
      1       C    6   -0.0000   -0.0000    0.7305   -0.0000    0.0000   -0.0000    0.0000    0.7305   -0.0000    1.8959
      2       H    1   -0.0000    0.0000   -0.0083    0.0000   -0.0000    0.0000   -0.0000   -0.0083   -0.0000   -0.0054

  MBIS Radial Moments:
   Center  Symbol  Z      [a0^2]      [a0^3]      [a0^4]      
      1       C    6    7.713267   15.686100   37.996634
      2       H    1    0.574118    0.621800    0.804920

  MBIS Valence Widths: [a0]
   Center  Symbol  Z     Width
      1       C    6    0.439060
      2       H    1    0.223920

*** tstop() called on Mac.lan at Wed Aug 27 10:57:58 2025
Module time:
	user time   =       6.11 seconds =       0.10 minutes
	system time =       2.25 seconds =       0.04 minutes
	total time  =          1 seconds =       0.02 minutes
Total time:
	user time   =      34.11 seconds =       0.57 minutes
	system time =       4.78 seconds =       0.08 minutes
	total time  =          4 seconds =       0.07 minutes

    Psi4 stopped on: Wednesday, 27 August 2025 10:57AM
    Psi4 wall time for execution: 0:00:03.91

*** Psi4 exiting successfully. Buy a developer a beer!
