
    -----------------------------------------------------------------------
          Psi4: An Open-Source Ab Initio Electronic Structure Package
                               Psi4 1.9.1 release

                         Git: Rev {} zzzzzzz 


    D. G. A. Smith, L. A. Burns, A. C. Simmonett, R. M. Parrish,
    M. C. Schieber, R. Galvelis, P. Kraus, H. Kruse, R. Di Remigio,
    A. Alenaizan, A. M. James, S. Lehtola, J. P. Misiewicz, M. Scheurer,
    R. A. Shaw, J. B. Schriber, Y. Xie, Z. L. Glick, D. A. Sirianni,
    J. S. O'Brien, J. M. Waldrop, A. Kumar, E. G. Hohenstein,
    B. P. Pritchard, B. R. Brooks, H. F. Schaefer III, A. Yu. Sokolov,
    K. Patkowski, A. E. DePrince III, U. Bozkaya, R. A. King,
    F. A. Evangelista, J. M. Turney, T. D. Crawford, C. D. Sherrill,
    J. Chem. Phys. 152(18) 184108 (2020). https://doi.org/10.1063/5.0006002

                            Additional Code Authors
    E. T. Seidl, C. L. Janssen, E. F. Valeev, M. L. Leininger,
    J. F. Gonthier, R. M. Richard, H. R. McAlexander, M. Saitow, X. Wang,
    P. Verma, M. H. Lechner, A. Jiang, S. Behnle, A. G. Heide,
    M. F. Herbst, and D. L. Poole

             Previous Authors, Complete List of Code Contributors,
                       and Citations for Specific Modules
    https://github.com/psi4/psi4/blob/master/codemeta.json
    https://github.com/psi4/psi4/graphs/contributors
    http://psicode.org/psi4manual/master/introduction.html#citing-psifour

    -----------------------------------------------------------------------


    Psi4 started on: Tuesday, 26 August 2025 10:09PM

    Process ID: 60846
    Host:       Mac.lan
    PSIDATADIR: /Users/joseantoniorodriguesromero/anaconda3/share/psi4
    Memory:     500.0 MiB
    Threads:    1
    
  ==> Input File <==

--------------------------------------------------------------------------
molecule { 
0 2
C           0.000000           0.000000           0.000000
H           0.000000           0.000000           1.903411
}

set { 
basis              cc-pvtz
reference          uks
maxiter            500
DAMPING_PERCENTAGE 1
E_CONVERGENCE      1.0E-8
D_CONVERGENCE      1.0E-8
DIIS_MAX_VECS      400
MBIS_MAXITER       8000
guess              read
}

E, wfn = energy('b3lyp', restart_file='last_wfn', return_wfn=True)
properties('b3lyp','MBIS_CHARGES', wfn=wfn)
wfn.to_file('last_wfn')
--------------------------------------------------------------------------

Scratch directory: /tmp/
 Found user provided orbital data. Setting orbital guess to READ 
 Copying restart file <last_wfn.npy> to </tmp/scan_HC_40.default.60846.180.npy> for internal processing
   => Libint2 <=

    Primary   basis highest AM E, G, H:  6, 6, 3
    Auxiliary basis highest AM E, G, H:  7, 7, 4
    Onebody   basis highest AM E, G, H:  -, -, -
    Solid Harmonics ordering:            Gaussian

*** tstart() called on Mac.lan
*** at Tue Aug 26 22:09:14 2025

   => Loading Basis Set <=

    Name: CC-PVTZ
    Role: ORBITAL
    Keyword: BASIS
    atoms 1 entry C          line   186 file /Users/joseantoniorodriguesromero/anaconda3/share/psi4/basis/cc-pvtz.gbs 
    atoms 2 entry H          line    23 file /Users/joseantoniorodriguesromero/anaconda3/share/psi4/basis/cc-pvtz.gbs 


         ---------------------------------------------------------
                                   SCF
               by Justin Turney, Rob Parrish, Andy Simmonett
                          and Daniel G. A. Smith
                              UKS Reference
                        1 Threads,    500 MiB Core
         ---------------------------------------------------------

  ==> Geometry <==

    Molecular point group: c2v
    Full point group: C_inf_v

    Geometry (in Angstrom), charge = 0, multiplicity = 2:

       Center              X                  Y                   Z               Mass       
    ------------   -----------------  -----------------  -----------------  -----------------
         C            0.000000000000     0.000000000000    -0.147473174621    12.000000000000
         H            0.000000000000     0.000000000000     1.755937825379     1.007825032230

  Running in c2v symmetry.

  Rotational constants: A = ************  B =      5.00460  C =      5.00460 [cm^-1]
  Rotational constants: A = ************  B = 150034.22842  C = 150034.22842 [MHz]
  Nuclear repulsion =    1.668091265638372

  Charge       = 0
  Multiplicity = 2
  Electrons    = 7
  Nalpha       = 4
  Nbeta        = 3

  ==> Algorithm <==

  SCF Algorithm Type is DF.
  DIIS enabled.
  MOM disabled.
  Fractional occupation disabled.
  Guess Type is READ.
  Energy threshold   = 1.00e-08
  Density threshold  = 1.00e-08
  Integral threshold = 1.00e-12

  ==> Primary Basis <==

  Basis Set: CC-PVTZ
    Blend: CC-PVTZ
    Number of shells: 16
    Number of basis functions: 44
    Number of Cartesian functions: 50
    Spherical Harmonics?: true
    Max angular momentum: 3

  ==> DFT Potential <==

   => LibXC <=

    Version 6.2.2
    S. Lehtola, C. Steigemann, M. J.T. Oliveira, and M. A.L. Marques.,  SoftwareX 7, 1–5 (2018) (10.1016/j.softx.2017.11.002)

   => Composite Functional: B3LYP <= 

    B3LYP Hyb-GGA Exchange-Correlation Functional

    P. J. Stephens, F. J. Devlin, C. F. Chabalowski, and M. J. Frisch.,  J. Phys. Chem. 98, 11623 (1994) (10.1021/j100096a001)

    Deriv               =              1
    GGA                 =           TRUE
    Meta                =          FALSE

    Exchange Hybrid     =           TRUE
    MP2 Hybrid          =          FALSE

   => Exchange Functionals <=

    0.0800   Slater exchange
    0.7200         Becke 88

   => Exact (HF) Exchange <=

    0.2000               HF 

   => Correlation Functionals <=

    0.1900   Vosko, Wilk & Nusair (VWN5_RPA)
    0.8100   Lee, Yang & Parr

   => LibXC Density Thresholds  <==

    XC_HYB_GGA_XC_B3LYP:  1.00E-15 

   => Molecular Quadrature <=

    Radial Scheme          =       TREUTLER
    Pruning Scheme         =           NONE
    Nuclear Scheme         =       TREUTLER

    Blocking Scheme        =         OCTREE
    BS radius alpha        =              1
    Pruning alpha          =              1
    Radial Points          =             75
    Spherical Points       =            302
    Total Points           =          43912
    Total Blocks           =            385
    Max Points             =            256
    Max Functions          =             44
    Weights Tolerance      =       1.00E-15

   => Loading Basis Set <=

    Name: (CC-PVTZ AUX)
    Role: JKFIT
    Keyword: DF_BASIS_SCF
    atoms 1 entry C          line   125 file /Users/joseantoniorodriguesromero/anaconda3/share/psi4/basis/cc-pvtz-jkfit.gbs 
    atoms 2 entry H          line    51 file /Users/joseantoniorodriguesromero/anaconda3/share/psi4/basis/cc-pvtz-jkfit.gbs 

   => Loading Basis Set <=

    Name: CC-PVTZ
    Role: ORBITAL
    Keyword: BASIS
    atoms 1 entry C          line   186 file /Users/joseantoniorodriguesromero/anaconda3/share/psi4/basis/cc-pvtz.gbs 
    atoms 2 entry H          line    23 file /Users/joseantoniorodriguesromero/anaconda3/share/psi4/basis/cc-pvtz.gbs 

  Reading orbitals from file /tmp/scan_HC_40.default.60846.180.npy, no projection.

  ==> Integral Setup <==

  DFHelper Memory: AOs need 0.002 GiB; user supplied 0.311 GiB. 
  Using in-core AOs.

  ==> MemDFJK: Density-Fitted J/K Matrices <==

    J tasked:                   Yes
    K tasked:                   Yes
    wK tasked:                   No
    OpenMP threads:               1
    Memory [MiB]:               318
    Algorithm:                 Core
    Schwarz Cutoff:           1E-12
    Mask sparsity (%):       0.0000
    Fitting Condition:        1E-10

   => Auxiliary Basis Set <=

  Basis Set: (CC-PVTZ AUX)
    Blend: CC-PVTZ-JKFIT
    Number of shells: 35
    Number of basis functions: 109
    Number of Cartesian functions: 131
    Spherical Harmonics?: true
    Max angular momentum: 4

  Cached 100.0% of DFT collocation blocks in 0.055 [GiB].

  Minimum eigenvalue in the overlap matrix is 3.0234348141E-02.
  Reciprocal condition number of the overlap matrix is 9.3236889562E-03.
    Using symmetric orthogonalization.

  ==> Pre-Iterations <==

  SCF Guess: Orbitals guess was supplied from a previous computation.

   -------------------------------------------------------
    Irrep   Nso     Nmo     Nalpha   Nbeta   Ndocc  Nsocc
   -------------------------------------------------------
     A1        20      20       3       3       3       0
     A2         4       4       0       0       0       0
     B1        10      10       0       0       0       0
     B2        10      10       1       0       0       1
   -------------------------------------------------------
    Total      44      44       4       3       3       1
   -------------------------------------------------------

  ==> Iterations <==

                           Total Energy        Delta E     RMS |[F,P]|

   @DF-UKS iter   0:   -38.40104416261380   -3.84010e+01   5.25907e-04 
   @DF-UKS iter   1:   -38.40549352459811   -4.44936e-03   2.78220e-04 DIIS/ADIIS
   @DF-UKS iter   2:   -38.40545922157237    3.43030e-05   3.91902e-04 DIIS/ADIIS/DAMP=1%
   @DF-UKS iter   3:   -38.40575011888182   -2.90897e-04   8.94561e-05 DIIS/DAMP=1%
   @DF-UKS iter   4:   -38.40552184593153    2.28273e-04   4.61679e-05 DIIS/DAMP=1%
   @DF-UKS iter   5:   -38.40557474793822   -5.29020e-05   1.89632e-05 DIIS/DAMP=1%
   @DF-UKS iter   6:   -38.40558204693899   -7.29900e-06   4.52238e-06 DIIS/DAMP=1%
   @DF-UKS iter   7:   -38.40559067900143   -8.63206e-06   6.54992e-07 DIIS/DAMP=1%
   @DF-UKS iter   8:   -38.40558841364644    2.26535e-06   9.77792e-08 DIIS/DAMP=1%
   @DF-UKS iter   9:   -38.40558828533168    1.28315e-07   1.79590e-08 DIIS/DAMP=1%
   @DF-UKS iter  10:   -38.40558829501988   -9.68820e-09   4.67255e-09 DIIS/DAMP=1%
  Energy and wave function converged.


  ==> Post-Iterations <==

   Electrons on quadrature grid:
      Nalpha   =    3.9999999553 ; deviation = -4.474e-08
      Nbeta    =    2.9999999136 ; deviation = -8.640e-08
      Ntotal   =    6.9999998689 ; deviation = -1.311e-07 

   @Spin Contamination Metric:   1.204817565E-01
   @S^2 Expected:                7.500000000E-01
   @S^2 Observed:                8.704817565E-01
   @S   Expected:                5.000000000E-01
   @S   Observed:                5.000000000E-01

    Orbital Energies [Eh]
    ---------------------

    Alpha Occupied:                                                       

       1A1   -10.344015     2A1    -0.597190     3A1    -0.293217  
       1B2    -0.281797  

    Alpha Virtual:                                                        

       1B1    -0.166008     4A1    -0.077665     5A1     0.267856  
       2B2     0.277722     2B1     0.296101     6A1     0.308470  
       7A1     0.423307     3B2     0.543976     3B1     0.545806  
       1A2     0.645670     8A1     0.651034     9A1     0.697344  
       4B2     0.827501     4B1     0.829114    10A1     1.163545  
       5B2     1.880571     5B1     1.907965    11A1     1.929566  
      12A1     2.341759     6B2     2.586653     6B1     2.588790  
       7B2     2.621788     2A2     2.622972     7B1     2.624793  
      13A1     2.627392    14A1     2.633661     3A2     2.864698  
       8B2     2.868977    15A1     2.876970     8B1     2.884705  
      16A1     3.051533     4A2     3.235123    17A1     3.235301  
       9B1     3.402959     9B2     3.403174    18A1     3.638854  
      10B1     3.723842    10B2     3.724695    19A1     3.886466  
      20A1     4.351968  

    Beta Occupied:                                                        

       1A1   -10.323884     2A1    -0.525907     3A1    -0.292864  

    Beta Virtual:                                                         

       1B1    -0.145518     1B2    -0.097005     4A1    -0.069315  
       5A1     0.248521     2B1     0.303782     6A1     0.326936  
       2B2     0.332103     7A1     0.450306     3B1     0.539249  
       3B2     0.552493     8A1     0.682090     1A2     0.689869  
       9A1     0.708791     4B1     0.823484     4B2     0.843045  
      10A1     1.164235     5B1     1.921473    11A1     1.951054  
       5B2     1.966043    12A1     2.302118     6B1     2.603955  
       6B2     2.635979    13A1     2.641244     2A2     2.675358  
       7B1     2.680279     7B2     2.681942    14A1     2.686039  
       8B1     2.910803    15A1     2.938979     3A2     2.941692  
       8B2     2.952211    16A1     3.089740     4A2     3.192346  
      17A1     3.192390     9B1     3.369281     9B2     3.377910  
      18A1     3.630351    10B1     3.668012    10B2     3.672347  
      19A1     3.898362    20A1     4.325386  

    Final Occupation by Irrep:
             A1    A2    B1    B2 
    DOCC [     3,    0,    0,    0 ]
    SOCC [     0,    0,    0,    1 ]
    NA   [     3,    0,    0,    1 ]
    NB   [     3,    0,    0,    0 ]

  @DF-UKS Final Energy:   -38.40558829501988

   => Energetics <=

    Nuclear Repulsion Energy =              1.6680912656383724
    One-Electron Energy =                 -54.2857171716885745
    Two-Electron Energy =                  18.6436601102764747
    DFT Exchange-Correlation Energy =      -4.4316224992461501
    Empirical Dispersion Energy =           0.0000000000000000
    VV10 Nonlocal Energy =                  0.0000000000000000
    Total Energy =                        -38.4055882950198750

  UHF NO Occupations:
  HONO-2 :    2 A1 1.9990083
  HONO-1 :    3 A1 1.9388836
  HONO-0 :    1 B2 1.0000000
  LUNO+0 :    4 A1 0.0611164
  LUNO+1 :    5 A1 0.0009917
  LUNO+2 :    6 A1 0.0000008
  LUNO+3 :    7 A1 0.0000000


Computation Completed


Properties will be evaluated at   0.000000,   0.000000,   0.000000 [a0]

Properties computed using the SCF density matrix


 Multipole Moments:

 ------------------------------------------------------------------------------------
     Multipole            Electronic (a.u.)      Nuclear  (a.u.)        Total (a.u.)
 ------------------------------------------------------------------------------------

 L = 1.  Multiply by 2.5417464519 to convert [e a0] to [Debye]
 Dipole X            :          0.0000000            0.0000000            0.0000000
 Dipole Y            :          0.0000000            0.0000000            0.0000000
 Dipole Z            :         -1.6970178            1.6461381           -0.0508797
 Magnitude           :                                                    0.0508797

 ------------------------------------------------------------------------------------

*** tstop() called on Mac.lan at Tue Aug 26 22:09:15 2025
Module time:
	user time   =      10.78 seconds =       0.18 minutes
	system time =       1.80 seconds =       0.03 minutes
	total time  =          1 seconds =       0.02 minutes
Total time:
	user time   =      10.78 seconds =       0.18 minutes
	system time =       1.80 seconds =       0.03 minutes
	total time  =          1 seconds =       0.02 minutes

*** tstart() called on Mac.lan
*** at Tue Aug 26 22:09:15 2025

   => Libint2 <=

    Primary   basis highest AM E, G, H:  6, 6, 3
    Auxiliary basis highest AM E, G, H:  7, 7, 4
    Onebody   basis highest AM E, G, H:  -, -, -
    Solid Harmonics ordering:            Gaussian
   => Loading Basis Set <=

    Name: CC-PVTZ
    Role: ORBITAL
    Keyword: BASIS
    atoms 1 entry C          line   186 file /Users/joseantoniorodriguesromero/anaconda3/share/psi4/basis/cc-pvtz.gbs 
    atoms 2 entry H          line    23 file /Users/joseantoniorodriguesromero/anaconda3/share/psi4/basis/cc-pvtz.gbs 


         ---------------------------------------------------------
                                   SCF
               by Justin Turney, Rob Parrish, Andy Simmonett
                          and Daniel G. A. Smith
                              UKS Reference
                        1 Threads,    500 MiB Core
         ---------------------------------------------------------

  ==> Geometry <==

    Molecular point group: c2v
    Full point group: C_inf_v

    Geometry (in Angstrom), charge = 0, multiplicity = 2:

       Center              X                  Y                   Z               Mass       
    ------------   -----------------  -----------------  -----------------  -----------------
         C            0.000000000000     0.000000000000    -0.147473174621    12.000000000000
         H            0.000000000000     0.000000000000     1.755937825379     1.007825032230

  Running in c2v symmetry.

  Rotational constants: A = ************  B =      5.00460  C =      5.00460 [cm^-1]
  Rotational constants: A = ************  B = 150034.22842  C = 150034.22842 [MHz]
  Nuclear repulsion =    1.668091265638372

  Charge       = 0
  Multiplicity = 2
  Electrons    = 7
  Nalpha       = 4
  Nbeta        = 3

  ==> Algorithm <==

  SCF Algorithm Type is DF.
  DIIS enabled.
  MOM disabled.
  Fractional occupation disabled.
  Guess Type is READ.
  Energy threshold   = 1.00e-08
  Density threshold  = 1.00e-08
  Integral threshold = 1.00e-12

  ==> Primary Basis <==

  Basis Set: CC-PVTZ
    Blend: CC-PVTZ
    Number of shells: 16
    Number of basis functions: 44
    Number of Cartesian functions: 50
    Spherical Harmonics?: true
    Max angular momentum: 3

  ==> DFT Potential <==

   => LibXC <=

    Version 6.2.2
    S. Lehtola, C. Steigemann, M. J.T. Oliveira, and M. A.L. Marques.,  SoftwareX 7, 1–5 (2018) (10.1016/j.softx.2017.11.002)

   => Composite Functional: B3LYP <= 

    B3LYP Hyb-GGA Exchange-Correlation Functional

    P. J. Stephens, F. J. Devlin, C. F. Chabalowski, and M. J. Frisch.,  J. Phys. Chem. 98, 11623 (1994) (10.1021/j100096a001)

    Deriv               =              1
    GGA                 =           TRUE
    Meta                =          FALSE

    Exchange Hybrid     =           TRUE
    MP2 Hybrid          =          FALSE

   => Exchange Functionals <=

    0.0800   Slater exchange
    0.7200         Becke 88

   => Exact (HF) Exchange <=

    0.2000               HF 

   => Correlation Functionals <=

    0.1900   Vosko, Wilk & Nusair (VWN5_RPA)
    0.8100   Lee, Yang & Parr

   => LibXC Density Thresholds  <==

    XC_HYB_GGA_XC_B3LYP:  1.00E-15 

   => Molecular Quadrature <=

    Radial Scheme          =       TREUTLER
    Pruning Scheme         =           NONE
    Nuclear Scheme         =       TREUTLER

    Blocking Scheme        =         OCTREE
    BS radius alpha        =              1
    Pruning alpha          =              1
    Radial Points          =             75
    Spherical Points       =            302
    Total Points           =          43912
    Total Blocks           =            385
    Max Points             =            256
    Max Functions          =             44
    Weights Tolerance      =       1.00E-15

   => Loading Basis Set <=

    Name: (CC-PVTZ AUX)
    Role: JKFIT
    Keyword: DF_BASIS_SCF
    atoms 1 entry C          line   125 file /Users/joseantoniorodriguesromero/anaconda3/share/psi4/basis/cc-pvtz-jkfit.gbs 
    atoms 2 entry H          line    51 file /Users/joseantoniorodriguesromero/anaconda3/share/psi4/basis/cc-pvtz-jkfit.gbs 

   => Loading Basis Set <=

    Name: CC-PVTZ
    Role: ORBITAL
    Keyword: BASIS
    atoms 1 entry C          line   186 file /Users/joseantoniorodriguesromero/anaconda3/share/psi4/basis/cc-pvtz.gbs 
    atoms 2 entry H          line    23 file /Users/joseantoniorodriguesromero/anaconda3/share/psi4/basis/cc-pvtz.gbs 

  Reading orbitals from file /tmp/scan_HC_40.default.60846.180.npy, no projection.

  ==> Integral Setup <==

  DFHelper Memory: AOs need 0.002 GiB; user supplied 0.311 GiB. 
  Using in-core AOs.

  ==> MemDFJK: Density-Fitted J/K Matrices <==

    J tasked:                   Yes
    K tasked:                   Yes
    wK tasked:                   No
    OpenMP threads:               1
    Memory [MiB]:               318
    Algorithm:                 Core
    Schwarz Cutoff:           1E-12
    Mask sparsity (%):       0.0000
    Fitting Condition:        1E-10

   => Auxiliary Basis Set <=

  Basis Set: (CC-PVTZ AUX)
    Blend: CC-PVTZ-JKFIT
    Number of shells: 35
    Number of basis functions: 109
    Number of Cartesian functions: 131
    Spherical Harmonics?: true
    Max angular momentum: 4

  Cached 100.0% of DFT collocation blocks in 0.055 [GiB].

  Minimum eigenvalue in the overlap matrix is 3.0234348141E-02.
  Reciprocal condition number of the overlap matrix is 9.3236889562E-03.
    Using symmetric orthogonalization.

  ==> Pre-Iterations <==

  SCF Guess: Orbitals guess was supplied from a previous computation.

   -------------------------------------------------------
    Irrep   Nso     Nmo     Nalpha   Nbeta   Ndocc  Nsocc
   -------------------------------------------------------
     A1        20      20       3       3       3       0
     A2         4       4       0       0       0       0
     B1        10      10       0       0       0       0
     B2        10      10       1       0       0       1
   -------------------------------------------------------
    Total      44      44       4       3       3       1
   -------------------------------------------------------

  ==> Iterations <==

                           Total Energy        Delta E     RMS |[F,P]|

   @DF-UKS iter   0:   -38.40558829534926   -3.84056e+01   1.90324e-09 
   @DF-UKS iter   1:   -38.40558829534923    3.55271e-14   1.70022e-09 DIIS
  Energy and wave function converged.


  ==> Post-Iterations <==

   Electrons on quadrature grid:
      Nalpha   =    3.9999999553 ; deviation = -4.474e-08
      Nbeta    =    2.9999999136 ; deviation = -8.640e-08
      Ntotal   =    6.9999998689 ; deviation = -1.311e-07 

   @Spin Contamination Metric:   1.204814626E-01
   @S^2 Expected:                7.500000000E-01
   @S^2 Observed:                8.704814626E-01
   @S   Expected:                5.000000000E-01
   @S   Observed:                5.000000000E-01

    Orbital Energies [Eh]
    ---------------------

    Alpha Occupied:                                                       

       1A1   -10.344015     2A1    -0.597190     3A1    -0.293217  
       1B2    -0.281797  

    Alpha Virtual:                                                        

       1B1    -0.166008     4A1    -0.077665     5A1     0.267856  
       2B2     0.277722     2B1     0.296101     6A1     0.308470  
       7A1     0.423307     3B2     0.543976     3B1     0.545806  
       1A2     0.645670     8A1     0.651034     9A1     0.697344  
       4B2     0.827501     4B1     0.829114    10A1     1.163545  
       5B2     1.880571     5B1     1.907965    11A1     1.929566  
      12A1     2.341759     6B2     2.586653     6B1     2.588790  
       7B2     2.621788     2A2     2.622972     7B1     2.624793  
      13A1     2.627392    14A1     2.633661     3A2     2.864699  
       8B2     2.868977    15A1     2.876970     8B1     2.884705  
      16A1     3.051533     4A2     3.235123    17A1     3.235301  
       9B1     3.402959     9B2     3.403174    18A1     3.638854  
      10B1     3.723842    10B2     3.724695    19A1     3.886466  
      20A1     4.351968  

    Beta Occupied:                                                        

       1A1   -10.323884     2A1    -0.525908     3A1    -0.292864  

    Beta Virtual:                                                         

       1B1    -0.145518     1B2    -0.097005     4A1    -0.069315  
       5A1     0.248521     2B1     0.303782     6A1     0.326936  
       2B2     0.332103     7A1     0.450306     3B1     0.539249  
       3B2     0.552493     8A1     0.682090     1A2     0.689869  
       9A1     0.708791     4B1     0.823484     4B2     0.843045  
      10A1     1.164235     5B1     1.921473    11A1     1.951054  
       5B2     1.966043    12A1     2.302118     6B1     2.603955  
       6B2     2.635979    13A1     2.641244     2A2     2.675358  
       7B1     2.680279     7B2     2.681942    14A1     2.686039  
       8B1     2.910803    15A1     2.938979     3A2     2.941692  
       8B2     2.952211    16A1     3.089740     4A2     3.192346  
      17A1     3.192390     9B1     3.369281     9B2     3.377910  
      18A1     3.630351    10B1     3.668012    10B2     3.672347  
      19A1     3.898362    20A1     4.325386  

    Final Occupation by Irrep:
             A1    A2    B1    B2 
    DOCC [     3,    0,    0,    0 ]
    SOCC [     0,    0,    0,    1 ]
    NA   [     3,    0,    0,    1 ]
    NB   [     3,    0,    0,    0 ]

  @DF-UKS Final Energy:   -38.40558829534923

   => Energetics <=

    Nuclear Repulsion Energy =              1.6680912656383724
    One-Electron Energy =                 -54.2857172962185075
    Two-Electron Energy =                  18.6436603596373658
    DFT Exchange-Correlation Energy =      -4.4316226244064607
    Empirical Dispersion Energy =           0.0000000000000000
    VV10 Nonlocal Energy =                  0.0000000000000000
    Total Energy =                        -38.4055882953492258

  UHF NO Occupations:
  HONO-2 :    2 A1 1.9990083
  HONO-1 :    3 A1 1.9388837
  HONO-0 :    1 B2 1.0000000
  LUNO+0 :    4 A1 0.0611163
  LUNO+1 :    5 A1 0.0009917
  LUNO+2 :    6 A1 0.0000008
  LUNO+3 :    7 A1 0.0000000


Computation Completed


Properties will be evaluated at   0.000000,   0.000000,   0.000000 [a0]

Properties computed using the B3LYP density matrix


 Multipole Moments:

 ------------------------------------------------------------------------------------
     Multipole            Electronic (a.u.)      Nuclear  (a.u.)        Total (a.u.)
 ------------------------------------------------------------------------------------

 L = 1.  Multiply by 2.5417464519 to convert [e a0] to [Debye]
 Dipole X            :          0.0000000            0.0000000            0.0000000
 Dipole Y            :          0.0000000            0.0000000            0.0000000
 Dipole Z            :         -1.6970180            1.6461381           -0.0508798
 Magnitude           :                                                    0.0508798

 L = 2.  Multiply by 1.3450342976 to convert [e a0^2] to [Debye ang]
 Quadrupole XX       :         -4.7041786            0.0000000           -4.7041786
 Quadrupole XY       :          0.0000000            0.0000000            0.0000000
 Quadrupole XZ       :          0.0000000            0.0000000            0.0000000
 Quadrupole YY       :         -6.1181072            0.0000000           -6.1181072
 Quadrupole YZ       :          0.0000000            0.0000000            0.0000000
 Quadrupole ZZ       :        -17.6750350           11.4767155           -6.1983195
 Traceless XX        :          4.7949284           -3.8255718            0.9693565
 Traceless YY        :          3.3809997           -3.8255718           -0.4445721
 Traceless ZZ        :         -8.1759281            7.6511437           -0.5247844

 ------------------------------------------------------------------------------------
  ==> Computing MBIS Charges <==

  Electron Count from Grid (Expected Number):  7.00000 ( 7.00000)
  Difference: -0.00000

  MBIS Charges: (a.u.)
   Center  Symbol  Z      Pop.       Charge
      1       C    6    5.933703    0.066297
      2       H    1    1.066297   -0.066297

  MBIS Dipoles: [e a0]
   Center  Symbol  Z        X           Y           Z
      1       C    6   -0.000000   -0.000000    0.070851
      2       H    1    0.000000    0.000000    0.116734

  MBIS Quadrupoles: [e a0^2]
   Center  Symbol  Z      XX        XY        XZ        YY        YZ        ZZ
      1       C    6   -3.6149    0.0000    0.0000   -4.9742    0.0000   -5.0976
      2       H    1   -1.0892    0.0000    0.0000   -1.1439    0.0000   -1.1112

  MBIS Octupoles: [e a0^3]
   Center  Symbol  Z      XXX       XXY       XXZ       XYY       XYZ       XZZ       YYY       YYZ       YZZ       ZZZ
      1       C    6   -0.0000    0.0000   -0.0480   -0.0000   -0.0000   -0.0000   -0.0000    0.0255   -0.0000   -0.2377
      2       H    1    0.0000    0.0000    0.0144    0.0000    0.0000    0.0000    0.0000    0.1038   -0.0000    0.2337

  MBIS Radial Moments:
   Center  Symbol  Z      [a0^2]      [a0^3]      [a0^4]      
      1       C    6   13.686699   33.896042   100.091312
      2       H    1    3.344290    8.382474   24.868883

  MBIS Valence Widths: [a0]
   Center  Symbol  Z     Width
      1       C    6    0.522946
      2       H    1    0.514507

*** tstop() called on Mac.lan at Tue Aug 26 22:09:16 2025
Module time:
	user time   =       2.88 seconds =       0.05 minutes
	system time =       1.47 seconds =       0.02 minutes
	total time  =          1 seconds =       0.02 minutes
Total time:
	user time   =      13.76 seconds =       0.23 minutes
	system time =       3.36 seconds =       0.06 minutes
	total time  =          2 seconds =       0.03 minutes

    Psi4 stopped on: Tuesday, 26 August 2025 10:09PM
    Psi4 wall time for execution: 0:00:01.67

*** Psi4 exiting successfully. Buy a developer a beer!
