
    -----------------------------------------------------------------------
          Psi4: An Open-Source Ab Initio Electronic Structure Package
                               Psi4 1.10 release

                         Git: Rev {} zzzzzzz 


    D. G. A. Smith, L. A. Burns, A. C. Simmonett, R. M. Parrish,
    M. C. Schieber, R. Galvelis, P. Kraus, H. Kruse, R. Di Remigio,
    A. Alenaizan, A. M. James, S. Lehtola, J. P. Misiewicz, M. Scheurer,
    R. A. Shaw, J. B. Schriber, Y. Xie, Z. L. Glick, D. A. Sirianni,
    J. S. O'Brien, J. M. Waldrop, A. Kumar, E. G. Hohenstein,
    B. P. Pritchard, B. R. Brooks, H. F. Schaefer III, A. Yu. Sokolov,
    K. Patkowski, A. E. DePrince III, U. Bozkaya, R. A. King,
    F. A. Evangelista, J. M. Turney, T. D. Crawford, C. D. Sherrill,
    J. Chem. Phys. 152(18) 184108 (2020). https://doi.org/10.1063/5.0006002

                            Additional Code Authors
    E. T. Seidl, C. L. Janssen, E. F. Valeev, M. L. Leininger,
    J. F. Gonthier, R. M. Richard, H. R. McAlexander, M. Saitow, X. Wang,
    P. Verma, M. H. Lechner, A. Jiang, S. Behnle, A. G. Heide,
    M. F. Herbst, D. L. Poole, T. Győri, E. C. Mitchell, J. P. Pederson,
    and A. M. Wallace

             Previous Authors, Complete List of Code Contributors,
                       and Citations for Specific Modules
    https://github.com/psi4/psi4/blob/master/codemeta.json
    https://github.com/psi4/psi4/graphs/contributors
    https://psicode.org/psi4manual/master/introduction.html#citing-psifour

    -----------------------------------------------------------------------


    Psi4 started on: Tuesday, 23 December 2025 01:37PM

    Process ID: 492436
    Host:       cics-quant-001
    PSIDATADIR: /home/jrodriguesro/psi4conda/share/psi4
    Memory:     500.0 MiB
    Threads:    5
    Addons:     adcc, a̶m̶b̶i̶t̶, b̶s̶e̶, c̶c̶t̶3̶, c̶f̶o̶u̶r̶, c̶h̶e̶m̶p̶s̶2̶, c̶p̶p̶e̶, ddx, dftd3, dftd4,
                dkh, ecpint, einsums, f̶o̶r̶t̶e̶, g̶a̶u̶x̶c̶, gcp, g̶d̶m̶a̶, geometric,
                g̶p̶u̶_̶d̶f̶c̶c̶, i̶n̶t̶e̶g̶r̶a̶t̶o̶r̶x̶x̶, i̶p̶i̶, libefp, m̶d̶i̶, m̶p̶2̶d̶,
                m̶r̶c̶c̶, ooo, o̶p̶e̶n̶f̶e̶r̶m̶i̶o̶n̶p̶s̶i̶4̶, pcmsolver, p̶s̶i̶4̶f̶o̶c̶k̶c̶i̶,
                p̶s̶i̶x̶a̶s̶, r̶e̶s̶p̶, s̶i̶m̶i̶n̶t̶, s̶n̶s̶m̶p̶2̶, v̶2̶r̶d̶m̶_̶c̶a̶s̶s̶c̶f̶

  ==> Input File <==

--------------------------------------------------------------------------
memory 8 Gb

molecule { 
0 3
C           0.000000           0.000000           0.000000
C           0.000000           0.000000           1.567484
}

set { 
basis              cc-pvtz
reference          uks
maxiter            500
DAMPING_PERCENTAGE 1
E_CONVERGENCE      1.0E-8
D_CONVERGENCE      1.0E-8
DIIS_MAX_VECS      400
MBIS_MAXITER       8000
guess              read
}

E, wfn = energy('b3lyp', restart_file='last_wfn', return_wfn=True)
properties('b3lyp','MBIS_CHARGES', wfn=wfn)
wfn.to_file('last_wfn')
--------------------------------------------------------------------------

  Memory set to   7.451 GiB by Python driver.

Scratch directory: /tmp/
 Found user provided orbital data. Setting orbital guess to READ 
 Copying restart file <last_wfn.npy> to </tmp/scan_CC_24.default.492436.180.npy> for internal processing
   => Libint2 <=

    Primary   basis highest AM E, G, H:  6, 6, 3
    Auxiliary basis highest AM E, G, H:  7, 7, 4
    Onebody   basis highest AM E, G, H:  -, -, -
    Solid Harmonics ordering:            Gaussian

*** tstart() called on cics-quant-001
*** at Tue Dec 23 13:37:15 2025

   => Loading Basis Set <=

    Name: CC-PVTZ
    Role: ORBITAL
    Keyword: BASIS
    atoms 1-2 entry C          line   186 file /home/jrodriguesro/psi4conda/share/psi4/basis/cc-pvtz.gbs 


         ---------------------------------------------------------
                                   SCF
               by Justin Turney, Rob Parrish, Andy Simmonett
                          and Daniel G. A. Smith
                              UKS Reference
                        5 Threads,   7629 MiB Core
         ---------------------------------------------------------

  ==> Geometry <==

    Molecular point group: d2h
    Full point group: D_inf_h

    Geometry (in Angstrom), charge = 0, multiplicity = 3:

       Center              X                  Y                   Z               Mass       
    ------------   -----------------  -----------------  -----------------  -----------------
         C            0.000000000000     0.000000000000    -0.783742000000    12.000000000000
         C            0.000000000000     0.000000000000     0.783742000000    12.000000000000

  Running in d2h symmetry.

  Rotational constants: A = ************  B =      1.14351  C =      1.14351 [cm^-1]
  Rotational constants: A = ************  B =  34281.49207  C =  34281.49207 [MHz]
  Nuclear repulsion =   12.153476261397250

  Charge       = 0
  Multiplicity = 3
  Electrons    = 12
  Nalpha       = 7
  Nbeta        = 5

  ==> Algorithm <==

  SCF Algorithm Type is DF.
  DIIS enabled.
  MOM disabled.
  Fractional occupation disabled.
  Guess Type is READ.
  Energy threshold   = 1.00e-08
  Density threshold  = 1.00e-08
  Integral threshold = 1.00e-12

  ==> Primary Basis <==

  Basis Set: CC-PVTZ
    Blend: CC-PVTZ
    Number of shells: 20
    Number of basis functions: 60
    Number of Cartesian functions: 70
    Spherical Harmonics?: true
    Max angular momentum: 3

  ==> DFT Potential <==

   => LibXC <=

    Version 7.0.0
    S. Lehtola, C. Steigemann, M. J.T. Oliveira, and M. A.L. Marques.,  SoftwareX 7, 1–5 (2018) (10.1016/j.softx.2017.11.002)

   => Composite Functional: B3LYP <= 

    B3LYP Hyb-GGA Exchange-Correlation Functional

    P. J. Stephens, F. J. Devlin, C. F. Chabalowski, and M. J. Frisch.,  J. Phys. Chem. 98, 11623 (1994) (10.1021/j100096a001)

    Deriv               =              1
    GGA                 =           TRUE
    Meta                =          FALSE

    Exchange Hybrid     =           TRUE
    MP2 Hybrid          =          FALSE

   => Exchange Functionals <=

    0.0800   Slater exchange
    0.7200         Becke 88

   => Exact (HF) Exchange <=

    0.2000               HF 

   => Correlation Functionals <=

    0.1900   Vosko, Wilk & Nusair (VWN5_RPA)
    0.8100   Lee, Yang & Parr

   => LibXC Density Thresholds  <==

    XC_HYB_GGA_XC_B3LYP:  1.00E-15 

   => Molecular Quadrature <=

    Radial Scheme          =       TREUTLER
    Pruning Scheme         =           NONE
    Nuclear Scheme         =       TREUTLER

    Blocking Scheme        =         OCTREE
    BS radius alpha        =              1
    Pruning alpha          =              1
    Radial Points          =             75
    Spherical Points       =            302
    Total Points           =          43020
    Total Blocks           =            392
    Max Points             =            253
    Max Functions          =             60
    Weights Tolerance      =       1.00E-15

   => Loading Basis Set <=

    Name: (CC-PVTZ AUX)
    Role: JKFIT
    Keyword: DF_BASIS_SCF
    atoms 1-2 entry C          line   125 file /home/jrodriguesro/psi4conda/share/psi4/basis/cc-pvtz-jkfit.gbs 

   => Loading Basis Set <=

    Name: CC-PVTZ
    Role: ORBITAL
    Keyword: BASIS
    atoms 1-2 entry C          line   186 file /home/jrodriguesro/psi4conda/share/psi4/basis/cc-pvtz.gbs 

  Reading orbitals from file /tmp/scan_CC_24.default.492436.180.npy, no projection.

  ==> Integral Setup <==

  DFHelper Memory: AOs need 0.005 GiB; user supplied 5.515 GiB. 
  SCF_SUBTYPE=INCORE selected. In-core MEM_DF algorithm will be used.
  Using in-core AOs.

  ==> MemDFJK: Density-Fitted J/K Matrices <==

    J tasked:                   Yes
    K tasked:                   Yes
    wK tasked:                   No
    OpenMP threads:               5
    Memory [MiB]:              5647
    Algorithm:                 Core
    Schwarz Cutoff:           1E-12
    Mask sparsity (%):       0.0000
    Fitting Condition:        1E-10

   => Auxiliary Basis Set <=

  Basis Set: (CC-PVTZ AUX)
    Blend: CC-PVTZ-JKFIT
    Number of shells: 50
    Number of basis functions: 158
    Number of Cartesian functions: 192
    Spherical Harmonics?: true
    Max angular momentum: 4

  Cached 100.0% of DFT collocation blocks in 0.073 [GiB].

  Minimum eigenvalue in the overlap matrix is 4.7850901689E-03.
  Reciprocal condition number of the overlap matrix is 1.3672013952E-03.
    Using symmetric orthogonalization.

  ==> Pre-Iterations <==

  SCF Guess: Orbitals guess was supplied from a previous computation.

   -------------------------------------------------------
    Irrep   Nso     Nmo     Nalpha   Nbeta   Ndocc  Nsocc
   -------------------------------------------------------
     Ag        13      13       3       3       3       0
     B1g        3       3       0       0       0       0
     B2g        7       7       0       0       0       0
     B3g        7       7       0       0       0       0
     Au         3       3       0       0       0       0
     B1u       13      13       2       2       2       0
     B2u        7       7       1       0       0       1
     B3u        7       7       1       0       0       1
   -------------------------------------------------------
    Total      60      60       7       5       5       2
   -------------------------------------------------------

  ==> Iterations <==

                           Total Energy        Delta E     RMS |[F,P]|

   @DF-UKS iter   0:   -75.91738216529083   -7.59174e+01   2.86914e-03 
   @DF-UKS iter   1:   -75.90094328833487    1.64389e-02   5.17971e-04 DIIS/ADIIS
   @DF-UKS iter   2:   -75.90101410720830   -7.08189e-05   2.57878e-04 DIIS/ADIIS/DAMP=1%
   @DF-UKS iter   3:   -75.90116595089633   -1.51844e-04   1.71927e-05 DIIS/DAMP=1%
   @DF-UKS iter   4:   -75.90102584841199    1.40102e-04   3.46286e-06 DIIS/DAMP=1%
   @DF-UKS iter   5:   -75.90103706922373   -1.12208e-05   2.29474e-07 DIIS/DAMP=1%
   @DF-UKS iter   6:   -75.90103476469268    2.30453e-06   2.04383e-08 DIIS/DAMP=1%
   @DF-UKS iter   7:   -75.90103489497726   -1.30285e-07   2.73568e-09 DIIS/DAMP=1%
   @DF-UKS iter   8:   -75.90103489160836    3.36890e-09   2.34255e-10 DIIS/DAMP=1%
  Energy and wave function converged.


  ==> Post-Iterations <==

   Electrons on quadrature grid:
      Nalpha   =    7.0000003335 ; deviation = 3.335e-07
      Nbeta    =    5.0000000738 ; deviation = 7.380e-08
      Ntotal   =   12.0000004073 ; deviation = 4.073e-07 

   @Spin Contamination Metric:   4.375561864E-03
   @S^2 Expected:                2.000000000E+00
   @S^2 Observed:                2.004375562E+00
   @S   Expected:                1.000000000E+00
   @S   Observed:                1.000000000E+00

    Orbital Energies [Eh]
    ---------------------

    Alpha Occupied:                                                       

       1Ag   -10.317965     1B1u  -10.317667     2Ag    -0.767261  
       2B1u   -0.469118     1B3u   -0.335574     1B2u   -0.335574  
       3Ag    -0.306076  

    Alpha Virtual:                                                        

       1B2g   -0.103860     1B3g   -0.103860     3B1u    0.137420  
       2B3u    0.267194     2B2u    0.267194     4Ag     0.293737  
       4B1u    0.317871     5Ag     0.321320     2B2g    0.344535  
       2B3g    0.344535     1B1g    0.533436     6Ag     0.533437  
       5B1u    0.610068     3B3u    0.639129     3B2u    0.639129  
       1Au     0.774850     6B1u    0.774850     3B2g    1.090514  
       3B3g    1.090514     7Ag     1.110882     7B1u    1.124039  
       4B3u    1.868072     4B2u    1.868072     8Ag     1.968824  
       4B2g    2.015065     4B3g    2.015065     2B1g    2.369519  
       9Ag     2.369519     5B3u    2.376540     5B2u    2.376540  
      10Ag     2.513441     8B1u    2.519220     6B3u    2.528610  
       6B2u    2.528610     5B2g    2.699123     5B3g    2.699123  
      11Ag     2.855447     3B1g    2.855448     9B1u    2.901186  
       2Au     2.901187    10B1u    2.950995     6B2g    3.063003  
       6B3g    3.063003     3Au     3.136421    11B1u    3.136421  
       7B3u    3.171556     7B2u    3.171556    12B1u    3.495972  
      12Ag     3.749669    13Ag     3.875798     7B3g    3.899500  
       7B2g    3.899500    13B1u    7.150386  

    Beta Occupied:                                                        

       1Ag   -10.304468     1B1u  -10.304272     2Ag    -0.697564  
       2B1u   -0.421982     3Ag    -0.289884  

    Beta Virtual:                                                         

       1B3u   -0.199423     1B2u   -0.199423     1B2g   -0.032898  
       1B3g   -0.032898     3B1u    0.159688     2B3u    0.297539  
       2B2u    0.297539     4Ag     0.303474     4B1u    0.334992  
       5Ag     0.346226     2B2g    0.369875     2B3g    0.369875  
       1B1g    0.583885     6Ag     0.583885     5B1u    0.630089  
       3B3u    0.672503     3B2u    0.672503     1Au     0.814289  
       6B1u    0.814290     3B2g    1.111146     3B3g    1.111146  
       7Ag     1.132785     7B1u    1.135305     4B3u    1.913886  
       4B2u    1.913886     8Ag     1.991633     4B2g    2.064237  
       4B3g    2.064237     2B1g    2.412130     9Ag     2.412131  
       5B3u    2.413296     5B2u    2.413296     8B1u    2.538702  
      10Ag     2.540874     6B3u    2.590283     6B2u    2.590283  
       5B2g    2.759974     5B3g    2.759974    11Ag     2.929783  
       3B1g    2.929783     9B1u    2.977715     2Au     2.977715  
      10B1u    2.978021     6B2g    3.096284     6B3g    3.096284  
       3Au     3.176452    11B1u    3.176453     7B3u    3.206668  
       7B2u    3.206668    12B1u    3.520344    12Ag     3.768467  
      13Ag     3.907197     7B3g    3.931604     7B2g    3.931604  
      13B1u    7.177898  

    Final Occupation by Irrep:
             Ag   B1g   B2g   B3g    Au   B1u   B2u   B3u 
    DOCC [     3,    0,    0,    0,    0,    2,    0,    0 ]
    SOCC [     0,    0,    0,    0,    0,    0,    1,    1 ]
    NA   [     3,    0,    0,    0,    0,    2,    1,    1 ]
    NB   [     3,    0,    0,    0,    0,    2,    0,    0 ]

  @DF-UKS Final Energy:   -75.90103489160836

   => Energetics <=

    Nuclear Repulsion Energy =             12.1534762613972500
    One-Electron Energy =                -125.1258842672943672
    Two-Electron Energy =                  45.5467662292716682
    DFT Exchange-Correlation Energy =      -8.4753931149829089
    Empirical Dispersion Energy =           0.0000000000000000
    VV10 Nonlocal Energy =                  0.0000000000000000
    Total Energy =                        -75.9010348916083615

  UHF NO Occupations:
  HONO-2 :    2B1u 1.9982425
  HONO-1 :    1B3u 1.0000000
  HONO-0 :    1B2u 1.0000000
  LUNO+0 :    3B1u 0.0017575
  LUNO+1 :    4 Ag 0.0003681
  LUNO+2 :    5 Ag 0.0000631
  LUNO+3 :    6 Ag 0.0000004


Computation Completed


Properties will be evaluated at   0.000000,   0.000000,   0.000000 [a0]

Properties computed using the SCF density matrix


 Multipole Moments:

 ------------------------------------------------------------------------------------
     Multipole            Electronic (a.u.)      Nuclear  (a.u.)        Total (a.u.)
 ------------------------------------------------------------------------------------

 L = 1.  Multiply by 2.5417464519 to convert [e a0] to [Debye]
 Dipole X            :          0.0000000            0.0000000            0.0000000
 Dipole Y            :          0.0000000            0.0000000            0.0000000
 Dipole Z            :          0.0000000            0.0000000            0.0000000
 Magnitude           :                                                    0.0000000

 ------------------------------------------------------------------------------------

*** tstop() called on cics-quant-001 at Tue Dec 23 13:37:15 2025
Module time:
	user time   =       1.11 seconds =       0.02 minutes
	system time =       0.05 seconds =       0.00 minutes
	total time  =          0 seconds =       0.00 minutes
Total time:
	user time   =       1.11 seconds =       0.02 minutes
	system time =       0.05 seconds =       0.00 minutes
	total time  =          0 seconds =       0.00 minutes

*** tstart() called on cics-quant-001
*** at Tue Dec 23 13:37:15 2025

   => Libint2 <=

    Primary   basis highest AM E, G, H:  6, 6, 3
    Auxiliary basis highest AM E, G, H:  7, 7, 4
    Onebody   basis highest AM E, G, H:  -, -, -
    Solid Harmonics ordering:            Gaussian
   => Loading Basis Set <=

    Name: CC-PVTZ
    Role: ORBITAL
    Keyword: BASIS
    atoms 1-2 entry C          line   186 file /home/jrodriguesro/psi4conda/share/psi4/basis/cc-pvtz.gbs 


         ---------------------------------------------------------
                                   SCF
               by Justin Turney, Rob Parrish, Andy Simmonett
                          and Daniel G. A. Smith
                              UKS Reference
                        5 Threads,   7629 MiB Core
         ---------------------------------------------------------

  ==> Geometry <==

    Molecular point group: d2h
    Full point group: D_inf_h

    Geometry (in Angstrom), charge = 0, multiplicity = 3:

       Center              X                  Y                   Z               Mass       
    ------------   -----------------  -----------------  -----------------  -----------------
         C            0.000000000000     0.000000000000    -0.783742000000    12.000000000000
         C            0.000000000000     0.000000000000     0.783742000000    12.000000000000

  Running in d2h symmetry.

  Rotational constants: A = ************  B =      1.14351  C =      1.14351 [cm^-1]
  Rotational constants: A = ************  B =  34281.49207  C =  34281.49207 [MHz]
  Nuclear repulsion =   12.153476261397250

  Charge       = 0
  Multiplicity = 3
  Electrons    = 12
  Nalpha       = 7
  Nbeta        = 5

  ==> Algorithm <==

  SCF Algorithm Type is DF.
  DIIS enabled.
  MOM disabled.
  Fractional occupation disabled.
  Guess Type is READ.
  Energy threshold   = 1.00e-08
  Density threshold  = 1.00e-08
  Integral threshold = 1.00e-12

  ==> Primary Basis <==

  Basis Set: CC-PVTZ
    Blend: CC-PVTZ
    Number of shells: 20
    Number of basis functions: 60
    Number of Cartesian functions: 70
    Spherical Harmonics?: true
    Max angular momentum: 3

  ==> DFT Potential <==

   => LibXC <=

    Version 7.0.0
    S. Lehtola, C. Steigemann, M. J.T. Oliveira, and M. A.L. Marques.,  SoftwareX 7, 1–5 (2018) (10.1016/j.softx.2017.11.002)

   => Composite Functional: B3LYP <= 

    B3LYP Hyb-GGA Exchange-Correlation Functional

    P. J. Stephens, F. J. Devlin, C. F. Chabalowski, and M. J. Frisch.,  J. Phys. Chem. 98, 11623 (1994) (10.1021/j100096a001)

    Deriv               =              1
    GGA                 =           TRUE
    Meta                =          FALSE

    Exchange Hybrid     =           TRUE
    MP2 Hybrid          =          FALSE

   => Exchange Functionals <=

    0.0800   Slater exchange
    0.7200         Becke 88

   => Exact (HF) Exchange <=

    0.2000               HF 

   => Correlation Functionals <=

    0.1900   Vosko, Wilk & Nusair (VWN5_RPA)
    0.8100   Lee, Yang & Parr

   => LibXC Density Thresholds  <==

    XC_HYB_GGA_XC_B3LYP:  1.00E-15 

   => Molecular Quadrature <=

    Radial Scheme          =       TREUTLER
    Pruning Scheme         =           NONE
    Nuclear Scheme         =       TREUTLER

    Blocking Scheme        =         OCTREE
    BS radius alpha        =              1
    Pruning alpha          =              1
    Radial Points          =             75
    Spherical Points       =            302
    Total Points           =          43020
    Total Blocks           =            392
    Max Points             =            253
    Max Functions          =             60
    Weights Tolerance      =       1.00E-15

   => Loading Basis Set <=

    Name: (CC-PVTZ AUX)
    Role: JKFIT
    Keyword: DF_BASIS_SCF
    atoms 1-2 entry C          line   125 file /home/jrodriguesro/psi4conda/share/psi4/basis/cc-pvtz-jkfit.gbs 

   => Loading Basis Set <=

    Name: CC-PVTZ
    Role: ORBITAL
    Keyword: BASIS
    atoms 1-2 entry C          line   186 file /home/jrodriguesro/psi4conda/share/psi4/basis/cc-pvtz.gbs 

  Reading orbitals from file /tmp/scan_CC_24.default.492436.180.npy, no projection.

  ==> Integral Setup <==

  DFHelper Memory: AOs need 0.005 GiB; user supplied 5.515 GiB. 
  SCF_SUBTYPE=INCORE selected. In-core MEM_DF algorithm will be used.
  Using in-core AOs.

  ==> MemDFJK: Density-Fitted J/K Matrices <==

    J tasked:                   Yes
    K tasked:                   Yes
    wK tasked:                   No
    OpenMP threads:               5
    Memory [MiB]:              5647
    Algorithm:                 Core
    Schwarz Cutoff:           1E-12
    Mask sparsity (%):       0.0000
    Fitting Condition:        1E-10

   => Auxiliary Basis Set <=

  Basis Set: (CC-PVTZ AUX)
    Blend: CC-PVTZ-JKFIT
    Number of shells: 50
    Number of basis functions: 158
    Number of Cartesian functions: 192
    Spherical Harmonics?: true
    Max angular momentum: 4

  Cached 100.0% of DFT collocation blocks in 0.073 [GiB].

  Minimum eigenvalue in the overlap matrix is 4.7850901689E-03.
  Reciprocal condition number of the overlap matrix is 1.3672013952E-03.
    Using symmetric orthogonalization.

  ==> Pre-Iterations <==

  SCF Guess: Orbitals guess was supplied from a previous computation.

   -------------------------------------------------------
    Irrep   Nso     Nmo     Nalpha   Nbeta   Ndocc  Nsocc
   -------------------------------------------------------
     Ag        13      13       3       3       3       0
     B1g        3       3       0       0       0       0
     B2g        7       7       0       0       0       0
     B3g        7       7       0       0       0       0
     Au         3       3       0       0       0       0
     B1u       13      13       2       2       2       0
     B2u        7       7       1       0       0       1
     B3u        7       7       1       0       0       1
   -------------------------------------------------------
    Total      60      60       7       5       5       2
   -------------------------------------------------------

  ==> Iterations <==

                           Total Energy        Delta E     RMS |[F,P]|

   @DF-UKS iter   0:   -75.90103489219159   -7.59010e+01   2.80824e-11 
   @DF-UKS iter   1:   -75.90103489219156    2.84217e-14   8.30481e-12 DIIS
  Energy and wave function converged.


  ==> Post-Iterations <==

   Electrons on quadrature grid:
      Nalpha   =    7.0000003335 ; deviation = 3.335e-07
      Nbeta    =    5.0000000738 ; deviation = 7.380e-08
      Ntotal   =   12.0000004073 ; deviation = 4.073e-07 

   @Spin Contamination Metric:   4.375561765E-03
   @S^2 Expected:                2.000000000E+00
   @S^2 Observed:                2.004375562E+00
   @S   Expected:                1.000000000E+00
   @S   Observed:                1.000000000E+00

    Orbital Energies [Eh]
    ---------------------

    Alpha Occupied:                                                       

       1Ag   -10.317965     1B1u  -10.317667     2Ag    -0.767261  
       2B1u   -0.469118     1B3u   -0.335574     1B2u   -0.335574  
       3Ag    -0.306076  

    Alpha Virtual:                                                        

       1B2g   -0.103860     1B3g   -0.103860     3B1u    0.137420  
       2B3u    0.267194     2B2u    0.267194     4Ag     0.293737  
       4B1u    0.317871     5Ag     0.321320     2B2g    0.344535  
       2B3g    0.344535     1B1g    0.533436     6Ag     0.533437  
       5B1u    0.610068     3B3u    0.639129     3B2u    0.639129  
       1Au     0.774850     6B1u    0.774850     3B2g    1.090514  
       3B3g    1.090514     7Ag     1.110882     7B1u    1.124039  
       4B3u    1.868072     4B2u    1.868072     8Ag     1.968824  
       4B2g    2.015065     4B3g    2.015065     2B1g    2.369519  
       9Ag     2.369519     5B3u    2.376540     5B2u    2.376540  
      10Ag     2.513441     8B1u    2.519220     6B3u    2.528610  
       6B2u    2.528610     5B2g    2.699123     5B3g    2.699123  
      11Ag     2.855447     3B1g    2.855448     9B1u    2.901186  
       2Au     2.901187    10B1u    2.950995     6B2g    3.063003  
       6B3g    3.063003     3Au     3.136421    11B1u    3.136421  
       7B3u    3.171556     7B2u    3.171556    12B1u    3.495972  
      12Ag     3.749669    13Ag     3.875798     7B3g    3.899500  
       7B2g    3.899500    13B1u    7.150386  

    Beta Occupied:                                                        

       1Ag   -10.304468     1B1u  -10.304272     2Ag    -0.697564  
       2B1u   -0.421982     3Ag    -0.289884  

    Beta Virtual:                                                         

       1B3u   -0.199423     1B2u   -0.199423     1B2g   -0.032898  
       1B3g   -0.032898     3B1u    0.159688     2B3u    0.297539  
       2B2u    0.297539     4Ag     0.303474     4B1u    0.334992  
       5Ag     0.346226     2B2g    0.369875     2B3g    0.369875  
       1B1g    0.583885     6Ag     0.583885     5B1u    0.630089  
       3B3u    0.672503     3B2u    0.672503     1Au     0.814289  
       6B1u    0.814290     3B2g    1.111146     3B3g    1.111146  
       7Ag     1.132785     7B1u    1.135305     4B3u    1.913886  
       4B2u    1.913886     8Ag     1.991633     4B2g    2.064237  
       4B3g    2.064237     2B1g    2.412130     9Ag     2.412131  
       5B3u    2.413296     5B2u    2.413296     8B1u    2.538702  
      10Ag     2.540874     6B3u    2.590283     6B2u    2.590283  
       5B2g    2.759974     5B3g    2.759974    11Ag     2.929783  
       3B1g    2.929783     9B1u    2.977715     2Au     2.977715  
      10B1u    2.978021     6B2g    3.096284     6B3g    3.096284  
       3Au     3.176452    11B1u    3.176453     7B3u    3.206668  
       7B2u    3.206668    12B1u    3.520344    12Ag     3.768467  
      13Ag     3.907197     7B3g    3.931604     7B2g    3.931604  
      13B1u    7.177898  

    Final Occupation by Irrep:
             Ag   B1g   B2g   B3g    Au   B1u   B2u   B3u 
    DOCC [     3,    0,    0,    0,    0,    2,    0,    0 ]
    SOCC [     0,    0,    0,    0,    0,    0,    1,    1 ]
    NA   [     3,    0,    0,    0,    0,    2,    1,    1 ]
    NB   [     3,    0,    0,    0,    0,    2,    0,    0 ]

  @DF-UKS Final Energy:   -75.90103489219156

   => Energetics <=

    Nuclear Repulsion Energy =             12.1534762613972500
    One-Electron Energy =                -125.1258842607418416
    Two-Electron Energy =                  45.5467662210509090
    DFT Exchange-Correlation Energy =      -8.4753931138978853
    Empirical Dispersion Energy =           0.0000000000000000
    VV10 Nonlocal Energy =                  0.0000000000000000
    Total Energy =                        -75.9010348921915607

  UHF NO Occupations:
  HONO-2 :    2B1u 1.9982425
  HONO-1 :    1B3u 1.0000000
  HONO-0 :    1B2u 1.0000000
  LUNO+0 :    3B1u 0.0017575
  LUNO+1 :    4 Ag 0.0003681
  LUNO+2 :    5 Ag 0.0000631
  LUNO+3 :    6 Ag 0.0000004


Computation Completed


Properties will be evaluated at   0.000000,   0.000000,   0.000000 [a0]

Properties computed using the B3LYP density matrix


 Multipole Moments:

 ------------------------------------------------------------------------------------
     Multipole            Electronic (a.u.)      Nuclear  (a.u.)        Total (a.u.)
 ------------------------------------------------------------------------------------

 L = 1.  Multiply by 2.5417464519 to convert [e a0] to [Debye]
 Dipole X            :          0.0000000            0.0000000            0.0000000
 Dipole Y            :          0.0000000            0.0000000            0.0000000
 Dipole Z            :          0.0000000            0.0000000            0.0000000
 Magnitude           :                                                    0.0000000

 L = 2.  Multiply by 1.3450342976 to convert [e a0^2] to [Debye ang]
 Quadrupole XX       :         -8.4243157            0.0000000           -8.4243157
 Quadrupole XY       :          0.0000000            0.0000000            0.0000000
 Quadrupole XZ       :          0.0000000            0.0000000            0.0000000
 Quadrupole YY       :         -8.4243157            0.0000000           -8.4243157
 Quadrupole YZ       :          0.0000000            0.0000000            0.0000000
 Quadrupole ZZ       :        -38.1817295           26.3223841          -11.8593454
 Traceless XX        :          9.9191379           -8.7741280            1.1450099
 Traceless YY        :          9.9191379           -8.7741280            1.1450099
 Traceless ZZ        :        -19.8382759           17.5482561           -2.2900198

 ------------------------------------------------------------------------------------
  ==> Computing MBIS Charges <==

  Electron Count from Grid (Expected Number): 12.00000 (12.00000)
  Difference:  0.00000

  MBIS Charges: (a.u.)
   Center  Symbol  Z      Pop.       Charge
      1       C    6    6.000000   -0.000000
      2       C    6    6.000000   -0.000000

  MBIS Dipoles: [e a0]
   Center  Symbol  Z        X           Y           Z
      1       C    6   -0.000000    0.000000    0.250623
      2       C    6   -0.000000    0.000000   -0.250623

  MBIS Quadrupoles: [e a0^2]
   Center  Symbol  Z      XX        XY        XZ        YY        YZ        ZZ
      1       C    6   -4.2122    0.0000   -0.0000   -4.2122   -0.0000   -5.1873
      2       C    6   -4.2122    0.0000    0.0000   -4.2122    0.0000   -5.1873

  MBIS Octupoles: [e a0^3]
   Center  Symbol  Z      XXX       XXY       XXZ       XYY       XYZ       XZZ       YYY       YYZ       YZZ       ZZZ
      1       C    6   -0.0000   -0.0000    0.3416   -0.0000    0.0000   -0.0000    0.0000    0.3416    0.0000    0.8292
      2       C    6   -0.0000   -0.0000   -0.3416   -0.0000   -0.0000   -0.0000    0.0000   -0.3416    0.0000   -0.8292

  MBIS Radial Moments:
   Center  Symbol  Z      [a0^2]      [a0^3]      [a0^4]      
      1       C    6   13.611613   33.276197   97.063535
      2       C    6   13.611613   33.276197   97.063535

  MBIS Valence Widths: [a0]
   Center  Symbol  Z     Width
      1       C    6    0.516922
      2       C    6    0.516922


  MBIS Valence Charges: (a.u.)
   Center  Symbol  Z     Charge
      1       C    6   -4.331984
      2       C    6   -4.331984

*** tstop() called on cics-quant-001 at Tue Dec 23 13:37:15 2025
Module time:
	user time   =       0.55 seconds =       0.01 minutes
	system time =       0.04 seconds =       0.00 minutes
	total time  =          0 seconds =       0.00 minutes
Total time:
	user time   =       1.68 seconds =       0.03 minutes
	system time =       0.09 seconds =       0.00 minutes
	total time  =          0 seconds =       0.00 minutes

    Psi4 stopped on: Tuesday, 23 December 2025 01:37PM
    Psi4 wall time for execution: 0:00:00.72

*** Psi4 exiting successfully. Buy a developer a beer!
