
    -----------------------------------------------------------------------
          Psi4: An Open-Source Ab Initio Electronic Structure Package
                               Psi4 1.9.1 release

                         Git: Rev {} zzzzzzz 


    D. G. A. Smith, L. A. Burns, A. C. Simmonett, R. M. Parrish,
    M. C. Schieber, R. Galvelis, P. Kraus, H. Kruse, R. Di Remigio,
    A. Alenaizan, A. M. James, S. Lehtola, J. P. Misiewicz, M. Scheurer,
    R. A. Shaw, J. B. Schriber, Y. Xie, Z. L. Glick, D. A. Sirianni,
    J. S. O'Brien, J. M. Waldrop, A. Kumar, E. G. Hohenstein,
    B. P. Pritchard, B. R. Brooks, H. F. Schaefer III, A. Yu. Sokolov,
    K. Patkowski, A. E. DePrince III, U. Bozkaya, R. A. King,
    F. A. Evangelista, J. M. Turney, T. D. Crawford, C. D. Sherrill,
    J. Chem. Phys. 152(18) 184108 (2020). https://doi.org/10.1063/5.0006002

                            Additional Code Authors
    E. T. Seidl, C. L. Janssen, E. F. Valeev, M. L. Leininger,
    J. F. Gonthier, R. M. Richard, H. R. McAlexander, M. Saitow, X. Wang,
    P. Verma, M. H. Lechner, A. Jiang, S. Behnle, A. G. Heide,
    M. F. Herbst, and D. L. Poole

             Previous Authors, Complete List of Code Contributors,
                       and Citations for Specific Modules
    https://github.com/psi4/psi4/blob/master/codemeta.json
    https://github.com/psi4/psi4/graphs/contributors
    http://psicode.org/psi4manual/master/introduction.html#citing-psifour

    -----------------------------------------------------------------------


    Psi4 started on: Tuesday, 26 August 2025 10:08PM

    Process ID: 60825
    Host:       Mac.lan
    PSIDATADIR: /Users/joseantoniorodriguesromero/anaconda3/share/psi4
    Memory:     500.0 MiB
    Threads:    1
    
  ==> Input File <==

--------------------------------------------------------------------------
molecule { 
0 2
C           0.000000           0.000000           0.000000
H           0.000000           0.000000           0.596249
}

set { 
basis              cc-pvtz
reference          uks
maxiter            500
DAMPING_PERCENTAGE 1
E_CONVERGENCE      1.0E-8
D_CONVERGENCE      1.0E-8
DIIS_MAX_VECS      400
MBIS_MAXITER       8000
guess              read
}

E, wfn = energy('b3lyp', restart_file='last_wfn', return_wfn=True)
properties('b3lyp','MBIS_CHARGES', wfn=wfn)
wfn.to_file('last_wfn')
--------------------------------------------------------------------------

Scratch directory: /tmp/
 Found user provided orbital data. Setting orbital guess to READ 
 Copying restart file <last_wfn.npy> to </tmp/scan_HC_2.default.60825.180.npy> for internal processing
   => Libint2 <=

    Primary   basis highest AM E, G, H:  6, 6, 3
    Auxiliary basis highest AM E, G, H:  7, 7, 4
    Onebody   basis highest AM E, G, H:  -, -, -
    Solid Harmonics ordering:            Gaussian

*** tstart() called on Mac.lan
*** at Tue Aug 26 22:08:30 2025

   => Loading Basis Set <=

    Name: CC-PVTZ
    Role: ORBITAL
    Keyword: BASIS
    atoms 1 entry C          line   186 file /Users/joseantoniorodriguesromero/anaconda3/share/psi4/basis/cc-pvtz.gbs 
    atoms 2 entry H          line    23 file /Users/joseantoniorodriguesromero/anaconda3/share/psi4/basis/cc-pvtz.gbs 


         ---------------------------------------------------------
                                   SCF
               by Justin Turney, Rob Parrish, Andy Simmonett
                          and Daniel G. A. Smith
                              UKS Reference
                        1 Threads,    500 MiB Core
         ---------------------------------------------------------

  ==> Geometry <==

    Molecular point group: c2v
    Full point group: C_inf_v

    Geometry (in Angstrom), charge = 0, multiplicity = 2:

       Center              X                  Y                   Z               Mass       
    ------------   -----------------  -----------------  -----------------  -----------------
         C            0.000000000000     0.000000000000    -0.046196398410    12.000000000000
         H            0.000000000000     0.000000000000     0.550052601590     1.007825032230

  Running in c2v symmetry.

  Rotational constants: A = ************  B =     51.00109  C =     51.00109 [cm^-1]
  Rotational constants: A = ************  B = 1528974.25030  C = 1528974.25030 [MHz]
  Nuclear repulsion =    5.325062623199368

  Charge       = 0
  Multiplicity = 2
  Electrons    = 7
  Nalpha       = 4
  Nbeta        = 3

  ==> Algorithm <==

  SCF Algorithm Type is DF.
  DIIS enabled.
  MOM disabled.
  Fractional occupation disabled.
  Guess Type is READ.
  Energy threshold   = 1.00e-08
  Density threshold  = 1.00e-08
  Integral threshold = 1.00e-12

  ==> Primary Basis <==

  Basis Set: CC-PVTZ
    Blend: CC-PVTZ
    Number of shells: 16
    Number of basis functions: 44
    Number of Cartesian functions: 50
    Spherical Harmonics?: true
    Max angular momentum: 3

  ==> DFT Potential <==

   => LibXC <=

    Version 6.2.2
    S. Lehtola, C. Steigemann, M. J.T. Oliveira, and M. A.L. Marques.,  SoftwareX 7, 1–5 (2018) (10.1016/j.softx.2017.11.002)

   => Composite Functional: B3LYP <= 

    B3LYP Hyb-GGA Exchange-Correlation Functional

    P. J. Stephens, F. J. Devlin, C. F. Chabalowski, and M. J. Frisch.,  J. Phys. Chem. 98, 11623 (1994) (10.1021/j100096a001)

    Deriv               =              1
    GGA                 =           TRUE
    Meta                =          FALSE

    Exchange Hybrid     =           TRUE
    MP2 Hybrid          =          FALSE

   => Exchange Functionals <=

    0.0800   Slater exchange
    0.7200         Becke 88

   => Exact (HF) Exchange <=

    0.2000               HF 

   => Correlation Functionals <=

    0.1900   Vosko, Wilk & Nusair (VWN5_RPA)
    0.8100   Lee, Yang & Parr

   => LibXC Density Thresholds  <==

    XC_HYB_GGA_XC_B3LYP:  1.00E-15 

   => Molecular Quadrature <=

    Radial Scheme          =       TREUTLER
    Pruning Scheme         =           NONE
    Nuclear Scheme         =       TREUTLER

    Blocking Scheme        =         OCTREE
    BS radius alpha        =              1
    Pruning alpha          =              1
    Radial Points          =             75
    Spherical Points       =            302
    Total Points           =          43723
    Total Blocks           =            385
    Max Points             =            255
    Max Functions          =             44
    Weights Tolerance      =       1.00E-15

   => Loading Basis Set <=

    Name: (CC-PVTZ AUX)
    Role: JKFIT
    Keyword: DF_BASIS_SCF
    atoms 1 entry C          line   125 file /Users/joseantoniorodriguesromero/anaconda3/share/psi4/basis/cc-pvtz-jkfit.gbs 
    atoms 2 entry H          line    51 file /Users/joseantoniorodriguesromero/anaconda3/share/psi4/basis/cc-pvtz-jkfit.gbs 

   => Loading Basis Set <=

    Name: CC-PVTZ
    Role: ORBITAL
    Keyword: BASIS
    atoms 1 entry C          line   186 file /Users/joseantoniorodriguesromero/anaconda3/share/psi4/basis/cc-pvtz.gbs 
    atoms 2 entry H          line    23 file /Users/joseantoniorodriguesromero/anaconda3/share/psi4/basis/cc-pvtz.gbs 

  Reading orbitals from file /tmp/scan_HC_2.default.60825.180.npy, no projection.

  ==> Integral Setup <==

  DFHelper Memory: AOs need 0.002 GiB; user supplied 0.311 GiB. 
  Using in-core AOs.

  ==> MemDFJK: Density-Fitted J/K Matrices <==

    J tasked:                   Yes
    K tasked:                   Yes
    wK tasked:                   No
    OpenMP threads:               1
    Memory [MiB]:               318
    Algorithm:                 Core
    Schwarz Cutoff:           1E-12
    Mask sparsity (%):       0.0000
    Fitting Condition:        1E-10

   => Auxiliary Basis Set <=

  Basis Set: (CC-PVTZ AUX)
    Blend: CC-PVTZ-JKFIT
    Number of shells: 35
    Number of basis functions: 109
    Number of Cartesian functions: 131
    Spherical Harmonics?: true
    Max angular momentum: 4

  Cached 100.0% of DFT collocation blocks in 0.056 [GiB].

  Minimum eigenvalue in the overlap matrix is 9.4306593089E-04.
  Reciprocal condition number of the overlap matrix is 2.1342505501E-04.
    Using symmetric orthogonalization.

  ==> Pre-Iterations <==

  SCF Guess: Orbitals guess was supplied from a previous computation.

   -------------------------------------------------------
    Irrep   Nso     Nmo     Nalpha   Nbeta   Ndocc  Nsocc
   -------------------------------------------------------
     A1        20      20       3       3       3       0
     A2         4       4       0       0       0       0
     B1        10      10       0       0       0       0
     B2        10      10       1       0       0       1
   -------------------------------------------------------
    Total      44      44       4       3       3       1
   -------------------------------------------------------

  ==> Iterations <==

                           Total Energy        Delta E     RMS |[F,P]|

   @DF-UKS iter   0:   -38.00514114130640   -3.80051e+01   5.67511e-03 
   @DF-UKS iter   1:   -38.00415369698446    9.87444e-04   4.86544e-04 ADIIS/DIIS
   @DF-UKS iter   2:   -38.00418748046088   -3.37835e-05   2.76414e-04 ADIIS/DIIS/DAMP=1%
   @DF-UKS iter   3:   -38.00408233347765    1.05147e-04   1.32964e-05 DIIS/DAMP=1%
   @DF-UKS iter   4:   -38.00421617189120   -1.33838e-04   1.64603e-06 DIIS/DAMP=1%
   @DF-UKS iter   5:   -38.00420929353864    6.87835e-06   1.57517e-07 DIIS/DAMP=1%
   @DF-UKS iter   6:   -38.00420995016245   -6.56624e-07   1.95413e-08 DIIS/DAMP=1%
   @DF-UKS iter   7:   -38.00420997657932   -2.64169e-08   2.80488e-09 DIIS/DAMP=1%
   @DF-UKS iter   8:   -38.00420996732724    9.25208e-09   1.28424e-10 DIIS/DAMP=1%
  Energy and wave function converged.


  ==> Post-Iterations <==

   Electrons on quadrature grid:
      Nalpha   =    4.0000000082 ; deviation = 8.209e-09
      Nbeta    =    3.0000000082 ; deviation = 8.197e-09
      Ntotal   =    7.0000000164 ; deviation = 1.641e-08 

   @Spin Contamination Metric:   2.481326596E-03
   @S^2 Expected:                7.500000000E-01
   @S^2 Observed:                7.524813266E-01
   @S   Expected:                5.000000000E-01
   @S   Observed:                5.000000000E-01

    Orbital Energies [Eh]
    ---------------------

    Alpha Occupied:                                                       

       1A1   -10.251442     2A1    -0.810095     3A1    -0.330093  
       1B2    -0.267271  

    Alpha Virtual:                                                        

       1B1    -0.154458     4A1     0.072802     5A1     0.272109  
       2B2     0.286349     2B1     0.304610     6A1     0.434992  
       3B2     0.645715     3B1     0.650785     1A2     0.654246  
       7A1     0.659276     8A1     0.695886     9A1     1.038480  
       4B2     1.132378     4B1     1.132971    10A1     1.805723  
       5B2     1.861640     5B1     1.884039    11A1     2.128443  
      12A1     2.460135     2A2     2.621974    13A1     2.626137  
       6B2     2.642819     6B1     2.644941     7B2     2.739017  
       7B1     2.746870     3A2     2.841241    14A1     2.851348  
       8B2     3.106465     8B1     3.107403    15A1     3.117679  
      16A1     4.111630     4A2     4.294854    17A1     4.298971  
       9B2     4.310481     9B1     4.310866    18A1     5.680409  
      10B2     6.183562    10B1     6.186765    19A1     7.894442  
      20A1    16.939063  

    Beta Occupied:                                                        

       1A1   -10.236558     2A1    -0.771262     3A1    -0.302345  

    Beta Virtual:                                                         

       1B1    -0.137830     1B2    -0.091098     4A1     0.075678  
       5A1     0.278250     2B1     0.311661     2B2     0.338823  
       6A1     0.450624     3B1     0.653952     3B2     0.682905  
       7A1     0.693633     1A2     0.697467     8A1     0.713663  
       9A1     1.045720     4B1     1.133384     4B2     1.150900  
      10A1     1.827839     5B1     1.896020     5B2     1.939361  
      11A1     2.141006    12A1     2.496515     2A2     2.659197  
      13A1     2.659518     6B1     2.699972     6B2     2.700434  
       7B1     2.751168     7B2     2.790480    14A1     2.908442  
       3A2     2.908799     8B1     3.112030    15A1     3.135735  
       8B2     3.145645    16A1     4.124275     9B1     4.313162  
       4A2     4.324370    17A1     4.325719     9B2     4.341022  
      18A1     5.697468    10B1     6.189509    10B2     6.222068  
      19A1     7.899621    20A1    16.955290  

    Final Occupation by Irrep:
             A1    A2    B1    B2 
    DOCC [     3,    0,    0,    0 ]
    SOCC [     0,    0,    0,    1 ]
    NA   [     3,    0,    0,    1 ]
    NB   [     3,    0,    0,    0 ]

  @DF-UKS Final Energy:   -38.00420996732724

   => Energetics <=

    Nuclear Repulsion Energy =              5.3250626231993676
    One-Electron Energy =                 -60.2458775034766632
    Two-Electron Energy =                  21.6898398264227659
    DFT Exchange-Correlation Energy =      -4.7732349134727086
    Empirical Dispersion Energy =           0.0000000000000000
    VV10 Nonlocal Energy =                  0.0000000000000000
    Total Energy =                        -38.0042099673272418

  UHF NO Occupations:
  HONO-2 :    2 A1 1.9999174
  HONO-1 :    3 A1 1.9988420
  HONO-0 :    1 B2 1.0000000
  LUNO+0 :    4 A1 0.0011580
  LUNO+1 :    5 A1 0.0000826
  LUNO+2 :    6 A1 0.0000007
  LUNO+3 :    7 A1 0.0000000


Computation Completed


Properties will be evaluated at   0.000000,   0.000000,   0.000000 [a0]

Properties computed using the SCF density matrix


 Multipole Moments:

 ------------------------------------------------------------------------------------
     Multipole            Electronic (a.u.)      Nuclear  (a.u.)        Total (a.u.)
 ------------------------------------------------------------------------------------

 L = 1.  Multiply by 2.5417464519 to convert [e a0] to [Debye]
 Dipole X            :          0.0000000            0.0000000            0.0000000
 Dipole Y            :          0.0000000            0.0000000            0.0000000
 Dipole Z            :          0.2780820            0.5156575            0.7937395
 Magnitude           :                                                    0.7937395

 ------------------------------------------------------------------------------------

*** tstop() called on Mac.lan at Tue Aug 26 22:08:32 2025
Module time:
	user time   =       9.77 seconds =       0.16 minutes
	system time =       1.64 seconds =       0.03 minutes
	total time  =          2 seconds =       0.03 minutes
Total time:
	user time   =       9.77 seconds =       0.16 minutes
	system time =       1.64 seconds =       0.03 minutes
	total time  =          2 seconds =       0.03 minutes

*** tstart() called on Mac.lan
*** at Tue Aug 26 22:08:32 2025

   => Libint2 <=

    Primary   basis highest AM E, G, H:  6, 6, 3
    Auxiliary basis highest AM E, G, H:  7, 7, 4
    Onebody   basis highest AM E, G, H:  -, -, -
    Solid Harmonics ordering:            Gaussian
   => Loading Basis Set <=

    Name: CC-PVTZ
    Role: ORBITAL
    Keyword: BASIS
    atoms 1 entry C          line   186 file /Users/joseantoniorodriguesromero/anaconda3/share/psi4/basis/cc-pvtz.gbs 
    atoms 2 entry H          line    23 file /Users/joseantoniorodriguesromero/anaconda3/share/psi4/basis/cc-pvtz.gbs 


         ---------------------------------------------------------
                                   SCF
               by Justin Turney, Rob Parrish, Andy Simmonett
                          and Daniel G. A. Smith
                              UKS Reference
                        1 Threads,    500 MiB Core
         ---------------------------------------------------------

  ==> Geometry <==

    Molecular point group: c2v
    Full point group: C_inf_v

    Geometry (in Angstrom), charge = 0, multiplicity = 2:

       Center              X                  Y                   Z               Mass       
    ------------   -----------------  -----------------  -----------------  -----------------
         C            0.000000000000     0.000000000000    -0.046196398410    12.000000000000
         H            0.000000000000     0.000000000000     0.550052601590     1.007825032230

  Running in c2v symmetry.

  Rotational constants: A = ************  B =     51.00109  C =     51.00109 [cm^-1]
  Rotational constants: A = ************  B = 1528974.25030  C = 1528974.25030 [MHz]
  Nuclear repulsion =    5.325062623199368

  Charge       = 0
  Multiplicity = 2
  Electrons    = 7
  Nalpha       = 4
  Nbeta        = 3

  ==> Algorithm <==

  SCF Algorithm Type is DF.
  DIIS enabled.
  MOM disabled.
  Fractional occupation disabled.
  Guess Type is READ.
  Energy threshold   = 1.00e-08
  Density threshold  = 1.00e-08
  Integral threshold = 1.00e-12

  ==> Primary Basis <==

  Basis Set: CC-PVTZ
    Blend: CC-PVTZ
    Number of shells: 16
    Number of basis functions: 44
    Number of Cartesian functions: 50
    Spherical Harmonics?: true
    Max angular momentum: 3

  ==> DFT Potential <==

   => LibXC <=

    Version 6.2.2
    S. Lehtola, C. Steigemann, M. J.T. Oliveira, and M. A.L. Marques.,  SoftwareX 7, 1–5 (2018) (10.1016/j.softx.2017.11.002)

   => Composite Functional: B3LYP <= 

    B3LYP Hyb-GGA Exchange-Correlation Functional

    P. J. Stephens, F. J. Devlin, C. F. Chabalowski, and M. J. Frisch.,  J. Phys. Chem. 98, 11623 (1994) (10.1021/j100096a001)

    Deriv               =              1
    GGA                 =           TRUE
    Meta                =          FALSE

    Exchange Hybrid     =           TRUE
    MP2 Hybrid          =          FALSE

   => Exchange Functionals <=

    0.0800   Slater exchange
    0.7200         Becke 88

   => Exact (HF) Exchange <=

    0.2000               HF 

   => Correlation Functionals <=

    0.1900   Vosko, Wilk & Nusair (VWN5_RPA)
    0.8100   Lee, Yang & Parr

   => LibXC Density Thresholds  <==

    XC_HYB_GGA_XC_B3LYP:  1.00E-15 

   => Molecular Quadrature <=

    Radial Scheme          =       TREUTLER
    Pruning Scheme         =           NONE
    Nuclear Scheme         =       TREUTLER

    Blocking Scheme        =         OCTREE
    BS radius alpha        =              1
    Pruning alpha          =              1
    Radial Points          =             75
    Spherical Points       =            302
    Total Points           =          43723
    Total Blocks           =            385
    Max Points             =            255
    Max Functions          =             44
    Weights Tolerance      =       1.00E-15

   => Loading Basis Set <=

    Name: (CC-PVTZ AUX)
    Role: JKFIT
    Keyword: DF_BASIS_SCF
    atoms 1 entry C          line   125 file /Users/joseantoniorodriguesromero/anaconda3/share/psi4/basis/cc-pvtz-jkfit.gbs 
    atoms 2 entry H          line    51 file /Users/joseantoniorodriguesromero/anaconda3/share/psi4/basis/cc-pvtz-jkfit.gbs 

   => Loading Basis Set <=

    Name: CC-PVTZ
    Role: ORBITAL
    Keyword: BASIS
    atoms 1 entry C          line   186 file /Users/joseantoniorodriguesromero/anaconda3/share/psi4/basis/cc-pvtz.gbs 
    atoms 2 entry H          line    23 file /Users/joseantoniorodriguesromero/anaconda3/share/psi4/basis/cc-pvtz.gbs 

  Reading orbitals from file /tmp/scan_HC_2.default.60825.180.npy, no projection.

  ==> Integral Setup <==

  DFHelper Memory: AOs need 0.002 GiB; user supplied 0.311 GiB. 
  Using in-core AOs.

  ==> MemDFJK: Density-Fitted J/K Matrices <==

    J tasked:                   Yes
    K tasked:                   Yes
    wK tasked:                   No
    OpenMP threads:               1
    Memory [MiB]:               318
    Algorithm:                 Core
    Schwarz Cutoff:           1E-12
    Mask sparsity (%):       0.0000
    Fitting Condition:        1E-10

   => Auxiliary Basis Set <=

  Basis Set: (CC-PVTZ AUX)
    Blend: CC-PVTZ-JKFIT
    Number of shells: 35
    Number of basis functions: 109
    Number of Cartesian functions: 131
    Spherical Harmonics?: true
    Max angular momentum: 4

  Cached 100.0% of DFT collocation blocks in 0.056 [GiB].

  Minimum eigenvalue in the overlap matrix is 9.4306593089E-04.
  Reciprocal condition number of the overlap matrix is 2.1342505501E-04.
    Using symmetric orthogonalization.

  ==> Pre-Iterations <==

  SCF Guess: Orbitals guess was supplied from a previous computation.

   -------------------------------------------------------
    Irrep   Nso     Nmo     Nalpha   Nbeta   Ndocc  Nsocc
   -------------------------------------------------------
     A1        20      20       3       3       3       0
     A2         4       4       0       0       0       0
     B1        10      10       0       0       0       0
     B2        10      10       1       0       0       1
   -------------------------------------------------------
    Total      44      44       4       3       3       1
   -------------------------------------------------------

  ==> Iterations <==

                           Total Energy        Delta E     RMS |[F,P]|

   @DF-UKS iter   0:   -38.00420996832987   -3.80042e+01   1.30067e-11 
   @DF-UKS iter   1:   -38.00420996832987   -7.10543e-15   4.20678e-12 DIIS
  Energy and wave function converged.


  ==> Post-Iterations <==

   Electrons on quadrature grid:
      Nalpha   =    4.0000000082 ; deviation = 8.209e-09
      Nbeta    =    3.0000000082 ; deviation = 8.197e-09
      Ntotal   =    7.0000000164 ; deviation = 1.641e-08 

   @Spin Contamination Metric:   2.481326564E-03
   @S^2 Expected:                7.500000000E-01
   @S^2 Observed:                7.524813266E-01
   @S   Expected:                5.000000000E-01
   @S   Observed:                5.000000000E-01

    Orbital Energies [Eh]
    ---------------------

    Alpha Occupied:                                                       

       1A1   -10.251442     2A1    -0.810095     3A1    -0.330093  
       1B2    -0.267271  

    Alpha Virtual:                                                        

       1B1    -0.154458     4A1     0.072802     5A1     0.272109  
       2B2     0.286349     2B1     0.304610     6A1     0.434992  
       3B2     0.645715     3B1     0.650785     1A2     0.654246  
       7A1     0.659276     8A1     0.695886     9A1     1.038480  
       4B2     1.132378     4B1     1.132971    10A1     1.805723  
       5B2     1.861640     5B1     1.884039    11A1     2.128443  
      12A1     2.460135     2A2     2.621974    13A1     2.626137  
       6B2     2.642819     6B1     2.644941     7B2     2.739017  
       7B1     2.746870     3A2     2.841241    14A1     2.851348  
       8B2     3.106465     8B1     3.107403    15A1     3.117679  
      16A1     4.111630     4A2     4.294854    17A1     4.298971  
       9B2     4.310481     9B1     4.310866    18A1     5.680409  
      10B2     6.183562    10B1     6.186765    19A1     7.894442  
      20A1    16.939063  

    Beta Occupied:                                                        

       1A1   -10.236558     2A1    -0.771262     3A1    -0.302345  

    Beta Virtual:                                                         

       1B1    -0.137830     1B2    -0.091098     4A1     0.075678  
       5A1     0.278250     2B1     0.311661     2B2     0.338823  
       6A1     0.450624     3B1     0.653952     3B2     0.682905  
       7A1     0.693633     1A2     0.697467     8A1     0.713663  
       9A1     1.045720     4B1     1.133384     4B2     1.150900  
      10A1     1.827839     5B1     1.896020     5B2     1.939361  
      11A1     2.141006    12A1     2.496515     2A2     2.659197  
      13A1     2.659518     6B1     2.699972     6B2     2.700434  
       7B1     2.751168     7B2     2.790480    14A1     2.908442  
       3A2     2.908799     8B1     3.112030    15A1     3.135735  
       8B2     3.145645    16A1     4.124275     9B1     4.313162  
       4A2     4.324370    17A1     4.325719     9B2     4.341022  
      18A1     5.697468    10B1     6.189509    10B2     6.222068  
      19A1     7.899621    20A1    16.955290  

    Final Occupation by Irrep:
             A1    A2    B1    B2 
    DOCC [     3,    0,    0,    0 ]
    SOCC [     0,    0,    0,    1 ]
    NA   [     3,    0,    0,    1 ]
    NB   [     3,    0,    0,    0 ]

  @DF-UKS Final Energy:   -38.00420996832987

   => Energetics <=

    Nuclear Repulsion Energy =              5.3250626231993676
    One-Electron Energy =                 -60.2458775066112011
    Two-Electron Energy =                  21.6898398290402490
    DFT Exchange-Correlation Energy =      -4.7732349139582899
    Empirical Dispersion Energy =           0.0000000000000000
    VV10 Nonlocal Energy =                  0.0000000000000000
    Total Energy =                        -38.0042099683298744

  UHF NO Occupations:
  HONO-2 :    2 A1 1.9999174
  HONO-1 :    3 A1 1.9988420
  HONO-0 :    1 B2 1.0000000
  LUNO+0 :    4 A1 0.0011580
  LUNO+1 :    5 A1 0.0000826
  LUNO+2 :    6 A1 0.0000007
  LUNO+3 :    7 A1 0.0000000


Computation Completed


Properties will be evaluated at   0.000000,   0.000000,   0.000000 [a0]

Properties computed using the B3LYP density matrix


 Multipole Moments:

 ------------------------------------------------------------------------------------
     Multipole            Electronic (a.u.)      Nuclear  (a.u.)        Total (a.u.)
 ------------------------------------------------------------------------------------

 L = 1.  Multiply by 2.5417464519 to convert [e a0] to [Debye]
 Dipole X            :          0.0000000            0.0000000            0.0000000
 Dipole Y            :          0.0000000            0.0000000            0.0000000
 Dipole Z            :          0.2780820            0.5156575            0.7937395
 Magnitude           :                                                    0.7937395

 L = 2.  Multiply by 1.3450342976 to convert [e a0^2] to [Debye ang]
 Quadrupole XX       :         -3.8352261            0.0000000           -3.8352261
 Quadrupole XY       :          0.0000000            0.0000000            0.0000000
 Quadrupole XZ       :          0.0000000            0.0000000            0.0000000
 Quadrupole YY       :         -5.2851556            0.0000000           -5.2851556
 Quadrupole YZ       :          0.0000000            0.0000000            0.0000000
 Quadrupole ZZ       :         -6.4332749            1.1261800           -5.3070949
 Traceless XX        :          1.3493261           -0.3753933            0.9739328
 Traceless YY        :         -0.1006034           -0.3753933           -0.4759967
 Traceless ZZ        :         -1.2487227            0.7507866           -0.4979361

 ------------------------------------------------------------------------------------
  ==> Computing MBIS Charges <==

  Electron Count from Grid (Expected Number):  7.00000 ( 7.00000)
  Difference: -0.00000

  MBIS Charges: (a.u.)
   Center  Symbol  Z      Pop.       Charge
      1       C    6    6.116943   -0.116943
      2       H    1    0.883057    0.116943

  MBIS Dipoles: [e a0]
   Center  Symbol  Z        X           Y           Z
      1       C    6   -0.000000   -0.000000    0.650017
      2       H    1    0.000000   -0.000000    0.011957

  MBIS Quadrupoles: [e a0^2]
   Center  Symbol  Z      XX        XY        XZ        YY        YZ        ZZ
      1       C    6   -3.6273   -0.0000    0.0000   -5.0393    0.0000   -5.1194
      2       H    1   -0.2079   -0.0000   -0.0000   -0.2458   -0.0000   -0.2245

  MBIS Octupoles: [e a0^3]
   Center  Symbol  Z      XXX       XXY       XXZ       XYY       XYZ       XZZ       YYY       YYZ       YZZ       ZZZ
      1       C    6   -0.0000    0.0000    1.1834   -0.0000   -0.0000   -0.0000    0.0000    1.0565   -0.0000    2.9906
      2       H    1    0.0000    0.0000   -0.0017    0.0000    0.0000   -0.0000   -0.0000    0.0062   -0.0000    0.0061

  MBIS Radial Moments:
   Center  Symbol  Z      [a0^2]      [a0^3]      [a0^4]      
      1       C    6   13.786003   33.792575   98.548003
      2       H    1    0.678300    0.836170    1.236242

  MBIS Valence Widths: [a0]
   Center  Symbol  Z     Width
      1       C    6    0.511922
      2       H    1    0.256828

*** tstop() called on Mac.lan at Tue Aug 26 22:08:33 2025
Module time:
	user time   =       8.90 seconds =       0.15 minutes
	system time =       2.36 seconds =       0.04 minutes
	total time  =          1 seconds =       0.02 minutes
Total time:
	user time   =      18.76 seconds =       0.31 minutes
	system time =       4.11 seconds =       0.07 minutes
	total time  =          3 seconds =       0.05 minutes

    Psi4 stopped on: Tuesday, 26 August 2025 10:08PM
    Psi4 wall time for execution: 0:00:02.33

*** Psi4 exiting successfully. Buy a developer a beer!
