
    -----------------------------------------------------------------------
          Psi4: An Open-Source Ab Initio Electronic Structure Package
                               Psi4 1.10 release

                         Git: Rev {} zzzzzzz 


    D. G. A. Smith, L. A. Burns, A. C. Simmonett, R. M. Parrish,
    M. C. Schieber, R. Galvelis, P. Kraus, H. Kruse, R. Di Remigio,
    A. Alenaizan, A. M. James, S. Lehtola, J. P. Misiewicz, M. Scheurer,
    R. A. Shaw, J. B. Schriber, Y. Xie, Z. L. Glick, D. A. Sirianni,
    J. S. O'Brien, J. M. Waldrop, A. Kumar, E. G. Hohenstein,
    B. P. Pritchard, B. R. Brooks, H. F. Schaefer III, A. Yu. Sokolov,
    K. Patkowski, A. E. DePrince III, U. Bozkaya, R. A. King,
    F. A. Evangelista, J. M. Turney, T. D. Crawford, C. D. Sherrill,
    J. Chem. Phys. 152(18) 184108 (2020). https://doi.org/10.1063/5.0006002

                            Additional Code Authors
    E. T. Seidl, C. L. Janssen, E. F. Valeev, M. L. Leininger,
    J. F. Gonthier, R. M. Richard, H. R. McAlexander, M. Saitow, X. Wang,
    P. Verma, M. H. Lechner, A. Jiang, S. Behnle, A. G. Heide,
    M. F. Herbst, D. L. Poole, T. Győri, E. C. Mitchell, J. P. Pederson,
    and A. M. Wallace

             Previous Authors, Complete List of Code Contributors,
                       and Citations for Specific Modules
    https://github.com/psi4/psi4/blob/master/codemeta.json
    https://github.com/psi4/psi4/graphs/contributors
    https://psicode.org/psi4manual/master/introduction.html#citing-psifour

    -----------------------------------------------------------------------


    Psi4 started on: Tuesday, 23 December 2025 01:40PM

    Process ID: 516777
    Host:       cics-quant-001
    PSIDATADIR: /home/jrodriguesro/psi4conda/share/psi4
    Memory:     500.0 MiB
    Threads:    5
    Addons:     adcc, a̶m̶b̶i̶t̶, b̶s̶e̶, c̶c̶t̶3̶, c̶f̶o̶u̶r̶, c̶h̶e̶m̶p̶s̶2̶, c̶p̶p̶e̶, ddx, dftd3, dftd4,
                dkh, ecpint, einsums, f̶o̶r̶t̶e̶, g̶a̶u̶x̶c̶, gcp, g̶d̶m̶a̶, geometric,
                g̶p̶u̶_̶d̶f̶c̶c̶, i̶n̶t̶e̶g̶r̶a̶t̶o̶r̶x̶x̶, i̶p̶i̶, libefp, m̶d̶i̶, m̶p̶2̶d̶,
                m̶r̶c̶c̶, ooo, o̶p̶e̶n̶f̶e̶r̶m̶i̶o̶n̶p̶s̶i̶4̶, pcmsolver, p̶s̶i̶4̶f̶o̶c̶k̶c̶i̶,
                p̶s̶i̶x̶a̶s̶, r̶e̶s̶p̶, s̶i̶m̶i̶n̶t̶, s̶n̶s̶m̶p̶2̶, v̶2̶r̶d̶m̶_̶c̶a̶s̶s̶c̶f̶

  ==> Input File <==

--------------------------------------------------------------------------
memory 8 Gb

molecule { 
0 2
O           0.000000           0.000000           0.000000
H           0.000000           0.000000           0.755816
}

set { 
basis              cc-pvtz
reference          uks
maxiter            500
DAMPING_PERCENTAGE 1
E_CONVERGENCE      1.0E-8
D_CONVERGENCE      1.0E-8
DIIS_MAX_VECS      400
MBIS_MAXITER       8000
guess              read
}

E, wfn = energy('b3lyp', restart_file='last_wfn', return_wfn=True)
properties('b3lyp','MBIS_CHARGES', wfn=wfn)
wfn.to_file('last_wfn')
--------------------------------------------------------------------------

  Memory set to   7.451 GiB by Python driver.

Scratch directory: /tmp/
 Found user provided orbital data. Setting orbital guess to READ 
 Copying restart file <last_wfn.npy> to </tmp/scan_HO_10.default.516777.180.npy> for internal processing
   => Libint2 <=

    Primary   basis highest AM E, G, H:  6, 6, 3
    Auxiliary basis highest AM E, G, H:  7, 7, 4
    Onebody   basis highest AM E, G, H:  -, -, -
    Solid Harmonics ordering:            Gaussian

*** tstart() called on cics-quant-001
*** at Tue Dec 23 13:40:53 2025

   => Loading Basis Set <=

    Name: CC-PVTZ
    Role: ORBITAL
    Keyword: BASIS
    atoms 1 entry O          line   262 file /home/jrodriguesro/psi4conda/share/psi4/basis/cc-pvtz.gbs 
    atoms 2 entry H          line    23 file /home/jrodriguesro/psi4conda/share/psi4/basis/cc-pvtz.gbs 


         ---------------------------------------------------------
                                   SCF
               by Justin Turney, Rob Parrish, Andy Simmonett
                          and Daniel G. A. Smith
                              UKS Reference
                        5 Threads,   7629 MiB Core
         ---------------------------------------------------------

  ==> Geometry <==

    Molecular point group: c2v
    Full point group: C_inf_v

    Geometry (in Angstrom), charge = 0, multiplicity = 2:

       Center              X                  Y                   Z               Mass       
    ------------   -----------------  -----------------  -----------------  -----------------
         O            0.000000000000     0.000000000000    -0.044800443938    15.994914619570
         H            0.000000000000     0.000000000000     0.711015556062     1.007825032230

  Running in c2v symmetry.

  Rotational constants: A = ************  B =     31.12549  C =     31.12549 [cm^-1]
  Rotational constants: A = ************  B = 933118.65997  C = 933118.65997 [MHz]
  Nuclear repulsion =    5.601122079130372

  Charge       = 0
  Multiplicity = 2
  Electrons    = 9
  Nalpha       = 5
  Nbeta        = 4

  ==> Algorithm <==

  SCF Algorithm Type is DF.
  DIIS enabled.
  MOM disabled.
  Fractional occupation disabled.
  Guess Type is READ.
  Energy threshold   = 1.00e-08
  Density threshold  = 1.00e-08
  Integral threshold = 1.00e-12

  ==> Primary Basis <==

  Basis Set: CC-PVTZ
    Blend: CC-PVTZ
    Number of shells: 16
    Number of basis functions: 44
    Number of Cartesian functions: 50
    Spherical Harmonics?: true
    Max angular momentum: 3

  ==> DFT Potential <==

   => LibXC <=

    Version 7.0.0
    S. Lehtola, C. Steigemann, M. J.T. Oliveira, and M. A.L. Marques.,  SoftwareX 7, 1–5 (2018) (10.1016/j.softx.2017.11.002)

   => Composite Functional: B3LYP <= 

    B3LYP Hyb-GGA Exchange-Correlation Functional

    P. J. Stephens, F. J. Devlin, C. F. Chabalowski, and M. J. Frisch.,  J. Phys. Chem. 98, 11623 (1994) (10.1021/j100096a001)

    Deriv               =              1
    GGA                 =           TRUE
    Meta                =          FALSE

    Exchange Hybrid     =           TRUE
    MP2 Hybrid          =          FALSE

   => Exchange Functionals <=

    0.0800   Slater exchange
    0.7200         Becke 88

   => Exact (HF) Exchange <=

    0.2000               HF 

   => Correlation Functionals <=

    0.1900   Vosko, Wilk & Nusair (VWN5_RPA)
    0.8100   Lee, Yang & Parr

   => LibXC Density Thresholds  <==

    XC_HYB_GGA_XC_B3LYP:  1.00E-15 

   => Molecular Quadrature <=

    Radial Scheme          =       TREUTLER
    Pruning Scheme         =           NONE
    Nuclear Scheme         =       TREUTLER

    Blocking Scheme        =         OCTREE
    BS radius alpha        =              1
    Pruning alpha          =              1
    Radial Points          =             75
    Spherical Points       =            302
    Total Points           =          44099
    Total Blocks           =            391
    Max Points             =            254
    Max Functions          =             44
    Weights Tolerance      =       1.00E-15

   => Loading Basis Set <=

    Name: (CC-PVTZ AUX)
    Role: JKFIT
    Keyword: DF_BASIS_SCF
    atoms 1 entry O          line   229 file /home/jrodriguesro/psi4conda/share/psi4/basis/cc-pvtz-jkfit.gbs 
    atoms 2 entry H          line    51 file /home/jrodriguesro/psi4conda/share/psi4/basis/cc-pvtz-jkfit.gbs 

   => Loading Basis Set <=

    Name: CC-PVTZ
    Role: ORBITAL
    Keyword: BASIS
    atoms 1 entry O          line   262 file /home/jrodriguesro/psi4conda/share/psi4/basis/cc-pvtz.gbs 
    atoms 2 entry H          line    23 file /home/jrodriguesro/psi4conda/share/psi4/basis/cc-pvtz.gbs 

  Reading orbitals from file /tmp/scan_HO_10.default.516777.180.npy, no projection.

  ==> Integral Setup <==

  DFHelper Memory: AOs need 0.002 GiB; user supplied 5.533 GiB. 
  SCF_SUBTYPE=INCORE selected. In-core MEM_DF algorithm will be used.
  Using in-core AOs.

  ==> MemDFJK: Density-Fitted J/K Matrices <==

    J tasked:                   Yes
    K tasked:                   Yes
    wK tasked:                   No
    OpenMP threads:               5
    Memory [MiB]:              5665
    Algorithm:                 Core
    Schwarz Cutoff:           1E-12
    Mask sparsity (%):       0.0000
    Fitting Condition:        1E-10

   => Auxiliary Basis Set <=

  Basis Set: (CC-PVTZ AUX)
    Blend: CC-PVTZ-JKFIT
    Number of shells: 35
    Number of basis functions: 109
    Number of Cartesian functions: 131
    Spherical Harmonics?: true
    Max angular momentum: 4

  Cached 100.0% of DFT collocation blocks in 0.055 [GiB].

  Minimum eigenvalue in the overlap matrix is 2.0407434097E-03.
  Reciprocal condition number of the overlap matrix is 4.9078499584E-04.
    Using symmetric orthogonalization.

  ==> Pre-Iterations <==

  SCF Guess: Orbitals guess was supplied from a previous computation.

   -------------------------------------------------------
    Irrep   Nso     Nmo     Nalpha   Nbeta   Ndocc  Nsocc
   -------------------------------------------------------
     A1        20      20       3       3       3       0
     A2         4       4       0       0       0       0
     B1        10      10       1       0       0       1
     B2        10      10       1       1       1       0
   -------------------------------------------------------
    Total      44      44       5       4       4       1
   -------------------------------------------------------

  ==> Iterations <==

                           Total Energy        Delta E     RMS |[F,P]|

   @DF-UKS iter   0:   -75.70017739031992   -7.57002e+01   4.87371e-03 
   @DF-UKS iter   1:   -75.69112434470122    9.05305e-03   3.17129e-04 DIIS/ADIIS
   @DF-UKS iter   2:   -75.69114114016396   -1.67955e-05   1.22785e-04 DIIS/ADIIS/DAMP=1%
   @DF-UKS iter   3:   -75.69118667278748   -4.55326e-05   2.36150e-05 DIIS/DAMP=1%
   @DF-UKS iter   4:   -75.69112787900171    5.87938e-05   9.04566e-06 DIIS/DAMP=1%
   @DF-UKS iter   5:   -75.69114848830812   -2.06093e-05   4.11151e-07 DIIS/DAMP=1%
   @DF-UKS iter   6:   -75.69114376581473    4.72249e-06   5.75631e-08 DIIS/DAMP=1%
   @DF-UKS iter   7:   -75.69114390715951   -1.41345e-07   9.77467e-09 DIIS/DAMP=1%
   @DF-UKS iter   8:   -75.69114388424315    2.29164e-08   6.54307e-10 DIIS/DAMP=1%
   @DF-UKS iter   9:   -75.69114388680921   -2.56607e-09   9.39601e-11 DIIS/DAMP=1%
  Energy and wave function converged.


  ==> Post-Iterations <==

   Electrons on quadrature grid:
      Nalpha   =    4.9999999985 ; deviation = -1.550e-09
      Nbeta    =    3.9999999984 ; deviation = -1.579e-09
      Ntotal   =    8.9999999969 ; deviation = -3.129e-09 

   @Spin Contamination Metric:   1.781219088E-03
   @S^2 Expected:                7.500000000E-01
   @S^2 Observed:                7.517812191E-01
   @S   Expected:                5.000000000E-01
   @S   Observed:                5.000000000E-01

    Orbital Energies [Eh]
    ---------------------

    Alpha Occupied:                                                       

       1A1   -19.179102     2A1    -1.099465     3A1    -0.510071  
       1B1    -0.429751     1B2    -0.356782  

    Alpha Virtual:                                                        

       4A1     0.057350     5A1     0.477440     2B1     0.524154  
       6A1     0.529128     2B2     0.558510     3B1     0.725762  
       3B2     0.745610     7A1     0.815304     8A1     1.411112  
       1A2     1.412178     9A1     1.546592     4B1     1.802817  
       4B2     1.840640    10A1     1.866798    11A1     2.616066  
       2A2     3.285397    12A1     3.285539     5B1     3.378057  
       5B2     3.407250     6B1     3.597336     6B2     3.648703  
      13A1     3.884747     7B1     4.262138     7B2     4.292474  
      14A1     4.519173     8B1     5.057153     8B2     5.057422  
      15A1     5.380933     3A2     5.659078    16A1     5.660370  
       4A2     6.117637    17A1     6.118568     9B1     6.225499  
       9B2     6.279753    18A1     7.105668    19A1     7.429430  
      10B1     7.532752    10B2     7.579401    20A1    12.604973  

    Beta Occupied:                                                        

       1A1   -19.154179     2A1    -1.034104     3A1    -0.479589  
       1B2    -0.331303  

    Beta Virtual:                                                         

       1B1    -0.182317     4A1     0.062208     5A1     0.484353  
       6A1     0.538124     2B2     0.568340     2B1     0.592446  
       3B2     0.746815     3B1     0.749987     7A1     0.838833  
       1A2     1.464779     8A1     1.470249     9A1     1.564056  
       4B2     1.846381     4B1     1.850720    10A1     1.886773  
      11A1     2.625134     2A2     3.299549    12A1     3.300603  
       5B2     3.409921     5B1     3.416811     6B2     3.664671  
       6B1     3.689672    13A1     3.894144     7B2     4.295332  
       7B1     4.295992    14A1     4.550719     8B2     5.127460  
       8B1     5.130403    15A1     5.416791     3A2     5.703010  
      16A1     5.707797     4A2     6.209081    17A1     6.223514  
       9B2     6.289795     9B1     6.301259    18A1     7.128679  
      19A1     7.448012    10B2     7.587776    10B1     7.596642  
      20A1    12.634430  

    Final Occupation by Irrep:
             A1    A2    B1    B2 
    DOCC [     3,    0,    0,    1 ]
    SOCC [     0,    0,    1,    0 ]
    NA   [     3,    0,    1,    1 ]
    NB   [     3,    0,    0,    1 ]

  @DF-UKS Final Energy:   -75.69114388680921

   => Energetics <=

    Nuclear Repulsion Energy =              5.6011220791303717
    One-Electron Energy =                -114.7705321456058982
    Two-Electron Energy =                  40.7720354603302084
    DFT Exchange-Correlation Energy =      -7.2937692806639092
    Empirical Dispersion Energy =           0.0000000000000000
    VV10 Nonlocal Energy =                  0.0000000000000000
    Total Energy =                        -75.6911438868092290

  UHF NO Occupations:
  HONO-2 :    1 B2 1.9998559
  HONO-1 :    3 A1 1.9993672
  HONO-0 :    1 B1 1.0000000
  LUNO+0 :    4 A1 0.0006328
  LUNO+1 :    2 B2 0.0001441
  LUNO+2 :    5 A1 0.0001134
  LUNO+3 :    6 A1 0.0000006


Computation Completed


Properties will be evaluated at   0.000000,   0.000000,   0.000000 [a0]

Properties computed using the SCF density matrix


 Multipole Moments:

 ------------------------------------------------------------------------------------
     Multipole            Electronic (a.u.)      Nuclear  (a.u.)        Total (a.u.)
 ------------------------------------------------------------------------------------

 L = 1.  Multiply by 2.5417464519 to convert [e a0] to [Debye]
 Dipole X            :          0.0000000            0.0000000            0.0000000
 Dipole Y            :          0.0000000            0.0000000            0.0000000
 Dipole Z            :         -0.0475946            0.6663401            0.6187455
 Magnitude           :                                                    0.6187455

 ------------------------------------------------------------------------------------

*** tstop() called on cics-quant-001 at Tue Dec 23 13:40:53 2025
Module time:
	user time   =       0.76 seconds =       0.01 minutes
	system time =       0.05 seconds =       0.00 minutes
	total time  =          0 seconds =       0.00 minutes
Total time:
	user time   =       0.76 seconds =       0.01 minutes
	system time =       0.05 seconds =       0.00 minutes
	total time  =          0 seconds =       0.00 minutes

*** tstart() called on cics-quant-001
*** at Tue Dec 23 13:40:53 2025

   => Libint2 <=

    Primary   basis highest AM E, G, H:  6, 6, 3
    Auxiliary basis highest AM E, G, H:  7, 7, 4
    Onebody   basis highest AM E, G, H:  -, -, -
    Solid Harmonics ordering:            Gaussian
   => Loading Basis Set <=

    Name: CC-PVTZ
    Role: ORBITAL
    Keyword: BASIS
    atoms 1 entry O          line   262 file /home/jrodriguesro/psi4conda/share/psi4/basis/cc-pvtz.gbs 
    atoms 2 entry H          line    23 file /home/jrodriguesro/psi4conda/share/psi4/basis/cc-pvtz.gbs 


         ---------------------------------------------------------
                                   SCF
               by Justin Turney, Rob Parrish, Andy Simmonett
                          and Daniel G. A. Smith
                              UKS Reference
                        5 Threads,   7629 MiB Core
         ---------------------------------------------------------

  ==> Geometry <==

    Molecular point group: c2v
    Full point group: C_inf_v

    Geometry (in Angstrom), charge = 0, multiplicity = 2:

       Center              X                  Y                   Z               Mass       
    ------------   -----------------  -----------------  -----------------  -----------------
         O            0.000000000000     0.000000000000    -0.044800443938    15.994914619570
         H            0.000000000000     0.000000000000     0.711015556062     1.007825032230

  Running in c2v symmetry.

  Rotational constants: A = ************  B =     31.12549  C =     31.12549 [cm^-1]
  Rotational constants: A = ************  B = 933118.65997  C = 933118.65997 [MHz]
  Nuclear repulsion =    5.601122079130372

  Charge       = 0
  Multiplicity = 2
  Electrons    = 9
  Nalpha       = 5
  Nbeta        = 4

  ==> Algorithm <==

  SCF Algorithm Type is DF.
  DIIS enabled.
  MOM disabled.
  Fractional occupation disabled.
  Guess Type is READ.
  Energy threshold   = 1.00e-08
  Density threshold  = 1.00e-08
  Integral threshold = 1.00e-12

  ==> Primary Basis <==

  Basis Set: CC-PVTZ
    Blend: CC-PVTZ
    Number of shells: 16
    Number of basis functions: 44
    Number of Cartesian functions: 50
    Spherical Harmonics?: true
    Max angular momentum: 3

  ==> DFT Potential <==

   => LibXC <=

    Version 7.0.0
    S. Lehtola, C. Steigemann, M. J.T. Oliveira, and M. A.L. Marques.,  SoftwareX 7, 1–5 (2018) (10.1016/j.softx.2017.11.002)

   => Composite Functional: B3LYP <= 

    B3LYP Hyb-GGA Exchange-Correlation Functional

    P. J. Stephens, F. J. Devlin, C. F. Chabalowski, and M. J. Frisch.,  J. Phys. Chem. 98, 11623 (1994) (10.1021/j100096a001)

    Deriv               =              1
    GGA                 =           TRUE
    Meta                =          FALSE

    Exchange Hybrid     =           TRUE
    MP2 Hybrid          =          FALSE

   => Exchange Functionals <=

    0.0800   Slater exchange
    0.7200         Becke 88

   => Exact (HF) Exchange <=

    0.2000               HF 

   => Correlation Functionals <=

    0.1900   Vosko, Wilk & Nusair (VWN5_RPA)
    0.8100   Lee, Yang & Parr

   => LibXC Density Thresholds  <==

    XC_HYB_GGA_XC_B3LYP:  1.00E-15 

   => Molecular Quadrature <=

    Radial Scheme          =       TREUTLER
    Pruning Scheme         =           NONE
    Nuclear Scheme         =       TREUTLER

    Blocking Scheme        =         OCTREE
    BS radius alpha        =              1
    Pruning alpha          =              1
    Radial Points          =             75
    Spherical Points       =            302
    Total Points           =          44099
    Total Blocks           =            391
    Max Points             =            254
    Max Functions          =             44
    Weights Tolerance      =       1.00E-15

   => Loading Basis Set <=

    Name: (CC-PVTZ AUX)
    Role: JKFIT
    Keyword: DF_BASIS_SCF
    atoms 1 entry O          line   229 file /home/jrodriguesro/psi4conda/share/psi4/basis/cc-pvtz-jkfit.gbs 
    atoms 2 entry H          line    51 file /home/jrodriguesro/psi4conda/share/psi4/basis/cc-pvtz-jkfit.gbs 

   => Loading Basis Set <=

    Name: CC-PVTZ
    Role: ORBITAL
    Keyword: BASIS
    atoms 1 entry O          line   262 file /home/jrodriguesro/psi4conda/share/psi4/basis/cc-pvtz.gbs 
    atoms 2 entry H          line    23 file /home/jrodriguesro/psi4conda/share/psi4/basis/cc-pvtz.gbs 

  Reading orbitals from file /tmp/scan_HO_10.default.516777.180.npy, no projection.

  ==> Integral Setup <==

  DFHelper Memory: AOs need 0.002 GiB; user supplied 5.533 GiB. 
  SCF_SUBTYPE=INCORE selected. In-core MEM_DF algorithm will be used.
  Using in-core AOs.

  ==> MemDFJK: Density-Fitted J/K Matrices <==

    J tasked:                   Yes
    K tasked:                   Yes
    wK tasked:                   No
    OpenMP threads:               5
    Memory [MiB]:              5665
    Algorithm:                 Core
    Schwarz Cutoff:           1E-12
    Mask sparsity (%):       0.0000
    Fitting Condition:        1E-10

   => Auxiliary Basis Set <=

  Basis Set: (CC-PVTZ AUX)
    Blend: CC-PVTZ-JKFIT
    Number of shells: 35
    Number of basis functions: 109
    Number of Cartesian functions: 131
    Spherical Harmonics?: true
    Max angular momentum: 4

  Cached 100.0% of DFT collocation blocks in 0.055 [GiB].

  Minimum eigenvalue in the overlap matrix is 2.0407434097E-03.
  Reciprocal condition number of the overlap matrix is 4.9078499584E-04.
    Using symmetric orthogonalization.

  ==> Pre-Iterations <==

  SCF Guess: Orbitals guess was supplied from a previous computation.

   -------------------------------------------------------
    Irrep   Nso     Nmo     Nalpha   Nbeta   Ndocc  Nsocc
   -------------------------------------------------------
     A1        20      20       3       3       3       0
     A2         4       4       0       0       0       0
     B1        10      10       1       0       0       1
     B2        10      10       1       1       1       0
   -------------------------------------------------------
    Total      44      44       5       4       4       1
   -------------------------------------------------------

  ==> Iterations <==

                           Total Energy        Delta E     RMS |[F,P]|

   @DF-UKS iter   0:   -75.69114388712710   -7.56911e+01   9.13952e-12 
   @DF-UKS iter   1:   -75.69114388712705    4.26326e-14   5.89602e-12 DIIS
  Energy and wave function converged.


  ==> Post-Iterations <==

   Electrons on quadrature grid:
      Nalpha   =    4.9999999985 ; deviation = -1.550e-09
      Nbeta    =    3.9999999984 ; deviation = -1.579e-09
      Ntotal   =    8.9999999969 ; deviation = -3.129e-09 

   @Spin Contamination Metric:   1.781219078E-03
   @S^2 Expected:                7.500000000E-01
   @S^2 Observed:                7.517812191E-01
   @S   Expected:                5.000000000E-01
   @S   Observed:                5.000000000E-01

    Orbital Energies [Eh]
    ---------------------

    Alpha Occupied:                                                       

       1A1   -19.179102     2A1    -1.099465     3A1    -0.510071  
       1B1    -0.429751     1B2    -0.356782  

    Alpha Virtual:                                                        

       4A1     0.057350     5A1     0.477440     2B1     0.524154  
       6A1     0.529128     2B2     0.558510     3B1     0.725762  
       3B2     0.745610     7A1     0.815304     8A1     1.411112  
       1A2     1.412178     9A1     1.546592     4B1     1.802817  
       4B2     1.840640    10A1     1.866798    11A1     2.616066  
       2A2     3.285397    12A1     3.285539     5B1     3.378057  
       5B2     3.407250     6B1     3.597336     6B2     3.648703  
      13A1     3.884747     7B1     4.262138     7B2     4.292474  
      14A1     4.519173     8B1     5.057153     8B2     5.057422  
      15A1     5.380933     3A2     5.659078    16A1     5.660370  
       4A2     6.117637    17A1     6.118568     9B1     6.225499  
       9B2     6.279753    18A1     7.105668    19A1     7.429430  
      10B1     7.532752    10B2     7.579401    20A1    12.604973  

    Beta Occupied:                                                        

       1A1   -19.154179     2A1    -1.034104     3A1    -0.479589  
       1B2    -0.331303  

    Beta Virtual:                                                         

       1B1    -0.182317     4A1     0.062208     5A1     0.484353  
       6A1     0.538124     2B2     0.568340     2B1     0.592446  
       3B2     0.746815     3B1     0.749987     7A1     0.838833  
       1A2     1.464779     8A1     1.470249     9A1     1.564056  
       4B2     1.846381     4B1     1.850720    10A1     1.886773  
      11A1     2.625134     2A2     3.299549    12A1     3.300603  
       5B2     3.409921     5B1     3.416811     6B2     3.664671  
       6B1     3.689672    13A1     3.894144     7B2     4.295332  
       7B1     4.295992    14A1     4.550719     8B2     5.127460  
       8B1     5.130403    15A1     5.416791     3A2     5.703010  
      16A1     5.707797     4A2     6.209081    17A1     6.223514  
       9B2     6.289795     9B1     6.301259    18A1     7.128679  
      19A1     7.448012    10B2     7.587776    10B1     7.596642  
      20A1    12.634430  

    Final Occupation by Irrep:
             A1    A2    B1    B2 
    DOCC [     3,    0,    0,    1 ]
    SOCC [     0,    0,    1,    0 ]
    NA   [     3,    0,    1,    1 ]
    NB   [     3,    0,    0,    1 ]

  @DF-UKS Final Energy:   -75.69114388712705

   => Energetics <=

    Nuclear Repulsion Energy =              5.6011220791303717
    One-Electron Energy =                -114.7705321407884753
    Two-Electron Energy =                  40.7720354545433281
    DFT Exchange-Correlation Energy =      -7.2937692800122917
    Empirical Dispersion Energy =           0.0000000000000000
    VV10 Nonlocal Energy =                  0.0000000000000000
    Total Energy =                        -75.6911438871270548

  UHF NO Occupations:
  HONO-2 :    1 B2 1.9998559
  HONO-1 :    3 A1 1.9993672
  HONO-0 :    1 B1 1.0000000
  LUNO+0 :    4 A1 0.0006328
  LUNO+1 :    2 B2 0.0001441
  LUNO+2 :    5 A1 0.0001134
  LUNO+3 :    6 A1 0.0000006


Computation Completed


Properties will be evaluated at   0.000000,   0.000000,   0.000000 [a0]

Properties computed using the B3LYP density matrix


 Multipole Moments:

 ------------------------------------------------------------------------------------
     Multipole            Electronic (a.u.)      Nuclear  (a.u.)        Total (a.u.)
 ------------------------------------------------------------------------------------

 L = 1.  Multiply by 2.5417464519 to convert [e a0] to [Debye]
 Dipole X            :          0.0000000            0.0000000            0.0000000
 Dipole Y            :          0.0000000            0.0000000            0.0000000
 Dipole Z            :         -0.0475946            0.6663401            0.6187455
 Magnitude           :                                                    0.6187455

 L = 2.  Multiply by 1.3450342976 to convert [e a0^2] to [Debye ang]
 Quadrupole XX       :         -3.8411144            0.0000000           -3.8411144
 Quadrupole XY       :          0.0000000            0.0000000            0.0000000
 Quadrupole XZ       :          0.0000000            0.0000000            0.0000000
 Quadrupole YY       :         -4.7219414            0.0000000           -4.7219414
 Quadrupole YZ       :          0.0000000            0.0000000            0.0000000
 Quadrupole ZZ       :         -5.3966414            1.8626666           -3.5339748
 Traceless XX        :          0.8121180           -0.6208889            0.1912291
 Traceless YY        :         -0.0687090           -0.6208889           -0.6895978
 Traceless ZZ        :         -0.7434090            1.2417777            0.4983687

 ------------------------------------------------------------------------------------
  ==> Computing MBIS Charges <==

  Electron Count from Grid (Expected Number):  9.00000 ( 9.00000)
  Difference: -0.00000

  MBIS Charges: (a.u.)
   Center  Symbol  Z      Pop.       Charge
      1       O    8    8.426099   -0.426099
      2       H    1    0.573901    0.426099

  MBIS Dipoles: [e a0]
   Center  Symbol  Z        X           Y           Z
      1       O    8   -0.000000   -0.000000   -0.010959
      2       H    1    0.000000    0.000000    0.021113

  MBIS Quadrupoles: [e a0^2]
   Center  Symbol  Z      XX        XY        XZ        YY        YZ        ZZ
      1       O    8   -3.6609    0.0000   -0.0000   -4.5173   -0.0000   -4.1668
      2       H    1   -0.1802   -0.0000    0.0000   -0.2046   -0.0000   -0.1920

  MBIS Octupoles: [e a0^3]
   Center  Symbol  Z      XXX       XXY       XXZ       XYY       XYZ       XZZ       YYY       YYZ       YZZ       ZZZ
      1       O    8   -0.0000    0.0000    0.0534   -0.0000   -0.0000    0.0000   -0.0000    0.0084   -0.0000   -0.1163
      2       H    1    0.0000   -0.0000   -0.0005    0.0000   -0.0000    0.0000   -0.0000    0.0041   -0.0000    0.0037

  MBIS Radial Moments:
   Center  Symbol  Z      [a0^2]      [a0^3]      [a0^4]      
      1       O    8   12.344975   23.523147   53.544633
      2       H    1    0.576843    0.832759    1.442956

  MBIS Valence Widths: [a0]
   Center  Symbol  Z     Width
      1       O    8    0.390312
      2       H    1    0.290367


  MBIS Valence Charges: (a.u.)
   Center  Symbol  Z     Charge
      1       O    8   -6.802422
      2       H    1   -0.573901

*** tstop() called on cics-quant-001 at Tue Dec 23 13:40:53 2025
Module time:
	user time   =       0.48 seconds =       0.01 minutes
	system time =       0.04 seconds =       0.00 minutes
	total time  =          0 seconds =       0.00 minutes
Total time:
	user time   =       1.26 seconds =       0.02 minutes
	system time =       0.09 seconds =       0.00 minutes
	total time  =          0 seconds =       0.00 minutes

    Psi4 stopped on: Tuesday, 23 December 2025 01:40PM
    Psi4 wall time for execution: 0:00:00.62

*** Psi4 exiting successfully. Buy a developer a beer!
