
    -----------------------------------------------------------------------
          Psi4: An Open-Source Ab Initio Electronic Structure Package
                               Psi4 1.10 release

                         Git: Rev {} zzzzzzz 


    D. G. A. Smith, L. A. Burns, A. C. Simmonett, R. M. Parrish,
    M. C. Schieber, R. Galvelis, P. Kraus, H. Kruse, R. Di Remigio,
    A. Alenaizan, A. M. James, S. Lehtola, J. P. Misiewicz, M. Scheurer,
    R. A. Shaw, J. B. Schriber, Y. Xie, Z. L. Glick, D. A. Sirianni,
    J. S. O'Brien, J. M. Waldrop, A. Kumar, E. G. Hohenstein,
    B. P. Pritchard, B. R. Brooks, H. F. Schaefer III, A. Yu. Sokolov,
    K. Patkowski, A. E. DePrince III, U. Bozkaya, R. A. King,
    F. A. Evangelista, J. M. Turney, T. D. Crawford, C. D. Sherrill,
    J. Chem. Phys. 152(18) 184108 (2020). https://doi.org/10.1063/5.0006002

                            Additional Code Authors
    E. T. Seidl, C. L. Janssen, E. F. Valeev, M. L. Leininger,
    J. F. Gonthier, R. M. Richard, H. R. McAlexander, M. Saitow, X. Wang,
    P. Verma, M. H. Lechner, A. Jiang, S. Behnle, A. G. Heide,
    M. F. Herbst, D. L. Poole, T. Győri, E. C. Mitchell, J. P. Pederson,
    and A. M. Wallace

             Previous Authors, Complete List of Code Contributors,
                       and Citations for Specific Modules
    https://github.com/psi4/psi4/blob/master/codemeta.json
    https://github.com/psi4/psi4/graphs/contributors
    https://psicode.org/psi4manual/master/introduction.html#citing-psifour

    -----------------------------------------------------------------------


    Psi4 started on: Tuesday, 23 December 2025 01:45PM

    Process ID: 539990
    Host:       cics-quant-001
    PSIDATADIR: /home/jrodriguesro/psi4conda/share/psi4
    Memory:     500.0 MiB
    Threads:    5
    Addons:     adcc, a̶m̶b̶i̶t̶, b̶s̶e̶, c̶c̶t̶3̶, c̶f̶o̶u̶r̶, c̶h̶e̶m̶p̶s̶2̶, c̶p̶p̶e̶, ddx, dftd3, dftd4,
                dkh, ecpint, einsums, f̶o̶r̶t̶e̶, g̶a̶u̶x̶c̶, gcp, g̶d̶m̶a̶, geometric,
                g̶p̶u̶_̶d̶f̶c̶c̶, i̶n̶t̶e̶g̶r̶a̶t̶o̶r̶x̶x̶, i̶p̶i̶, libefp, m̶d̶i̶, m̶p̶2̶d̶,
                m̶r̶c̶c̶, ooo, o̶p̶e̶n̶f̶e̶r̶m̶i̶o̶n̶p̶s̶i̶4̶, pcmsolver, p̶s̶i̶4̶f̶o̶c̶k̶c̶i̶,
                p̶s̶i̶x̶a̶s̶, r̶e̶s̶p̶, s̶i̶m̶i̶n̶t̶, s̶n̶s̶m̶p̶2̶, v̶2̶r̶d̶m̶_̶c̶a̶s̶s̶c̶f̶

  ==> Input File <==

--------------------------------------------------------------------------
memory 8 Gb

molecule { 
0 2
O           0.000000           0.000000           0.000000
N           0.000000           0.000000           2.186664
}

set { 
basis              cc-pvtz
reference          uks
maxiter            500
DAMPING_PERCENTAGE 1
E_CONVERGENCE      1.0E-8
D_CONVERGENCE      1.0E-8
DIIS_MAX_VECS      400
MBIS_MAXITER       8000
guess              read
}

E, wfn = energy('b3lyp', restart_file='last_wfn', return_wfn=True)
properties('b3lyp','MBIS_CHARGES', wfn=wfn)
wfn.to_file('last_wfn')
--------------------------------------------------------------------------

  Memory set to   7.451 GiB by Python driver.

Scratch directory: /tmp/
 Found user provided orbital data. Setting orbital guess to READ 
 Copying restart file <last_wfn.npy> to </tmp/scan_NO_47.default.539990.180.npy> for internal processing
   => Libint2 <=

    Primary   basis highest AM E, G, H:  6, 6, 3
    Auxiliary basis highest AM E, G, H:  7, 7, 4
    Onebody   basis highest AM E, G, H:  -, -, -
    Solid Harmonics ordering:            Gaussian

*** tstart() called on cics-quant-001
*** at Tue Dec 23 13:45:08 2025

   => Loading Basis Set <=

    Name: CC-PVTZ
    Role: ORBITAL
    Keyword: BASIS
    atoms 1 entry O          line   262 file /home/jrodriguesro/psi4conda/share/psi4/basis/cc-pvtz.gbs 
    atoms 2 entry N          line   224 file /home/jrodriguesro/psi4conda/share/psi4/basis/cc-pvtz.gbs 


         ---------------------------------------------------------
                                   SCF
               by Justin Turney, Rob Parrish, Andy Simmonett
                          and Daniel G. A. Smith
                              UKS Reference
                        5 Threads,   7629 MiB Core
         ---------------------------------------------------------

  ==> Geometry <==

    Molecular point group: c2v
    Full point group: C_inf_v

    Geometry (in Angstrom), charge = 0, multiplicity = 2:

       Center              X                  Y                   Z               Mass       
    ------------   -----------------  -----------------  -----------------  -----------------
         O            0.000000000000     0.000000000000    -1.020735696604    15.994914619570
         N            0.000000000000     0.000000000000     1.165928303396    14.003074004430

  Running in c2v symmetry.

  Rotational constants: A = ************  B =      0.47219  C =      0.47219 [cm^-1]
  Rotational constants: A = ************  B =  14155.97918  C =  14155.97918 [MHz]
  Nuclear repulsion =   13.552115824616861

  Charge       = 0
  Multiplicity = 2
  Electrons    = 15
  Nalpha       = 8
  Nbeta        = 7

  ==> Algorithm <==

  SCF Algorithm Type is DF.
  DIIS enabled.
  MOM disabled.
  Fractional occupation disabled.
  Guess Type is READ.
  Energy threshold   = 1.00e-08
  Density threshold  = 1.00e-08
  Integral threshold = 1.00e-12

  ==> Primary Basis <==

  Basis Set: CC-PVTZ
    Blend: CC-PVTZ
    Number of shells: 20
    Number of basis functions: 60
    Number of Cartesian functions: 70
    Spherical Harmonics?: true
    Max angular momentum: 3

  ==> DFT Potential <==

   => LibXC <=

    Version 7.0.0
    S. Lehtola, C. Steigemann, M. J.T. Oliveira, and M. A.L. Marques.,  SoftwareX 7, 1–5 (2018) (10.1016/j.softx.2017.11.002)

   => Composite Functional: B3LYP <= 

    B3LYP Hyb-GGA Exchange-Correlation Functional

    P. J. Stephens, F. J. Devlin, C. F. Chabalowski, and M. J. Frisch.,  J. Phys. Chem. 98, 11623 (1994) (10.1021/j100096a001)

    Deriv               =              1
    GGA                 =           TRUE
    Meta                =          FALSE

    Exchange Hybrid     =           TRUE
    MP2 Hybrid          =          FALSE

   => Exchange Functionals <=

    0.0800   Slater exchange
    0.7200         Becke 88

   => Exact (HF) Exchange <=

    0.2000               HF 

   => Correlation Functionals <=

    0.1900   Vosko, Wilk & Nusair (VWN5_RPA)
    0.8100   Lee, Yang & Parr

   => LibXC Density Thresholds  <==

    XC_HYB_GGA_XC_B3LYP:  1.00E-15 

   => Molecular Quadrature <=

    Radial Scheme          =       TREUTLER
    Pruning Scheme         =           NONE
    Nuclear Scheme         =       TREUTLER

    Blocking Scheme        =         OCTREE
    BS radius alpha        =              1
    Pruning alpha          =              1
    Radial Points          =             75
    Spherical Points       =            302
    Total Points           =          42833
    Total Blocks           =            379
    Max Points             =            256
    Max Functions          =             60
    Weights Tolerance      =       1.00E-15

   => Loading Basis Set <=

    Name: (CC-PVTZ AUX)
    Role: JKFIT
    Keyword: DF_BASIS_SCF
    atoms 1 entry O          line   229 file /home/jrodriguesro/psi4conda/share/psi4/basis/cc-pvtz-jkfit.gbs 
    atoms 2 entry N          line   177 file /home/jrodriguesro/psi4conda/share/psi4/basis/cc-pvtz-jkfit.gbs 

   => Loading Basis Set <=

    Name: CC-PVTZ
    Role: ORBITAL
    Keyword: BASIS
    atoms 1 entry O          line   262 file /home/jrodriguesro/psi4conda/share/psi4/basis/cc-pvtz.gbs 
    atoms 2 entry N          line   224 file /home/jrodriguesro/psi4conda/share/psi4/basis/cc-pvtz.gbs 

  Reading orbitals from file /tmp/scan_NO_47.default.539990.180.npy, no projection.

  ==> Integral Setup <==

  DFHelper Memory: AOs need 0.005 GiB; user supplied 5.522 GiB. 
  SCF_SUBTYPE=INCORE selected. In-core MEM_DF algorithm will be used.
  Using in-core AOs.

  ==> MemDFJK: Density-Fitted J/K Matrices <==

    J tasked:                   Yes
    K tasked:                   Yes
    wK tasked:                   No
    OpenMP threads:               5
    Memory [MiB]:              5654
    Algorithm:                 Core
    Schwarz Cutoff:           1E-12
    Mask sparsity (%):       0.0000
    Fitting Condition:        1E-10

   => Auxiliary Basis Set <=

  Basis Set: (CC-PVTZ AUX)
    Blend: CC-PVTZ-JKFIT
    Number of shells: 50
    Number of basis functions: 158
    Number of Cartesian functions: 192
    Spherical Harmonics?: true
    Max angular momentum: 4

  Cached 100.0% of DFT collocation blocks in 0.066 [GiB].

  Minimum eigenvalue in the overlap matrix is 2.6705303616E-02.
  Reciprocal condition number of the overlap matrix is 9.8080518620E-03.
    Using symmetric orthogonalization.

  ==> Pre-Iterations <==

  SCF Guess: Orbitals guess was supplied from a previous computation.

   -------------------------------------------------------
    Irrep   Nso     Nmo     Nalpha   Nbeta   Ndocc  Nsocc
   -------------------------------------------------------
     A1        26      26       5       5       5       0
     A2         6       6       0       0       0       0
     B1        14      14       2       1       1       1
     B2        14      14       1       1       1       0
   -------------------------------------------------------
    Total      60      60       8       7       7       1
   -------------------------------------------------------

  ==> Iterations <==

                           Total Energy        Delta E     RMS |[F,P]|

   @DF-UKS iter   0:  -129.70728878236980   -1.29707e+02   5.70616e-04 
   @DF-UKS iter   1:  -129.70999592278110   -2.70714e-03   1.53641e-04 ADIIS/DIIS
   @DF-UKS iter   2:  -129.71001168889660   -1.57661e-05   9.51293e-05 DIIS/DAMP=1%
   @DF-UKS iter   3:  -129.71001070729622    9.81600e-07   5.61541e-05 DIIS/DAMP=1%
   @DF-UKS iter   4:  -129.70999939169482    1.13156e-05   1.66517e-05 DIIS/DAMP=1%
   @DF-UKS iter   5:  -129.71002674113629   -2.73494e-05   3.32301e-06 DIIS/DAMP=1%
   @DF-UKS iter   6:  -129.71001698063733    9.76050e-06   5.58145e-07 DIIS/DAMP=1%
   @DF-UKS iter   7:  -129.71002001990496   -3.03927e-06   1.13703e-07 DIIS/DAMP=1%
   @DF-UKS iter   8:  -129.71001942881483    5.91090e-07   1.57350e-08 DIIS/DAMP=1%
   @DF-UKS iter   9:  -129.71001952499898   -9.61842e-08   2.18495e-09 DIIS/DAMP=1%
   @DF-UKS iter  10:  -129.71001951597248    9.02651e-09   5.50248e-10 DIIS/DAMP=1%
  Energy and wave function converged.


  ==> Post-Iterations <==

   Electrons on quadrature grid:
      Nalpha   =    8.0000010261 ; deviation = 1.026e-06
      Nbeta    =    7.0000009065 ; deviation = 9.065e-07
      Ntotal   =   15.0000019326 ; deviation = 1.933e-06 

   @Spin Contamination Metric:   1.660644688E+00
   @S^2 Expected:                7.500000000E-01
   @S^2 Observed:                2.410644688E+00
   @S   Expected:                5.000000000E-01
   @S   Observed:                5.000000000E-01

    Orbital Energies [Eh]
    ---------------------

    Alpha Occupied:                                                       

       1A1   -19.209302     2A1   -14.473924     3A1    -0.871206  
       4A1    -0.817406     1B1    -0.383080     5A1    -0.381238  
       1B2    -0.380572     2B1    -0.317385  

    Alpha Virtual:                                                        

       2B2    -0.166832     6A1    -0.151277     3B1     0.407434  
       3B2     0.408631     7A1     0.420199     8A1     0.525653  
       4B1     0.596686     4B2     0.621134     9A1     0.647032  
      10A1     0.859428     1A2     0.964334    11A1     0.964350  
       5B1     0.973831     5B2     0.973871    12A1     1.136010  
       2A2     1.475681    13A1     1.482137     6B1     1.529460  
       6B2     1.541937    14A1     1.865606     7B2     2.723520  
       7B1     2.723979    15A1     2.773294     8B1     3.580954  
       8B2     3.615860    16A1     3.646228     9B2     3.780112  
       9B1     3.780112     3A2     3.780362    17A1     3.780368  
      10B2     3.790885    10B1     3.791191    18A1     3.829642  
      19A1     4.292775     4A2     4.292788    11B2     4.316836  
      11B1     4.317094    20A1     4.447306     5A2     5.117479  
      12B1     5.122197    21A1     5.124666    12B2     5.125325  
      13B1     5.130874    13B2     5.140733    22A1     5.185724  
      23A1     5.326939     6A2     6.180572    24A1     6.195904  
      14B1     6.209611    14B2     6.245836    25A1     6.375439  
      26A1     7.549849  

    Beta Occupied:                                                        

       1A1   -19.255344     2A1   -14.418654     3A1    -0.997318  
       4A1    -0.650235     1B2    -0.440265     5A1    -0.429624  
       1B1    -0.365681  

    Beta Virtual:                                                         

       2B2    -0.130785     2B1    -0.128465     6A1    -0.116333  
       3B2     0.463254     3B1     0.473907     7A1     0.476693  
       8A1     0.562445     4B2     0.568827     4B1     0.594036  
       9A1     0.602229    10A1     0.873775     5B2     1.040757  
       5B1     1.047616    11A1     1.059679     1A2     1.059690  
      12A1     1.122693     2A2     1.420491    13A1     1.421925  
       6B2     1.459212     6B1     1.495895    14A1     1.846180  
       7B2     2.846350     7B1     2.847927    15A1     2.878734  
       8B2     3.483874    16A1     3.538073     8B1     3.547316  
      17A1     3.898455     3A2     3.898464     9B2     3.902180  
       9B1     3.903521    10B2     3.903803    10B1     3.904190  
      18A1     3.933000    19A1     4.462503     4A2     4.462525  
      11B2     4.468312    11B1     4.470969    20A1     4.568258  
      12B2     5.010622    21A1     5.023211     5A2     5.034954  
      12B1     5.041894    13B2     5.059264    13B1     5.078847  
      22A1     5.113569    23A1     5.421074    14B2     6.062231  
      24A1     6.075972     6A2     6.080895    14B1     6.123333  
      25A1     6.235457    26A1     7.479028  

    Final Occupation by Irrep:
             A1    A2    B1    B2 
    DOCC [     5,    0,    1,    1 ]
    SOCC [     0,    0,    1,    0 ]
    NA   [     5,    0,    2,    1 ]
    NB   [     5,    0,    1,    1 ]

  @DF-UKS Final Energy:  -129.71001951597248

   => Energetics <=

    Nuclear Repulsion Energy =             13.5521158246168607
    One-Electron Energy =                -204.2890518266414119
    Two-Electron Energy =                  73.3240964493154621
    DFT Exchange-Correlation Energy =     -12.2971799632633942
    Empirical Dispersion Energy =           0.0000000000000000
    VV10 Nonlocal Energy =                  0.0000000000000000
    Total Energy =                       -129.7100195159724763

  UHF NO Occupations:
  HONO-2 :    5 A1 1.5639362
  HONO-1 :    1 B2 1.1610420
  HONO-0 :    2 B1 1.0000000
  LUNO+0 :    2 B2 0.8389580
  LUNO+1 :    6 A1 0.4360638
  LUNO+2 :    7 A1 0.0012792
  LUNO+3 :    8 A1 0.0006995


Computation Completed


Properties will be evaluated at   0.000000,   0.000000,   0.000000 [a0]

Properties computed using the SCF density matrix


 Multipole Moments:

 ------------------------------------------------------------------------------------
     Multipole            Electronic (a.u.)      Nuclear  (a.u.)        Total (a.u.)
 ------------------------------------------------------------------------------------

 L = 1.  Multiply by 2.5417464519 to convert [e a0] to [Debye]
 Dipole X            :          0.0000000            0.0000000            0.0000000
 Dipole Y            :          0.0000000            0.0000000            0.0000000
 Dipole Z            :          0.2818187           -0.0082911            0.2735276
 Magnitude           :                                                    0.2735276

 ------------------------------------------------------------------------------------

*** tstop() called on cics-quant-001 at Tue Dec 23 13:45:09 2025
Module time:
	user time   =       1.07 seconds =       0.02 minutes
	system time =       0.05 seconds =       0.00 minutes
	total time  =          1 seconds =       0.02 minutes
Total time:
	user time   =       1.07 seconds =       0.02 minutes
	system time =       0.05 seconds =       0.00 minutes
	total time  =          1 seconds =       0.02 minutes

*** tstart() called on cics-quant-001
*** at Tue Dec 23 13:45:09 2025

   => Libint2 <=

    Primary   basis highest AM E, G, H:  6, 6, 3
    Auxiliary basis highest AM E, G, H:  7, 7, 4
    Onebody   basis highest AM E, G, H:  -, -, -
    Solid Harmonics ordering:            Gaussian
   => Loading Basis Set <=

    Name: CC-PVTZ
    Role: ORBITAL
    Keyword: BASIS
    atoms 1 entry O          line   262 file /home/jrodriguesro/psi4conda/share/psi4/basis/cc-pvtz.gbs 
    atoms 2 entry N          line   224 file /home/jrodriguesro/psi4conda/share/psi4/basis/cc-pvtz.gbs 


         ---------------------------------------------------------
                                   SCF
               by Justin Turney, Rob Parrish, Andy Simmonett
                          and Daniel G. A. Smith
                              UKS Reference
                        5 Threads,   7629 MiB Core
         ---------------------------------------------------------

  ==> Geometry <==

    Molecular point group: c2v
    Full point group: C_inf_v

    Geometry (in Angstrom), charge = 0, multiplicity = 2:

       Center              X                  Y                   Z               Mass       
    ------------   -----------------  -----------------  -----------------  -----------------
         O            0.000000000000     0.000000000000    -1.020735696604    15.994914619570
         N            0.000000000000     0.000000000000     1.165928303396    14.003074004430

  Running in c2v symmetry.

  Rotational constants: A = ************  B =      0.47219  C =      0.47219 [cm^-1]
  Rotational constants: A = ************  B =  14155.97918  C =  14155.97918 [MHz]
  Nuclear repulsion =   13.552115824616861

  Charge       = 0
  Multiplicity = 2
  Electrons    = 15
  Nalpha       = 8
  Nbeta        = 7

  ==> Algorithm <==

  SCF Algorithm Type is DF.
  DIIS enabled.
  MOM disabled.
  Fractional occupation disabled.
  Guess Type is READ.
  Energy threshold   = 1.00e-08
  Density threshold  = 1.00e-08
  Integral threshold = 1.00e-12

  ==> Primary Basis <==

  Basis Set: CC-PVTZ
    Blend: CC-PVTZ
    Number of shells: 20
    Number of basis functions: 60
    Number of Cartesian functions: 70
    Spherical Harmonics?: true
    Max angular momentum: 3

  ==> DFT Potential <==

   => LibXC <=

    Version 7.0.0
    S. Lehtola, C. Steigemann, M. J.T. Oliveira, and M. A.L. Marques.,  SoftwareX 7, 1–5 (2018) (10.1016/j.softx.2017.11.002)

   => Composite Functional: B3LYP <= 

    B3LYP Hyb-GGA Exchange-Correlation Functional

    P. J. Stephens, F. J. Devlin, C. F. Chabalowski, and M. J. Frisch.,  J. Phys. Chem. 98, 11623 (1994) (10.1021/j100096a001)

    Deriv               =              1
    GGA                 =           TRUE
    Meta                =          FALSE

    Exchange Hybrid     =           TRUE
    MP2 Hybrid          =          FALSE

   => Exchange Functionals <=

    0.0800   Slater exchange
    0.7200         Becke 88

   => Exact (HF) Exchange <=

    0.2000               HF 

   => Correlation Functionals <=

    0.1900   Vosko, Wilk & Nusair (VWN5_RPA)
    0.8100   Lee, Yang & Parr

   => LibXC Density Thresholds  <==

    XC_HYB_GGA_XC_B3LYP:  1.00E-15 

   => Molecular Quadrature <=

    Radial Scheme          =       TREUTLER
    Pruning Scheme         =           NONE
    Nuclear Scheme         =       TREUTLER

    Blocking Scheme        =         OCTREE
    BS radius alpha        =              1
    Pruning alpha          =              1
    Radial Points          =             75
    Spherical Points       =            302
    Total Points           =          42833
    Total Blocks           =            379
    Max Points             =            256
    Max Functions          =             60
    Weights Tolerance      =       1.00E-15

   => Loading Basis Set <=

    Name: (CC-PVTZ AUX)
    Role: JKFIT
    Keyword: DF_BASIS_SCF
    atoms 1 entry O          line   229 file /home/jrodriguesro/psi4conda/share/psi4/basis/cc-pvtz-jkfit.gbs 
    atoms 2 entry N          line   177 file /home/jrodriguesro/psi4conda/share/psi4/basis/cc-pvtz-jkfit.gbs 

   => Loading Basis Set <=

    Name: CC-PVTZ
    Role: ORBITAL
    Keyword: BASIS
    atoms 1 entry O          line   262 file /home/jrodriguesro/psi4conda/share/psi4/basis/cc-pvtz.gbs 
    atoms 2 entry N          line   224 file /home/jrodriguesro/psi4conda/share/psi4/basis/cc-pvtz.gbs 

  Reading orbitals from file /tmp/scan_NO_47.default.539990.180.npy, no projection.

  ==> Integral Setup <==

  DFHelper Memory: AOs need 0.005 GiB; user supplied 5.522 GiB. 
  SCF_SUBTYPE=INCORE selected. In-core MEM_DF algorithm will be used.
  Using in-core AOs.

  ==> MemDFJK: Density-Fitted J/K Matrices <==

    J tasked:                   Yes
    K tasked:                   Yes
    wK tasked:                   No
    OpenMP threads:               5
    Memory [MiB]:              5654
    Algorithm:                 Core
    Schwarz Cutoff:           1E-12
    Mask sparsity (%):       0.0000
    Fitting Condition:        1E-10

   => Auxiliary Basis Set <=

  Basis Set: (CC-PVTZ AUX)
    Blend: CC-PVTZ-JKFIT
    Number of shells: 50
    Number of basis functions: 158
    Number of Cartesian functions: 192
    Spherical Harmonics?: true
    Max angular momentum: 4

  Cached 100.0% of DFT collocation blocks in 0.066 [GiB].

  Minimum eigenvalue in the overlap matrix is 2.6705303616E-02.
  Reciprocal condition number of the overlap matrix is 9.8080518620E-03.
    Using symmetric orthogonalization.

  ==> Pre-Iterations <==

  SCF Guess: Orbitals guess was supplied from a previous computation.

   -------------------------------------------------------
    Irrep   Nso     Nmo     Nalpha   Nbeta   Ndocc  Nsocc
   -------------------------------------------------------
     A1        26      26       5       5       5       0
     A2         6       6       0       0       0       0
     B1        14      14       2       1       1       1
     B2        14      14       1       1       1       0
   -------------------------------------------------------
    Total      60      60       8       7       7       1
   -------------------------------------------------------

  ==> Iterations <==

                           Total Energy        Delta E     RMS |[F,P]|

   @DF-UKS iter   0:  -129.71001951718836   -1.29710e+02   1.08672e-10 
   @DF-UKS iter   1:  -129.71001951718853   -1.70530e-13   4.55431e-11 DIIS
  Energy and wave function converged.


  ==> Post-Iterations <==

   Electrons on quadrature grid:
      Nalpha   =    8.0000010261 ; deviation = 1.026e-06
      Nbeta    =    7.0000009065 ; deviation = 9.065e-07
      Ntotal   =   15.0000019326 ; deviation = 1.933e-06 

   @Spin Contamination Metric:   1.660644686E+00
   @S^2 Expected:                7.500000000E-01
   @S^2 Observed:                2.410644686E+00
   @S   Expected:                5.000000000E-01
   @S   Observed:                5.000000000E-01

    Orbital Energies [Eh]
    ---------------------

    Alpha Occupied:                                                       

       1A1   -19.209302     2A1   -14.473924     3A1    -0.871206  
       4A1    -0.817406     1B1    -0.383080     5A1    -0.381238  
       1B2    -0.380572     2B1    -0.317385  

    Alpha Virtual:                                                        

       2B2    -0.166832     6A1    -0.151277     3B1     0.407434  
       3B2     0.408631     7A1     0.420199     8A1     0.525653  
       4B1     0.596686     4B2     0.621134     9A1     0.647032  
      10A1     0.859428     1A2     0.964334    11A1     0.964350  
       5B1     0.973831     5B2     0.973871    12A1     1.136010  
       2A2     1.475681    13A1     1.482137     6B1     1.529460  
       6B2     1.541937    14A1     1.865606     7B2     2.723520  
       7B1     2.723979    15A1     2.773294     8B1     3.580954  
       8B2     3.615860    16A1     3.646228     9B2     3.780112  
       9B1     3.780112     3A2     3.780362    17A1     3.780368  
      10B2     3.790885    10B1     3.791191    18A1     3.829642  
      19A1     4.292775     4A2     4.292788    11B2     4.316836  
      11B1     4.317094    20A1     4.447306     5A2     5.117479  
      12B1     5.122197    21A1     5.124666    12B2     5.125325  
      13B1     5.130874    13B2     5.140733    22A1     5.185724  
      23A1     5.326939     6A2     6.180572    24A1     6.195904  
      14B1     6.209611    14B2     6.245836    25A1     6.375439  
      26A1     7.549849  

    Beta Occupied:                                                        

       1A1   -19.255344     2A1   -14.418654     3A1    -0.997318  
       4A1    -0.650235     1B2    -0.440265     5A1    -0.429624  
       1B1    -0.365681  

    Beta Virtual:                                                         

       2B2    -0.130785     2B1    -0.128465     6A1    -0.116333  
       3B2     0.463254     3B1     0.473907     7A1     0.476693  
       8A1     0.562445     4B2     0.568827     4B1     0.594036  
       9A1     0.602229    10A1     0.873775     5B2     1.040757  
       5B1     1.047616    11A1     1.059679     1A2     1.059690  
      12A1     1.122693     2A2     1.420491    13A1     1.421925  
       6B2     1.459212     6B1     1.495895    14A1     1.846180  
       7B2     2.846350     7B1     2.847927    15A1     2.878734  
       8B2     3.483874    16A1     3.538073     8B1     3.547316  
      17A1     3.898455     3A2     3.898464     9B2     3.902180  
       9B1     3.903521    10B2     3.903803    10B1     3.904190  
      18A1     3.933000    19A1     4.462503     4A2     4.462525  
      11B2     4.468312    11B1     4.470969    20A1     4.568258  
      12B2     5.010622    21A1     5.023211     5A2     5.034954  
      12B1     5.041894    13B2     5.059264    13B1     5.078847  
      22A1     5.113569    23A1     5.421074    14B2     6.062231  
      24A1     6.075972     6A2     6.080895    14B1     6.123333  
      25A1     6.235457    26A1     7.479028  

    Final Occupation by Irrep:
             A1    A2    B1    B2 
    DOCC [     5,    0,    1,    1 ]
    SOCC [     0,    0,    1,    0 ]
    NA   [     5,    0,    2,    1 ]
    NB   [     5,    0,    1,    1 ]

  @DF-UKS Final Energy:  -129.71001951718853

   => Energetics <=

    Nuclear Repulsion Energy =             13.5521158246168607
    One-Electron Energy =                -204.2890517999988163
    Two-Electron Energy =                  73.3240964166242151
    DFT Exchange-Correlation Energy =     -12.2971799584307906
    Empirical Dispersion Energy =           0.0000000000000000
    VV10 Nonlocal Energy =                  0.0000000000000000
    Total Energy =                       -129.7100195171885275

  UHF NO Occupations:
  HONO-2 :    5 A1 1.5639362
  HONO-1 :    1 B2 1.1610420
  HONO-0 :    2 B1 1.0000000
  LUNO+0 :    2 B2 0.8389580
  LUNO+1 :    6 A1 0.4360638
  LUNO+2 :    7 A1 0.0012792
  LUNO+3 :    8 A1 0.0006995


Computation Completed


Properties will be evaluated at   0.000000,   0.000000,   0.000000 [a0]

Properties computed using the B3LYP density matrix


 Multipole Moments:

 ------------------------------------------------------------------------------------
     Multipole            Electronic (a.u.)      Nuclear  (a.u.)        Total (a.u.)
 ------------------------------------------------------------------------------------

 L = 1.  Multiply by 2.5417464519 to convert [e a0] to [Debye]
 Dipole X            :          0.0000000            0.0000000            0.0000000
 Dipole Y            :          0.0000000            0.0000000            0.0000000
 Dipole Z            :          0.2818187           -0.0082911            0.2735276
 Magnitude           :                                                    0.2735276

 L = 2.  Multiply by 1.3450342976 to convert [e a0^2] to [Debye ang]
 Quadrupole XX       :         -8.3773354            0.0000000           -8.3773354
 Quadrupole XY       :          0.0000000            0.0000000            0.0000000
 Quadrupole XZ       :          0.0000000            0.0000000            0.0000000
 Quadrupole YY       :         -7.5077229            0.0000000           -7.5077229
 Quadrupole YZ       :          0.0000000            0.0000000            0.0000000
 Quadrupole ZZ       :        -71.1986196           63.7468374           -7.4517821
 Traceless XX        :         20.6505572          -21.2489458           -0.5983886
 Traceless YY        :         21.5201697          -21.2489458            0.2712239
 Traceless ZZ        :        -42.1707269           42.4978916            0.3271647

 ------------------------------------------------------------------------------------
  ==> Computing MBIS Charges <==

  Electron Count from Grid (Expected Number): 15.00000 (15.00000)
  Difference:  0.00000

  MBIS Charges: (a.u.)
   Center  Symbol  Z      Pop.       Charge
      1       O    8    8.076277   -0.076277
      2       N    7    6.923725    0.076275

  MBIS Dipoles: [e a0]
   Center  Symbol  Z        X           Y           Z
      1       O    8    0.000000    0.000000   -0.039042
      2       N    7   -0.000000   -0.000000   -0.002616

  MBIS Quadrupoles: [e a0^2]
   Center  Symbol  Z      XX        XY        XZ        YY        YZ        ZZ
      1       O    8   -4.3870   -0.0000    0.0000   -3.5531   -0.0000   -3.7049
      2       N    7   -3.9904    0.0000    0.0000   -3.9547   -0.0000   -3.9725

  MBIS Octupoles: [e a0^3]
   Center  Symbol  Z      XXX       XXY       XXZ       XYY       XYZ       XZZ       YYY       YYZ       YZZ       ZZZ
      1       O    8    0.0000   -0.0000   -0.0149   -0.0000   -0.0000   -0.0000   -0.0000   -0.0695    0.0000   -0.3002
      2       N    7    0.0000   -0.0000    0.0776   -0.0000   -0.0000   -0.0000   -0.0000    0.0134   -0.0000    0.2332

  MBIS Radial Moments:
   Center  Symbol  Z      [a0^2]      [a0^3]      [a0^4]      
      1       O    8   11.644929   22.204793   50.726283
      2       N    7   11.917482   24.998836   62.644272

  MBIS Valence Widths: [a0]
   Center  Symbol  Z     Width
      1       O    8    0.389335
      2       N    7    0.436819


  MBIS Valence Charges: (a.u.)
   Center  Symbol  Z     Charge
      1       O    8   -6.435863
      2       N    7   -5.277548

*** tstop() called on cics-quant-001 at Tue Dec 23 13:45:09 2025
Module time:
	user time   =       0.51 seconds =       0.01 minutes
	system time =       0.05 seconds =       0.00 minutes
	total time  =          0 seconds =       0.00 minutes
Total time:
	user time   =       1.59 seconds =       0.03 minutes
	system time =       0.10 seconds =       0.00 minutes
	total time  =          1 seconds =       0.02 minutes

    Psi4 stopped on: Tuesday, 23 December 2025 01:45PM
    Psi4 wall time for execution: 0:00:00.70

*** Psi4 exiting successfully. Buy a developer a beer!
