
    -----------------------------------------------------------------------
          Psi4: An Open-Source Ab Initio Electronic Structure Package
                               Psi4 1.10 release

                         Git: Rev {} zzzzzzz 


    D. G. A. Smith, L. A. Burns, A. C. Simmonett, R. M. Parrish,
    M. C. Schieber, R. Galvelis, P. Kraus, H. Kruse, R. Di Remigio,
    A. Alenaizan, A. M. James, S. Lehtola, J. P. Misiewicz, M. Scheurer,
    R. A. Shaw, J. B. Schriber, Y. Xie, Z. L. Glick, D. A. Sirianni,
    J. S. O'Brien, J. M. Waldrop, A. Kumar, E. G. Hohenstein,
    B. P. Pritchard, B. R. Brooks, H. F. Schaefer III, A. Yu. Sokolov,
    K. Patkowski, A. E. DePrince III, U. Bozkaya, R. A. King,
    F. A. Evangelista, J. M. Turney, T. D. Crawford, C. D. Sherrill,
    J. Chem. Phys. 152(18) 184108 (2020). https://doi.org/10.1063/5.0006002

                            Additional Code Authors
    E. T. Seidl, C. L. Janssen, E. F. Valeev, M. L. Leininger,
    J. F. Gonthier, R. M. Richard, H. R. McAlexander, M. Saitow, X. Wang,
    P. Verma, M. H. Lechner, A. Jiang, S. Behnle, A. G. Heide,
    M. F. Herbst, D. L. Poole, T. Győri, E. C. Mitchell, J. P. Pederson,
    and A. M. Wallace

             Previous Authors, Complete List of Code Contributors,
                       and Citations for Specific Modules
    https://github.com/psi4/psi4/blob/master/codemeta.json
    https://github.com/psi4/psi4/graphs/contributors
    https://psicode.org/psi4manual/master/introduction.html#citing-psifour

    -----------------------------------------------------------------------


    Psi4 started on: Tuesday, 23 December 2025 01:40PM

    Process ID: 512941
    Host:       cics-quant-001
    PSIDATADIR: /home/jrodriguesro/psi4conda/share/psi4
    Memory:     500.0 MiB
    Threads:    5
    Addons:     adcc, a̶m̶b̶i̶t̶, b̶s̶e̶, c̶c̶t̶3̶, c̶f̶o̶u̶r̶, c̶h̶e̶m̶p̶s̶2̶, c̶p̶p̶e̶, ddx, dftd3, dftd4,
                dkh, ecpint, einsums, f̶o̶r̶t̶e̶, g̶a̶u̶x̶c̶, gcp, g̶d̶m̶a̶, geometric,
                g̶p̶u̶_̶d̶f̶c̶c̶, i̶n̶t̶e̶g̶r̶a̶t̶o̶r̶x̶x̶, i̶p̶i̶, libefp, m̶d̶i̶, m̶p̶2̶d̶,
                m̶r̶c̶c̶, ooo, o̶p̶e̶n̶f̶e̶r̶m̶i̶o̶n̶p̶s̶i̶4̶, pcmsolver, p̶s̶i̶4̶f̶o̶c̶k̶c̶i̶,
                p̶s̶i̶x̶a̶s̶, r̶e̶s̶p̶, s̶i̶m̶i̶n̶t̶, s̶n̶s̶m̶p̶2̶, v̶2̶r̶d̶m̶_̶c̶a̶s̶s̶c̶f̶

  ==> Input File <==

--------------------------------------------------------------------------
memory 8 Gb

molecule { 
0 2
C           0.000000           0.000000           0.000000
H           0.000000           0.000000           1.869012
}

set { 
basis              cc-pvtz
reference          uks
maxiter            500
DAMPING_PERCENTAGE 1
E_CONVERGENCE      1.0E-8
D_CONVERGENCE      1.0E-8
DIIS_MAX_VECS      400
MBIS_MAXITER       8000
guess              read
}

E, wfn = energy('b3lyp', restart_file='last_wfn', return_wfn=True)
properties('b3lyp','MBIS_CHARGES', wfn=wfn)
wfn.to_file('last_wfn')
--------------------------------------------------------------------------

  Memory set to   7.451 GiB by Python driver.

Scratch directory: /tmp/
 Found user provided orbital data. Setting orbital guess to READ 
 Copying restart file <last_wfn.npy> to </tmp/scan_HC_39.default.512941.180.npy> for internal processing
   => Libint2 <=

    Primary   basis highest AM E, G, H:  6, 6, 3
    Auxiliary basis highest AM E, G, H:  7, 7, 4
    Onebody   basis highest AM E, G, H:  -, -, -
    Solid Harmonics ordering:            Gaussian

*** tstart() called on cics-quant-001
*** at Tue Dec 23 13:40:16 2025

   => Loading Basis Set <=

    Name: CC-PVTZ
    Role: ORBITAL
    Keyword: BASIS
    atoms 1 entry C          line   186 file /home/jrodriguesro/psi4conda/share/psi4/basis/cc-pvtz.gbs 
    atoms 2 entry H          line    23 file /home/jrodriguesro/psi4conda/share/psi4/basis/cc-pvtz.gbs 


         ---------------------------------------------------------
                                   SCF
               by Justin Turney, Rob Parrish, Andy Simmonett
                          and Daniel G. A. Smith
                              UKS Reference
                        5 Threads,   7629 MiB Core
         ---------------------------------------------------------

  ==> Geometry <==

    Molecular point group: c2v
    Full point group: C_inf_v

    Geometry (in Angstrom), charge = 0, multiplicity = 2:

       Center              X                  Y                   Z               Mass       
    ------------   -----------------  -----------------  -----------------  -----------------
         C            0.000000000000     0.000000000000    -0.144807996300    12.000000000000
         H            0.000000000000     0.000000000000     1.724204003700     1.007825032230

  Running in c2v symmetry.

  Rotational constants: A = ************  B =      5.19052  C =      5.19052 [cm^-1]
  Rotational constants: A = ************  B = 155607.78444  C = 155607.78444 [MHz]
  Nuclear repulsion =    1.698792337352570

  Charge       = 0
  Multiplicity = 2
  Electrons    = 7
  Nalpha       = 4
  Nbeta        = 3

  ==> Algorithm <==

  SCF Algorithm Type is DF.
  DIIS enabled.
  MOM disabled.
  Fractional occupation disabled.
  Guess Type is READ.
  Energy threshold   = 1.00e-08
  Density threshold  = 1.00e-08
  Integral threshold = 1.00e-12

  ==> Primary Basis <==

  Basis Set: CC-PVTZ
    Blend: CC-PVTZ
    Number of shells: 16
    Number of basis functions: 44
    Number of Cartesian functions: 50
    Spherical Harmonics?: true
    Max angular momentum: 3

  ==> DFT Potential <==

   => LibXC <=

    Version 7.0.0
    S. Lehtola, C. Steigemann, M. J.T. Oliveira, and M. A.L. Marques.,  SoftwareX 7, 1–5 (2018) (10.1016/j.softx.2017.11.002)

   => Composite Functional: B3LYP <= 

    B3LYP Hyb-GGA Exchange-Correlation Functional

    P. J. Stephens, F. J. Devlin, C. F. Chabalowski, and M. J. Frisch.,  J. Phys. Chem. 98, 11623 (1994) (10.1021/j100096a001)

    Deriv               =              1
    GGA                 =           TRUE
    Meta                =          FALSE

    Exchange Hybrid     =           TRUE
    MP2 Hybrid          =          FALSE

   => Exchange Functionals <=

    0.0800   Slater exchange
    0.7200         Becke 88

   => Exact (HF) Exchange <=

    0.2000               HF 

   => Correlation Functionals <=

    0.1900   Vosko, Wilk & Nusair (VWN5_RPA)
    0.8100   Lee, Yang & Parr

   => LibXC Density Thresholds  <==

    XC_HYB_GGA_XC_B3LYP:  1.00E-15 

   => Molecular Quadrature <=

    Radial Scheme          =       TREUTLER
    Pruning Scheme         =           NONE
    Nuclear Scheme         =       TREUTLER

    Blocking Scheme        =         OCTREE
    BS radius alpha        =              1
    Pruning alpha          =              1
    Radial Points          =             75
    Spherical Points       =            302
    Total Points           =          43912
    Total Blocks           =            385
    Max Points             =            256
    Max Functions          =             44
    Weights Tolerance      =       1.00E-15

   => Loading Basis Set <=

    Name: (CC-PVTZ AUX)
    Role: JKFIT
    Keyword: DF_BASIS_SCF
    atoms 1 entry C          line   125 file /home/jrodriguesro/psi4conda/share/psi4/basis/cc-pvtz-jkfit.gbs 
    atoms 2 entry H          line    51 file /home/jrodriguesro/psi4conda/share/psi4/basis/cc-pvtz-jkfit.gbs 

   => Loading Basis Set <=

    Name: CC-PVTZ
    Role: ORBITAL
    Keyword: BASIS
    atoms 1 entry C          line   186 file /home/jrodriguesro/psi4conda/share/psi4/basis/cc-pvtz.gbs 
    atoms 2 entry H          line    23 file /home/jrodriguesro/psi4conda/share/psi4/basis/cc-pvtz.gbs 

  Reading orbitals from file /tmp/scan_HC_39.default.512941.180.npy, no projection.

  ==> Integral Setup <==

  DFHelper Memory: AOs need 0.002 GiB; user supplied 5.533 GiB. 
  SCF_SUBTYPE=INCORE selected. In-core MEM_DF algorithm will be used.
  Using in-core AOs.

  ==> MemDFJK: Density-Fitted J/K Matrices <==

    J tasked:                   Yes
    K tasked:                   Yes
    wK tasked:                   No
    OpenMP threads:               5
    Memory [MiB]:              5665
    Algorithm:                 Core
    Schwarz Cutoff:           1E-12
    Mask sparsity (%):       0.0000
    Fitting Condition:        1E-10

   => Auxiliary Basis Set <=

  Basis Set: (CC-PVTZ AUX)
    Blend: CC-PVTZ-JKFIT
    Number of shells: 35
    Number of basis functions: 109
    Number of Cartesian functions: 131
    Spherical Harmonics?: true
    Max angular momentum: 4

  Cached 100.0% of DFT collocation blocks in 0.055 [GiB].

  Minimum eigenvalue in the overlap matrix is 2.9711867737E-02.
  Reciprocal condition number of the overlap matrix is 9.0588922818E-03.
    Using symmetric orthogonalization.

  ==> Pre-Iterations <==

  SCF Guess: Orbitals guess was supplied from a previous computation.

   -------------------------------------------------------
    Irrep   Nso     Nmo     Nalpha   Nbeta   Ndocc  Nsocc
   -------------------------------------------------------
     A1        20      20       3       3       3       0
     A2         4       4       0       0       0       0
     B1        10      10       1       0       0       1
     B2        10      10       0       0       0       0
   -------------------------------------------------------
    Total      44      44       4       3       3       1
   -------------------------------------------------------

  ==> Iterations <==

                           Total Energy        Delta E     RMS |[F,P]|

   @DF-UKS iter   0:   -38.40472731144240   -3.84047e+01   5.53251e-04 
   @DF-UKS iter   1:   -38.40942323880435   -4.69593e-03   2.92931e-04 DIIS/ADIIS
   @DF-UKS iter   2:   -38.40937825392558    4.49849e-05   4.17586e-04 DIIS/ADIIS/DAMP=1%
   @DF-UKS iter   3:   -38.40969157944159   -3.13326e-04   8.96092e-05 DIIS/DAMP=1%
   @DF-UKS iter   4:   -38.40945038894665    2.41190e-04   4.04079e-05 DIIS/DAMP=1%
   @DF-UKS iter   5:   -38.40950014599580   -4.97570e-05   2.14376e-05 DIIS/DAMP=1%
   @DF-UKS iter   6:   -38.40950478523722   -4.63924e-06   4.90504e-06 DIIS/DAMP=1%
   @DF-UKS iter   7:   -38.40951443828117   -9.65304e-06   7.73700e-07 DIIS/DAMP=1%
   @DF-UKS iter   8:   -38.40951230138140    2.13690e-06   1.08277e-07 DIIS/DAMP=1%
   @DF-UKS iter   9:   -38.40951213429100    1.67090e-07   2.66090e-08 DIIS/DAMP=1%
   @DF-UKS iter  10:   -38.40951213704567   -2.75467e-09   6.29322e-09 DIIS/DAMP=1%
  Energy and wave function converged.


  ==> Post-Iterations <==

   Electrons on quadrature grid:
      Nalpha   =    3.9999999493 ; deviation = -5.070e-08
      Nbeta    =    2.9999999073 ; deviation = -9.269e-08
      Ntotal   =    6.9999998566 ; deviation = -1.434e-07 

   @Spin Contamination Metric:   8.256816910E-02
   @S^2 Expected:                7.500000000E-01
   @S^2 Observed:                8.325681691E-01
   @S   Expected:                5.000000000E-01
   @S   Observed:                5.000000000E-01

    Orbital Energies [Eh]
    ---------------------

    Alpha Occupied:                                                       

       1A1   -10.343681     2A1    -0.596311     3A1    -0.294902  
       1B1    -0.281163  

    Alpha Virtual:                                                        

       1B2    -0.165339     4A1    -0.074503     5A1     0.265349  
       2B1     0.277970     2B2     0.296437     6A1     0.308405  
       7A1     0.425986     3B1     0.541951     3B2     0.543799  
       1A2     0.646017     8A1     0.651479     9A1     0.708574  
       4B1     0.834424     4B2     0.836134    10A1     1.167700  
       5B1     1.880346     5B2     1.907757    11A1     1.939842  
      12A1     2.348149     6B1     2.580567     6B2     2.582900  
       7B1     2.622124     2A2     2.623154    13A1     2.623531  
       7B2     2.625037    14A1     2.629070     3A2     2.864504  
       8B1     2.875023    15A1     2.876863     8B2     2.891262  
      16A1     3.069226     4A2     3.232814    17A1     3.233027  
       9B2     3.419725     9B1     3.420023    18A1     3.650883  
      10B2     3.728466    10B1     3.729336    19A1     3.892651  
      20A1     4.408176  

    Beta Occupied:                                                        

       1A1   -10.324384     2A1    -0.528310     3A1    -0.292776  

    Beta Virtual:                                                         

       1B2    -0.145635     1B1    -0.097121     4A1    -0.066015  
       5A1     0.249194     2B2     0.303975     6A1     0.325203  
       2B1     0.332353     7A1     0.452036     3B2     0.538520  
       3B1     0.552175     8A1     0.684973     1A2     0.690095  
       9A1     0.718282     4B2     0.831658     4B1     0.851143  
      10A1     1.169466     5B2     1.920708    11A1     1.958318  
       5B1     1.965230    12A1     2.316204     6B2     2.595175  
       6B1     2.627216    13A1     2.633840     2A2     2.673042  
       7B2     2.680694    14A1     2.681965     7B1     2.682016  
       8B2     2.913960    15A1     2.939106     3A2     2.941523  
       8B1     2.955864    16A1     3.104164     4A2     3.197958  
      17A1     3.198019     9B2     3.391555     9B1     3.400209  
      18A1     3.652393    10B2     3.682536    10B1     3.687282  
      19A1     3.897122    20A1     4.389781  

    Final Occupation by Irrep:
             A1    A2    B1    B2 
    DOCC [     3,    0,    0,    0 ]
    SOCC [     0,    0,    1,    0 ]
    NA   [     3,    0,    1,    0 ]
    NB   [     3,    0,    0,    0 ]

  @DF-UKS Final Energy:   -38.40951213704567

   => Energetics <=

    Nuclear Repulsion Energy =              1.6987923373525695
    One-Electron Energy =                 -54.3522919416155688
    Two-Electron Energy =                  18.6755749654126184
    DFT Exchange-Correlation Energy =      -4.4315874981952890
    Empirical Dispersion Energy =           0.0000000000000000
    VV10 Nonlocal Energy =                  0.0000000000000000
    Total Energy =                        -38.4095121370456738

  UHF NO Occupations:
  HONO-2 :    2 A1 1.9990132
  HONO-1 :    3 A1 1.9588566
  HONO-0 :    1 B1 1.0000000
  LUNO+0 :    4 A1 0.0411434
  LUNO+1 :    5 A1 0.0009868
  LUNO+2 :    6 A1 0.0000008
  LUNO+3 :    7 A1 0.0000000


Computation Completed


Properties will be evaluated at   0.000000,   0.000000,   0.000000 [a0]

Properties computed using the SCF density matrix


 Multipole Moments:

 ------------------------------------------------------------------------------------
     Multipole            Electronic (a.u.)      Nuclear  (a.u.)        Total (a.u.)
 ------------------------------------------------------------------------------------

 L = 1.  Multiply by 2.5417464519 to convert [e a0] to [Debye]
 Dipole X            :          0.0000000            0.0000000            0.0000000
 Dipole Y            :          0.0000000            0.0000000            0.0000000
 Dipole Z            :         -1.6466392            1.6163886           -0.0302505
 Magnitude           :                                                    0.0302505

 ------------------------------------------------------------------------------------

*** tstop() called on cics-quant-001 at Tue Dec 23 13:40:17 2025
Module time:
	user time   =       0.82 seconds =       0.01 minutes
	system time =       0.04 seconds =       0.00 minutes
	total time  =          1 seconds =       0.02 minutes
Total time:
	user time   =       0.82 seconds =       0.01 minutes
	system time =       0.04 seconds =       0.00 minutes
	total time  =          1 seconds =       0.02 minutes

*** tstart() called on cics-quant-001
*** at Tue Dec 23 13:40:17 2025

   => Libint2 <=

    Primary   basis highest AM E, G, H:  6, 6, 3
    Auxiliary basis highest AM E, G, H:  7, 7, 4
    Onebody   basis highest AM E, G, H:  -, -, -
    Solid Harmonics ordering:            Gaussian
   => Loading Basis Set <=

    Name: CC-PVTZ
    Role: ORBITAL
    Keyword: BASIS
    atoms 1 entry C          line   186 file /home/jrodriguesro/psi4conda/share/psi4/basis/cc-pvtz.gbs 
    atoms 2 entry H          line    23 file /home/jrodriguesro/psi4conda/share/psi4/basis/cc-pvtz.gbs 


         ---------------------------------------------------------
                                   SCF
               by Justin Turney, Rob Parrish, Andy Simmonett
                          and Daniel G. A. Smith
                              UKS Reference
                        5 Threads,   7629 MiB Core
         ---------------------------------------------------------

  ==> Geometry <==

    Molecular point group: c2v
    Full point group: C_inf_v

    Geometry (in Angstrom), charge = 0, multiplicity = 2:

       Center              X                  Y                   Z               Mass       
    ------------   -----------------  -----------------  -----------------  -----------------
         C            0.000000000000     0.000000000000    -0.144807996300    12.000000000000
         H            0.000000000000     0.000000000000     1.724204003700     1.007825032230

  Running in c2v symmetry.

  Rotational constants: A = ************  B =      5.19052  C =      5.19052 [cm^-1]
  Rotational constants: A = ************  B = 155607.78444  C = 155607.78444 [MHz]
  Nuclear repulsion =    1.698792337352570

  Charge       = 0
  Multiplicity = 2
  Electrons    = 7
  Nalpha       = 4
  Nbeta        = 3

  ==> Algorithm <==

  SCF Algorithm Type is DF.
  DIIS enabled.
  MOM disabled.
  Fractional occupation disabled.
  Guess Type is READ.
  Energy threshold   = 1.00e-08
  Density threshold  = 1.00e-08
  Integral threshold = 1.00e-12

  ==> Primary Basis <==

  Basis Set: CC-PVTZ
    Blend: CC-PVTZ
    Number of shells: 16
    Number of basis functions: 44
    Number of Cartesian functions: 50
    Spherical Harmonics?: true
    Max angular momentum: 3

  ==> DFT Potential <==

   => LibXC <=

    Version 7.0.0
    S. Lehtola, C. Steigemann, M. J.T. Oliveira, and M. A.L. Marques.,  SoftwareX 7, 1–5 (2018) (10.1016/j.softx.2017.11.002)

   => Composite Functional: B3LYP <= 

    B3LYP Hyb-GGA Exchange-Correlation Functional

    P. J. Stephens, F. J. Devlin, C. F. Chabalowski, and M. J. Frisch.,  J. Phys. Chem. 98, 11623 (1994) (10.1021/j100096a001)

    Deriv               =              1
    GGA                 =           TRUE
    Meta                =          FALSE

    Exchange Hybrid     =           TRUE
    MP2 Hybrid          =          FALSE

   => Exchange Functionals <=

    0.0800   Slater exchange
    0.7200         Becke 88

   => Exact (HF) Exchange <=

    0.2000               HF 

   => Correlation Functionals <=

    0.1900   Vosko, Wilk & Nusair (VWN5_RPA)
    0.8100   Lee, Yang & Parr

   => LibXC Density Thresholds  <==

    XC_HYB_GGA_XC_B3LYP:  1.00E-15 

   => Molecular Quadrature <=

    Radial Scheme          =       TREUTLER
    Pruning Scheme         =           NONE
    Nuclear Scheme         =       TREUTLER

    Blocking Scheme        =         OCTREE
    BS radius alpha        =              1
    Pruning alpha          =              1
    Radial Points          =             75
    Spherical Points       =            302
    Total Points           =          43912
    Total Blocks           =            385
    Max Points             =            256
    Max Functions          =             44
    Weights Tolerance      =       1.00E-15

   => Loading Basis Set <=

    Name: (CC-PVTZ AUX)
    Role: JKFIT
    Keyword: DF_BASIS_SCF
    atoms 1 entry C          line   125 file /home/jrodriguesro/psi4conda/share/psi4/basis/cc-pvtz-jkfit.gbs 
    atoms 2 entry H          line    51 file /home/jrodriguesro/psi4conda/share/psi4/basis/cc-pvtz-jkfit.gbs 

   => Loading Basis Set <=

    Name: CC-PVTZ
    Role: ORBITAL
    Keyword: BASIS
    atoms 1 entry C          line   186 file /home/jrodriguesro/psi4conda/share/psi4/basis/cc-pvtz.gbs 
    atoms 2 entry H          line    23 file /home/jrodriguesro/psi4conda/share/psi4/basis/cc-pvtz.gbs 

  Reading orbitals from file /tmp/scan_HC_39.default.512941.180.npy, no projection.

  ==> Integral Setup <==

  DFHelper Memory: AOs need 0.002 GiB; user supplied 5.533 GiB. 
  SCF_SUBTYPE=INCORE selected. In-core MEM_DF algorithm will be used.
  Using in-core AOs.

  ==> MemDFJK: Density-Fitted J/K Matrices <==

    J tasked:                   Yes
    K tasked:                   Yes
    wK tasked:                   No
    OpenMP threads:               5
    Memory [MiB]:              5665
    Algorithm:                 Core
    Schwarz Cutoff:           1E-12
    Mask sparsity (%):       0.0000
    Fitting Condition:        1E-10

   => Auxiliary Basis Set <=

  Basis Set: (CC-PVTZ AUX)
    Blend: CC-PVTZ-JKFIT
    Number of shells: 35
    Number of basis functions: 109
    Number of Cartesian functions: 131
    Spherical Harmonics?: true
    Max angular momentum: 4

  Cached 100.0% of DFT collocation blocks in 0.055 [GiB].

  Minimum eigenvalue in the overlap matrix is 2.9711867737E-02.
  Reciprocal condition number of the overlap matrix is 9.0588922818E-03.
    Using symmetric orthogonalization.

  ==> Pre-Iterations <==

  SCF Guess: Orbitals guess was supplied from a previous computation.

   -------------------------------------------------------
    Irrep   Nso     Nmo     Nalpha   Nbeta   Ndocc  Nsocc
   -------------------------------------------------------
     A1        20      20       3       3       3       0
     A2         4       4       0       0       0       0
     B1        10      10       1       0       0       1
     B2        10      10       0       0       0       0
   -------------------------------------------------------
    Total      44      44       4       3       3       1
   -------------------------------------------------------

  ==> Iterations <==

                           Total Energy        Delta E     RMS |[F,P]|

   @DF-UKS iter   0:   -38.40951214102390   -3.84095e+01   2.22434e-09 
   @DF-UKS iter   1:   -38.40951214102396   -6.39488e-14   1.99873e-09 DIIS
  Energy and wave function converged.


  ==> Post-Iterations <==

   Electrons on quadrature grid:
      Nalpha   =    3.9999999493 ; deviation = -5.070e-08
      Nbeta    =    2.9999999073 ; deviation = -9.269e-08
      Ntotal   =    6.9999998566 ; deviation = -1.434e-07 

   @Spin Contamination Metric:   8.256787845E-02
   @S^2 Expected:                7.500000000E-01
   @S^2 Observed:                8.325678784E-01
   @S   Expected:                5.000000000E-01
   @S   Observed:                5.000000000E-01

    Orbital Energies [Eh]
    ---------------------

    Alpha Occupied:                                                       

       1A1   -10.343681     2A1    -0.596311     3A1    -0.294902  
       1B1    -0.281163  

    Alpha Virtual:                                                        

       1B2    -0.165339     4A1    -0.074503     5A1     0.265349  
       2B1     0.277970     2B2     0.296437     6A1     0.308405  
       7A1     0.425986     3B1     0.541951     3B2     0.543799  
       1A2     0.646017     8A1     0.651479     9A1     0.708574  
       4B1     0.834424     4B2     0.836134    10A1     1.167700  
       5B1     1.880346     5B2     1.907757    11A1     1.939842  
      12A1     2.348149     6B1     2.580567     6B2     2.582900  
       7B1     2.622124     2A2     2.623154    13A1     2.623531  
       7B2     2.625037    14A1     2.629070     3A2     2.864504  
       8B1     2.875023    15A1     2.876863     8B2     2.891262  
      16A1     3.069226     4A2     3.232814    17A1     3.233027  
       9B2     3.419725     9B1     3.420023    18A1     3.650883  
      10B2     3.728466    10B1     3.729336    19A1     3.892651  
      20A1     4.408176  

    Beta Occupied:                                                        

       1A1   -10.324384     2A1    -0.528310     3A1    -0.292776  

    Beta Virtual:                                                         

       1B2    -0.145635     1B1    -0.097121     4A1    -0.066015  
       5A1     0.249194     2B2     0.303975     6A1     0.325203  
       2B1     0.332353     7A1     0.452036     3B2     0.538520  
       3B1     0.552175     8A1     0.684973     1A2     0.690095  
       9A1     0.718282     4B2     0.831658     4B1     0.851143  
      10A1     1.169466     5B2     1.920708    11A1     1.958318  
       5B1     1.965230    12A1     2.316204     6B2     2.595175  
       6B1     2.627216    13A1     2.633840     2A2     2.673042  
       7B2     2.680694    14A1     2.681965     7B1     2.682016  
       8B2     2.913960    15A1     2.939106     3A2     2.941523  
       8B1     2.955864    16A1     3.104164     4A2     3.197958  
      17A1     3.198019     9B2     3.391555     9B1     3.400209  
      18A1     3.652393    10B2     3.682536    10B1     3.687282  
      19A1     3.897122    20A1     4.389781  

    Final Occupation by Irrep:
             A1    A2    B1    B2 
    DOCC [     3,    0,    0,    0 ]
    SOCC [     0,    0,    1,    0 ]
    NA   [     3,    0,    1,    0 ]
    NB   [     3,    0,    0,    0 ]

  @DF-UKS Final Energy:   -38.40951214102396

   => Energetics <=

    Nuclear Repulsion Energy =              1.6987923373525695
    One-Electron Energy =                 -54.3522920244702945
    Two-Electron Energy =                  18.6755752058697198
    DFT Exchange-Correlation Energy =      -4.4315876597759569
    Empirical Dispersion Energy =           0.0000000000000000
    VV10 Nonlocal Energy =                  0.0000000000000000
    Total Energy =                        -38.4095121410239599

  UHF NO Occupations:
  HONO-2 :    2 A1 1.9990132
  HONO-1 :    3 A1 1.9588568
  HONO-0 :    1 B1 1.0000000
  LUNO+0 :    4 A1 0.0411432
  LUNO+1 :    5 A1 0.0009868
  LUNO+2 :    6 A1 0.0000008
  LUNO+3 :    2 B1 0.0000000


Computation Completed


Properties will be evaluated at   0.000000,   0.000000,   0.000000 [a0]

Properties computed using the B3LYP density matrix


 Multipole Moments:

 ------------------------------------------------------------------------------------
     Multipole            Electronic (a.u.)      Nuclear  (a.u.)        Total (a.u.)
 ------------------------------------------------------------------------------------

 L = 1.  Multiply by 2.5417464519 to convert [e a0] to [Debye]
 Dipole X            :          0.0000000            0.0000000            0.0000000
 Dipole Y            :          0.0000000            0.0000000            0.0000000
 Dipole Z            :         -1.6466393            1.6163886           -0.0302506
 Magnitude           :                                                    0.0302506

 L = 2.  Multiply by 1.3450342976 to convert [e a0^2] to [Debye ang]
 Quadrupole XX       :         -6.1103293            0.0000000           -6.1103293
 Quadrupole XY       :          0.0000000            0.0000000            0.0000000
 Quadrupole XZ       :          0.0000000            0.0000000            0.0000000
 Quadrupole YY       :         -4.6945556            0.0000000           -4.6945556
 Quadrupole YZ       :          0.0000000            0.0000000            0.0000000
 Quadrupole ZZ       :        -17.2245115           11.0656428           -6.1588687
 Traceless XX        :          3.2328028           -3.6885476           -0.4557448
 Traceless YY        :          4.6485765           -3.6885476            0.9600289
 Traceless ZZ        :         -7.8813794            7.3770952           -0.5042842

 ------------------------------------------------------------------------------------
  ==> Computing MBIS Charges <==

  Electron Count from Grid (Expected Number):  7.00000 ( 7.00000)
  Difference: -0.00000

  MBIS Charges: (a.u.)
   Center  Symbol  Z      Pop.       Charge
      1       C    6    5.935658    0.064342
      2       H    1    1.064342   -0.064342

  MBIS Dipoles: [e a0]
   Center  Symbol  Z        X           Y           Z
      1       C    6    0.000000   -0.000000    0.079251
      2       H    1    0.000000    0.000000    0.117750

  MBIS Quadrupoles: [e a0^2]
   Center  Symbol  Z      XX        XY        XZ        YY        YZ        ZZ
      1       C    6   -4.9772    0.0000    0.0000   -3.6181    0.0000   -5.1078
      2       H    1   -1.1331   -0.0000    0.0000   -1.0764   -0.0000   -1.0968

  MBIS Octupoles: [e a0^3]
   Center  Symbol  Z      XXX       XXY       XXZ       XYY       XYZ       XZZ       YYY       YYZ       YZZ       ZZZ
      1       C    6   -0.0000    0.0000    0.0366   -0.0000   -0.0000   -0.0000    0.0000   -0.0367   -0.0000   -0.2123
      2       H    1   -0.0000   -0.0000    0.0994    0.0000   -0.0000   -0.0000   -0.0000    0.0092   -0.0000    0.2263

  MBIS Radial Moments:
   Center  Symbol  Z      [a0^2]      [a0^3]      [a0^4]      
      1       C    6   13.703092   33.944934   100.260727
      2       H    1    3.306351    8.250272   24.383473

  MBIS Valence Widths: [a0]
   Center  Symbol  Z     Width
      1       C    6    0.523171
      2       H    1    0.512117


  MBIS Valence Charges: (a.u.)
   Center  Symbol  Z     Charge
      1       C    6   -4.251608
      2       H    1   -1.064342

*** tstop() called on cics-quant-001 at Tue Dec 23 13:40:17 2025
Module time:
	user time   =       0.42 seconds =       0.01 minutes
	system time =       0.04 seconds =       0.00 minutes
	total time  =          0 seconds =       0.00 minutes
Total time:
	user time   =       1.25 seconds =       0.02 minutes
	system time =       0.08 seconds =       0.00 minutes
	total time  =          1 seconds =       0.02 minutes

    Psi4 stopped on: Tuesday, 23 December 2025 01:40PM
    Psi4 wall time for execution: 0:00:00.55

*** Psi4 exiting successfully. Buy a developer a beer!
