
    -----------------------------------------------------------------------
          Psi4: An Open-Source Ab Initio Electronic Structure Package
                               Psi4 1.10 release

                         Git: Rev {} zzzzzzz 


    D. G. A. Smith, L. A. Burns, A. C. Simmonett, R. M. Parrish,
    M. C. Schieber, R. Galvelis, P. Kraus, H. Kruse, R. Di Remigio,
    A. Alenaizan, A. M. James, S. Lehtola, J. P. Misiewicz, M. Scheurer,
    R. A. Shaw, J. B. Schriber, Y. Xie, Z. L. Glick, D. A. Sirianni,
    J. S. O'Brien, J. M. Waldrop, A. Kumar, E. G. Hohenstein,
    B. P. Pritchard, B. R. Brooks, H. F. Schaefer III, A. Yu. Sokolov,
    K. Patkowski, A. E. DePrince III, U. Bozkaya, R. A. King,
    F. A. Evangelista, J. M. Turney, T. D. Crawford, C. D. Sherrill,
    J. Chem. Phys. 152(18) 184108 (2020). https://doi.org/10.1063/5.0006002

                            Additional Code Authors
    E. T. Seidl, C. L. Janssen, E. F. Valeev, M. L. Leininger,
    J. F. Gonthier, R. M. Richard, H. R. McAlexander, M. Saitow, X. Wang,
    P. Verma, M. H. Lechner, A. Jiang, S. Behnle, A. G. Heide,
    M. F. Herbst, D. L. Poole, T. Győri, E. C. Mitchell, J. P. Pederson,
    and A. M. Wallace

             Previous Authors, Complete List of Code Contributors,
                       and Citations for Specific Modules
    https://github.com/psi4/psi4/blob/master/codemeta.json
    https://github.com/psi4/psi4/graphs/contributors
    https://psicode.org/psi4manual/master/introduction.html#citing-psifour

    -----------------------------------------------------------------------


    Psi4 started on: Tuesday, 23 December 2025 01:43PM

    Process ID: 531727
    Host:       cics-quant-001
    PSIDATADIR: /home/jrodriguesro/psi4conda/share/psi4
    Memory:     500.0 MiB
    Threads:    5
    Addons:     adcc, a̶m̶b̶i̶t̶, b̶s̶e̶, c̶c̶t̶3̶, c̶f̶o̶u̶r̶, c̶h̶e̶m̶p̶s̶2̶, c̶p̶p̶e̶, ddx, dftd3, dftd4,
                dkh, ecpint, einsums, f̶o̶r̶t̶e̶, g̶a̶u̶x̶c̶, gcp, g̶d̶m̶a̶, geometric,
                g̶p̶u̶_̶d̶f̶c̶c̶, i̶n̶t̶e̶g̶r̶a̶t̶o̶r̶x̶x̶, i̶p̶i̶, libefp, m̶d̶i̶, m̶p̶2̶d̶,
                m̶r̶c̶c̶, ooo, o̶p̶e̶n̶f̶e̶r̶m̶i̶o̶n̶p̶s̶i̶4̶, pcmsolver, p̶s̶i̶4̶f̶o̶c̶k̶c̶i̶,
                p̶s̶i̶x̶a̶s̶, r̶e̶s̶p̶, s̶i̶m̶i̶n̶t̶, s̶n̶s̶m̶p̶2̶, v̶2̶r̶d̶m̶_̶c̶a̶s̶s̶c̶f̶

  ==> Input File <==

--------------------------------------------------------------------------
memory 8 Gb

molecule { 
0 1
O           0.000000           0.000000           0.000000
C           0.000000           0.000000           0.700959
}

set { 
basis              cc-pvtz
reference          uks
maxiter            500
DAMPING_PERCENTAGE 1
E_CONVERGENCE      1.0E-8
D_CONVERGENCE      1.0E-8
DIIS_MAX_VECS      400
MBIS_MAXITER       8000
guess              read
}

E, wfn = energy('b3lyp', restart_file='last_wfn', return_wfn=True)
properties('b3lyp','MBIS_CHARGES', wfn=wfn)
wfn.to_file('last_wfn')
--------------------------------------------------------------------------

  Memory set to   7.451 GiB by Python driver.

Scratch directory: /tmp/
 Found user provided orbital data. Setting orbital guess to READ 
 Copying restart file <last_wfn.npy> to </tmp/scan_CO_5.default.531727.180.npy> for internal processing
   => Libint2 <=

    Primary   basis highest AM E, G, H:  6, 6, 3
    Auxiliary basis highest AM E, G, H:  7, 7, 4
    Onebody   basis highest AM E, G, H:  -, -, -
    Solid Harmonics ordering:            Gaussian

*** tstart() called on cics-quant-001
*** at Tue Dec 23 13:43:21 2025

   => Loading Basis Set <=

    Name: CC-PVTZ
    Role: ORBITAL
    Keyword: BASIS
    atoms 1 entry O          line   262 file /home/jrodriguesro/psi4conda/share/psi4/basis/cc-pvtz.gbs 
    atoms 2 entry C          line   186 file /home/jrodriguesro/psi4conda/share/psi4/basis/cc-pvtz.gbs 


         ---------------------------------------------------------
                                   SCF
               by Justin Turney, Rob Parrish, Andy Simmonett
                          and Daniel G. A. Smith
                              UKS Reference
                        5 Threads,   7629 MiB Core
         ---------------------------------------------------------

  ==> Geometry <==

    Molecular point group: c2v
    Full point group: C_inf_v

    Geometry (in Angstrom), charge = 0, multiplicity = 1:

       Center              X                  Y                   Z               Mass       
    ------------   -----------------  -----------------  -----------------  -----------------
         O            0.000000000000     0.000000000000    -0.300465570776    15.994914619570
         C            0.000000000000     0.000000000000     0.400493429224    12.000000000000

  Running in c2v symmetry.

  Rotational constants: A = ************  B =      5.00411  C =      5.00411 [cm^-1]
  Rotational constants: A = ************  B = 150019.57883  C = 150019.57883 [MHz]
  Nuclear repulsion =   36.236792896817079

  Charge       = 0
  Multiplicity = 1
  Electrons    = 14
  Nalpha       = 7
  Nbeta        = 7

  ==> Algorithm <==

  SCF Algorithm Type is DF.
  DIIS enabled.
  MOM disabled.
  Fractional occupation disabled.
  Guess Type is READ.
  Energy threshold   = 1.00e-08
  Density threshold  = 1.00e-08
  Integral threshold = 1.00e-12

  ==> Primary Basis <==

  Basis Set: CC-PVTZ
    Blend: CC-PVTZ
    Number of shells: 20
    Number of basis functions: 60
    Number of Cartesian functions: 70
    Spherical Harmonics?: true
    Max angular momentum: 3

  ==> DFT Potential <==

   => LibXC <=

    Version 7.0.0
    S. Lehtola, C. Steigemann, M. J.T. Oliveira, and M. A.L. Marques.,  SoftwareX 7, 1–5 (2018) (10.1016/j.softx.2017.11.002)

   => Composite Functional: B3LYP <= 

    B3LYP Hyb-GGA Exchange-Correlation Functional

    P. J. Stephens, F. J. Devlin, C. F. Chabalowski, and M. J. Frisch.,  J. Phys. Chem. 98, 11623 (1994) (10.1021/j100096a001)

    Deriv               =              1
    GGA                 =           TRUE
    Meta                =          FALSE

    Exchange Hybrid     =           TRUE
    MP2 Hybrid          =          FALSE

   => Exchange Functionals <=

    0.0800   Slater exchange
    0.7200         Becke 88

   => Exact (HF) Exchange <=

    0.2000               HF 

   => Correlation Functionals <=

    0.1900   Vosko, Wilk & Nusair (VWN5_RPA)
    0.8100   Lee, Yang & Parr

   => LibXC Density Thresholds  <==

    XC_HYB_GGA_XC_B3LYP:  1.00E-15 

   => Molecular Quadrature <=

    Radial Scheme          =       TREUTLER
    Pruning Scheme         =           NONE
    Nuclear Scheme         =       TREUTLER

    Blocking Scheme        =         OCTREE
    BS radius alpha        =              1
    Pruning alpha          =              1
    Radial Points          =             75
    Spherical Points       =            302
    Total Points           =          43197
    Total Blocks           =            387
    Max Points             =            256
    Max Functions          =             60
    Weights Tolerance      =       1.00E-15

   => Loading Basis Set <=

    Name: (CC-PVTZ AUX)
    Role: JKFIT
    Keyword: DF_BASIS_SCF
    atoms 1 entry O          line   229 file /home/jrodriguesro/psi4conda/share/psi4/basis/cc-pvtz-jkfit.gbs 
    atoms 2 entry C          line   125 file /home/jrodriguesro/psi4conda/share/psi4/basis/cc-pvtz-jkfit.gbs 

   => Loading Basis Set <=

    Name: CC-PVTZ
    Role: ORBITAL
    Keyword: BASIS
    atoms 1 entry O          line   262 file /home/jrodriguesro/psi4conda/share/psi4/basis/cc-pvtz.gbs 
    atoms 2 entry C          line   186 file /home/jrodriguesro/psi4conda/share/psi4/basis/cc-pvtz.gbs 

  Reading orbitals from file /tmp/scan_CO_5.default.531727.180.npy, no projection.

  ==> Integral Setup <==

  DFHelper Memory: AOs need 0.005 GiB; user supplied 5.516 GiB. 
  SCF_SUBTYPE=INCORE selected. In-core MEM_DF algorithm will be used.
  Using in-core AOs.

  ==> MemDFJK: Density-Fitted J/K Matrices <==

    J tasked:                   Yes
    K tasked:                   Yes
    wK tasked:                   No
    OpenMP threads:               5
    Memory [MiB]:              5648
    Algorithm:                 Core
    Schwarz Cutoff:           1E-12
    Mask sparsity (%):       0.0000
    Fitting Condition:        1E-10

   => Auxiliary Basis Set <=

  Basis Set: (CC-PVTZ AUX)
    Blend: CC-PVTZ-JKFIT
    Number of shells: 50
    Number of basis functions: 158
    Number of Cartesian functions: 192
    Spherical Harmonics?: true
    Max angular momentum: 4

  Cached 100.0% of DFT collocation blocks in 0.072 [GiB].

  Minimum eigenvalue in the overlap matrix is 2.0161209965E-03.
  Reciprocal condition number of the overlap matrix is 4.6722167680E-04.
    Using symmetric orthogonalization.

  ==> Pre-Iterations <==

  SCF Guess: Orbitals guess was supplied from a previous computation.

   -------------------------------------------------------
    Irrep   Nso     Nmo     Nalpha   Nbeta   Ndocc  Nsocc
   -------------------------------------------------------
     A1        26      26       5       5       5       0
     A2         6       6       0       0       0       0
     B1        14      14       1       1       1       0
     B2        14      14       1       1       1       0
   -------------------------------------------------------
    Total      60      60       7       7       7       0
   -------------------------------------------------------

  ==> Iterations <==

                           Total Energy        Delta E     RMS |[F,P]|

   @DF-UKS iter   0:  -112.07167832911603   -1.12072e+02   1.16737e-02 
   @DF-UKS iter   1:  -112.06157514415752    1.01032e-02   2.13654e-03 ADIIS/DIIS
   @DF-UKS iter   2:  -112.06217820227459   -6.03058e-04   1.49340e-03 ADIIS/DIIS/DAMP=1%
   @DF-UKS iter   3:  -112.06161582547669    5.62377e-04   5.12646e-05 DIIS/DAMP=1%
   @DF-UKS iter   4:  -112.06301928456149   -1.40346e-03   1.44925e-05 DIIS/DAMP=1%
   @DF-UKS iter   5:  -112.06296112041562    5.81641e-05   2.97468e-06 DIIS/DAMP=1%
   @DF-UKS iter   6:  -112.06296790468772   -6.78427e-06   2.34981e-07 DIIS/DAMP=1%
   @DF-UKS iter   7:  -112.06296856033259   -6.55645e-07   9.33479e-09 DIIS/DAMP=1%
   @DF-UKS iter   8:  -112.06296881595915   -2.55627e-07   8.87089e-10 DIIS/DAMP=1%
   @DF-UKS iter   9:  -112.06296880705943    8.89972e-09   3.43838e-11 DIIS/DAMP=1%
  Energy and wave function converged.


  ==> Post-Iterations <==

   Electrons on quadrature grid:
      Nalpha   =    7.0000000477 ; deviation = 4.767e-08
      Nbeta    =    7.0000000477 ; deviation = 4.767e-08
      Ntotal   =   14.0000000953 ; deviation = 9.534e-08 

   @Spin Contamination Metric:  -3.552713679E-15
   @S^2 Expected:                0.000000000E+00
   @S^2 Observed:               -3.552713679E-15
   @S   Expected:                0.000000000E+00
   @S   Observed:                0.000000000E+00

    Orbital Energies [Eh]
    ---------------------

    Alpha Occupied:                                                       

       1A1   -19.208203     2A1   -10.207736     3A1    -1.302540  
       1B2    -0.706305     1B1    -0.706305     4A1    -0.563600  
       5A1    -0.326426  

    Alpha Virtual:                                                        

       2B2     0.133581     2B1     0.133581     6A1     0.170753  
       7A1     0.301055     3B1     0.327625     3B2     0.327625  
       8A1     0.552609     4B2     0.623517     4B1     0.623517  
       9A1     0.634153     1A2     0.634153    10A1     0.880582  
       5B1     1.083329     5B2     1.083329    11A1     1.342563  
       6B1     1.602346     6B2     1.602346    12A1     1.635227  
       2A2     1.635227    13A1     1.782961    14A1     2.336074  
       7B1     2.345942     7B2     2.345942     8B1     2.635226  
       8B2     2.635226    15A1     2.804565     3A2     2.876489  
      16A1     2.876489     9B1     3.077776     9B2     3.077776  
       4A2     3.201824    17A1     3.201824    18A1     3.223071  
      10B1     4.027859    10B2     4.027859    11B1     4.260555  
      11B2     4.260555    19A1     4.464496    12B2     5.272730  
      12B1     5.272730    20A1     5.865470    21A1     6.205374  
       5A2     6.205375    22A1     6.519081     6A2     6.519081  
      13B1     6.622234    13B2     6.622234    23A1     6.668188  
      24A1     7.628174    14B1     7.846287    14B2     7.846287  
      25A1    10.242349    26A1    17.799972  

    Beta Occupied:                                                        

       1A1   -19.208203     2A1   -10.207736     3A1    -1.302540  
       1B2    -0.706305     1B1    -0.706305     4A1    -0.563600  
       5A1    -0.326426  

    Beta Virtual:                                                         

       2B2     0.133581     2B1     0.133581     6A1     0.170753  
       7A1     0.301055     3B1     0.327625     3B2     0.327625  
       8A1     0.552609     4B2     0.623517     4B1     0.623517  
       9A1     0.634153     1A2     0.634153    10A1     0.880582  
       5B1     1.083329     5B2     1.083329    11A1     1.342563  
       6B1     1.602346     6B2     1.602346    12A1     1.635227  
       2A2     1.635227    13A1     1.782961    14A1     2.336074  
       7B1     2.345942     7B2     2.345942     8B1     2.635226  
       8B2     2.635226    15A1     2.804565     3A2     2.876489  
      16A1     2.876489     9B1     3.077776     9B2     3.077776  
       4A2     3.201824    17A1     3.201824    18A1     3.223071  
      10B1     4.027859    10B2     4.027859    11B1     4.260555  
      11B2     4.260555    19A1     4.464496    12B2     5.272730  
      12B1     5.272730    20A1     5.865470    21A1     6.205374  
       5A2     6.205375    22A1     6.519081     6A2     6.519081  
      13B1     6.622234    13B2     6.622234    23A1     6.668188  
      24A1     7.628174    14B1     7.846287    14B2     7.846287  
      25A1    10.242349    26A1    17.799972  

    Final Occupation by Irrep:
             A1    A2    B1    B2 
    DOCC [     5,    0,    1,    1 ]
    SOCC [     0,    0,    0,    0 ]
    NA   [     5,    0,    1,    1 ]
    NB   [     5,    0,    1,    1 ]

  @DF-UKS Final Energy:  -112.06296880705943

   => Energetics <=

    Nuclear Repulsion Energy =             36.2367928968170787
    One-Electron Energy =                -222.0369679312693734
    Two-Electron Energy =                  85.6112845149886112
    DFT Exchange-Correlation Energy =     -11.8740782875957347
    Empirical Dispersion Energy =           0.0000000000000000
    VV10 Nonlocal Energy =                  0.0000000000000000
    Total Energy =                       -112.0629688070594341

  UHF NO Occupations:
  HONO-2 :    3 A1 2.0000000
  HONO-1 :    4 A1 2.0000000
  HONO-0 :    5 A1 2.0000000
  LUNO+0 :    6 A1 0.0000000
  LUNO+1 :    7 A1 0.0000000
  LUNO+2 :    8 A1 0.0000000
  LUNO+3 :    9 A1 0.0000000


Computation Completed


Properties will be evaluated at   0.000000,   0.000000,   0.000000 [a0]

Properties computed using the SCF density matrix


 Multipole Moments:

 ------------------------------------------------------------------------------------
     Multipole            Electronic (a.u.)      Nuclear  (a.u.)        Total (a.u.)
 ------------------------------------------------------------------------------------

 L = 1.  Multiply by 2.5417464519 to convert [e a0] to [Debye]
 Dipole X            :          0.0000000            0.0000000            0.0000000
 Dipole Y            :          0.0000000            0.0000000            0.0000000
 Dipole Z            :         -0.5318372           -0.0014437           -0.5332809
 Magnitude           :                                                    0.5332809

 ------------------------------------------------------------------------------------

*** tstop() called on cics-quant-001 at Tue Dec 23 13:43:21 2025
Module time:
	user time   =       1.08 seconds =       0.02 minutes
	system time =       0.06 seconds =       0.00 minutes
	total time  =          0 seconds =       0.00 minutes
Total time:
	user time   =       1.08 seconds =       0.02 minutes
	system time =       0.06 seconds =       0.00 minutes
	total time  =          0 seconds =       0.00 minutes

*** tstart() called on cics-quant-001
*** at Tue Dec 23 13:43:21 2025

   => Libint2 <=

    Primary   basis highest AM E, G, H:  6, 6, 3
    Auxiliary basis highest AM E, G, H:  7, 7, 4
    Onebody   basis highest AM E, G, H:  -, -, -
    Solid Harmonics ordering:            Gaussian
   => Loading Basis Set <=

    Name: CC-PVTZ
    Role: ORBITAL
    Keyword: BASIS
    atoms 1 entry O          line   262 file /home/jrodriguesro/psi4conda/share/psi4/basis/cc-pvtz.gbs 
    atoms 2 entry C          line   186 file /home/jrodriguesro/psi4conda/share/psi4/basis/cc-pvtz.gbs 


         ---------------------------------------------------------
                                   SCF
               by Justin Turney, Rob Parrish, Andy Simmonett
                          and Daniel G. A. Smith
                              UKS Reference
                        5 Threads,   7629 MiB Core
         ---------------------------------------------------------

  ==> Geometry <==

    Molecular point group: c2v
    Full point group: C_inf_v

    Geometry (in Angstrom), charge = 0, multiplicity = 1:

       Center              X                  Y                   Z               Mass       
    ------------   -----------------  -----------------  -----------------  -----------------
         O            0.000000000000     0.000000000000    -0.300465570776    15.994914619570
         C            0.000000000000     0.000000000000     0.400493429224    12.000000000000

  Running in c2v symmetry.

  Rotational constants: A = ************  B =      5.00411  C =      5.00411 [cm^-1]
  Rotational constants: A = ************  B = 150019.57883  C = 150019.57883 [MHz]
  Nuclear repulsion =   36.236792896817079

  Charge       = 0
  Multiplicity = 1
  Electrons    = 14
  Nalpha       = 7
  Nbeta        = 7

  ==> Algorithm <==

  SCF Algorithm Type is DF.
  DIIS enabled.
  MOM disabled.
  Fractional occupation disabled.
  Guess Type is READ.
  Energy threshold   = 1.00e-08
  Density threshold  = 1.00e-08
  Integral threshold = 1.00e-12

  ==> Primary Basis <==

  Basis Set: CC-PVTZ
    Blend: CC-PVTZ
    Number of shells: 20
    Number of basis functions: 60
    Number of Cartesian functions: 70
    Spherical Harmonics?: true
    Max angular momentum: 3

  ==> DFT Potential <==

   => LibXC <=

    Version 7.0.0
    S. Lehtola, C. Steigemann, M. J.T. Oliveira, and M. A.L. Marques.,  SoftwareX 7, 1–5 (2018) (10.1016/j.softx.2017.11.002)

   => Composite Functional: B3LYP <= 

    B3LYP Hyb-GGA Exchange-Correlation Functional

    P. J. Stephens, F. J. Devlin, C. F. Chabalowski, and M. J. Frisch.,  J. Phys. Chem. 98, 11623 (1994) (10.1021/j100096a001)

    Deriv               =              1
    GGA                 =           TRUE
    Meta                =          FALSE

    Exchange Hybrid     =           TRUE
    MP2 Hybrid          =          FALSE

   => Exchange Functionals <=

    0.0800   Slater exchange
    0.7200         Becke 88

   => Exact (HF) Exchange <=

    0.2000               HF 

   => Correlation Functionals <=

    0.1900   Vosko, Wilk & Nusair (VWN5_RPA)
    0.8100   Lee, Yang & Parr

   => LibXC Density Thresholds  <==

    XC_HYB_GGA_XC_B3LYP:  1.00E-15 

   => Molecular Quadrature <=

    Radial Scheme          =       TREUTLER
    Pruning Scheme         =           NONE
    Nuclear Scheme         =       TREUTLER

    Blocking Scheme        =         OCTREE
    BS radius alpha        =              1
    Pruning alpha          =              1
    Radial Points          =             75
    Spherical Points       =            302
    Total Points           =          43197
    Total Blocks           =            387
    Max Points             =            256
    Max Functions          =             60
    Weights Tolerance      =       1.00E-15

   => Loading Basis Set <=

    Name: (CC-PVTZ AUX)
    Role: JKFIT
    Keyword: DF_BASIS_SCF
    atoms 1 entry O          line   229 file /home/jrodriguesro/psi4conda/share/psi4/basis/cc-pvtz-jkfit.gbs 
    atoms 2 entry C          line   125 file /home/jrodriguesro/psi4conda/share/psi4/basis/cc-pvtz-jkfit.gbs 

   => Loading Basis Set <=

    Name: CC-PVTZ
    Role: ORBITAL
    Keyword: BASIS
    atoms 1 entry O          line   262 file /home/jrodriguesro/psi4conda/share/psi4/basis/cc-pvtz.gbs 
    atoms 2 entry C          line   186 file /home/jrodriguesro/psi4conda/share/psi4/basis/cc-pvtz.gbs 

  Reading orbitals from file /tmp/scan_CO_5.default.531727.180.npy, no projection.

  ==> Integral Setup <==

  DFHelper Memory: AOs need 0.005 GiB; user supplied 5.516 GiB. 
  SCF_SUBTYPE=INCORE selected. In-core MEM_DF algorithm will be used.
  Using in-core AOs.

  ==> MemDFJK: Density-Fitted J/K Matrices <==

    J tasked:                   Yes
    K tasked:                   Yes
    wK tasked:                   No
    OpenMP threads:               5
    Memory [MiB]:              5648
    Algorithm:                 Core
    Schwarz Cutoff:           1E-12
    Mask sparsity (%):       0.0000
    Fitting Condition:        1E-10

   => Auxiliary Basis Set <=

  Basis Set: (CC-PVTZ AUX)
    Blend: CC-PVTZ-JKFIT
    Number of shells: 50
    Number of basis functions: 158
    Number of Cartesian functions: 192
    Spherical Harmonics?: true
    Max angular momentum: 4

  Cached 100.0% of DFT collocation blocks in 0.072 [GiB].

  Minimum eigenvalue in the overlap matrix is 2.0161209965E-03.
  Reciprocal condition number of the overlap matrix is 4.6722167680E-04.
    Using symmetric orthogonalization.

  ==> Pre-Iterations <==

  SCF Guess: Orbitals guess was supplied from a previous computation.

   -------------------------------------------------------
    Irrep   Nso     Nmo     Nalpha   Nbeta   Ndocc  Nsocc
   -------------------------------------------------------
     A1        26      26       5       5       5       0
     A2         6       6       0       0       0       0
     B1        14      14       1       1       1       0
     B2        14      14       1       1       1       0
   -------------------------------------------------------
    Total      60      60       7       7       7       0
   -------------------------------------------------------

  ==> Iterations <==

                           Total Energy        Delta E     RMS |[F,P]|

   @DF-UKS iter   0:  -112.06296880789766   -1.12063e+02   5.63570e-12 
   @DF-UKS iter   1:  -112.06296880789770   -4.26326e-14   5.80504e-12 DIIS
  Energy and wave function converged.


  ==> Post-Iterations <==

   Electrons on quadrature grid:
      Nalpha   =    7.0000000477 ; deviation = 4.767e-08
      Nbeta    =    7.0000000477 ; deviation = 4.767e-08
      Ntotal   =   14.0000000953 ; deviation = 9.534e-08 

   @Spin Contamination Metric:  -5.329070518E-15
   @S^2 Expected:                0.000000000E+00
   @S^2 Observed:               -5.329070518E-15
   @S   Expected:                0.000000000E+00
   @S   Observed:                0.000000000E+00

    Orbital Energies [Eh]
    ---------------------

    Alpha Occupied:                                                       

       1A1   -19.208203     2A1   -10.207736     3A1    -1.302540  
       1B2    -0.706305     1B1    -0.706305     4A1    -0.563600  
       5A1    -0.326426  

    Alpha Virtual:                                                        

       2B2     0.133581     2B1     0.133581     6A1     0.170753  
       7A1     0.301055     3B1     0.327625     3B2     0.327625  
       8A1     0.552609     4B2     0.623517     4B1     0.623517  
       9A1     0.634153     1A2     0.634153    10A1     0.880582  
       5B1     1.083329     5B2     1.083329    11A1     1.342563  
       6B1     1.602346     6B2     1.602346    12A1     1.635227  
       2A2     1.635227    13A1     1.782961    14A1     2.336074  
       7B1     2.345942     7B2     2.345942     8B1     2.635226  
       8B2     2.635226    15A1     2.804565     3A2     2.876489  
      16A1     2.876489     9B1     3.077776     9B2     3.077776  
       4A2     3.201824    17A1     3.201824    18A1     3.223071  
      10B1     4.027859    10B2     4.027859    11B1     4.260555  
      11B2     4.260555    19A1     4.464496    12B2     5.272730  
      12B1     5.272730    20A1     5.865470    21A1     6.205374  
       5A2     6.205375    22A1     6.519081     6A2     6.519081  
      13B1     6.622234    13B2     6.622234    23A1     6.668188  
      24A1     7.628174    14B1     7.846287    14B2     7.846287  
      25A1    10.242349    26A1    17.799972  

    Beta Occupied:                                                        

       1A1   -19.208203     2A1   -10.207736     3A1    -1.302540  
       1B2    -0.706305     1B1    -0.706305     4A1    -0.563600  
       5A1    -0.326426  

    Beta Virtual:                                                         

       2B2     0.133581     2B1     0.133581     6A1     0.170753  
       7A1     0.301055     3B1     0.327625     3B2     0.327625  
       8A1     0.552609     4B2     0.623517     4B1     0.623517  
       9A1     0.634153     1A2     0.634153    10A1     0.880582  
       5B1     1.083329     5B2     1.083329    11A1     1.342563  
       6B1     1.602346     6B2     1.602346    12A1     1.635227  
       2A2     1.635227    13A1     1.782961    14A1     2.336074  
       7B1     2.345942     7B2     2.345942     8B1     2.635226  
       8B2     2.635226    15A1     2.804565     3A2     2.876489  
      16A1     2.876489     9B1     3.077776     9B2     3.077776  
       4A2     3.201824    17A1     3.201824    18A1     3.223071  
      10B1     4.027859    10B2     4.027859    11B1     4.260555  
      11B2     4.260555    19A1     4.464496    12B2     5.272730  
      12B1     5.272730    20A1     5.865470    21A1     6.205374  
       5A2     6.205375    22A1     6.519081     6A2     6.519081  
      13B1     6.622234    13B2     6.622234    23A1     6.668188  
      24A1     7.628174    14B1     7.846287    14B2     7.846287  
      25A1    10.242349    26A1    17.799972  

    Final Occupation by Irrep:
             A1    A2    B1    B2 
    DOCC [     5,    0,    1,    1 ]
    SOCC [     0,    0,    0,    0 ]
    NA   [     5,    0,    1,    1 ]
    NB   [     5,    0,    1,    1 ]

  @DF-UKS Final Energy:  -112.06296880789770

   => Energetics <=

    Nuclear Repulsion Energy =             36.2367928968170787
    One-Electron Energy =                -222.0369679368461391
    Two-Electron Energy =                  85.6112845202801509
    DFT Exchange-Correlation Energy =     -11.8740782881488016
    Empirical Dispersion Energy =           0.0000000000000000
    VV10 Nonlocal Energy =                  0.0000000000000000
    Total Energy =                       -112.0629688078977040

  UHF NO Occupations:
  HONO-2 :    3 A1 2.0000000
  HONO-1 :    4 A1 2.0000000
  HONO-0 :    5 A1 2.0000000
  LUNO+0 :    6 A1 0.0000000
  LUNO+1 :    7 A1 0.0000000
  LUNO+2 :    8 A1 0.0000000
  LUNO+3 :    9 A1 0.0000000


Computation Completed


Properties will be evaluated at   0.000000,   0.000000,   0.000000 [a0]

Properties computed using the B3LYP density matrix


 Multipole Moments:

 ------------------------------------------------------------------------------------
     Multipole            Electronic (a.u.)      Nuclear  (a.u.)        Total (a.u.)
 ------------------------------------------------------------------------------------

 L = 1.  Multiply by 2.5417464519 to convert [e a0] to [Debye]
 Dipole X            :          0.0000000            0.0000000            0.0000000
 Dipole Y            :          0.0000000            0.0000000            0.0000000
 Dipole Z            :         -0.5318372           -0.0014437           -0.5332809
 Magnitude           :                                                    0.5332809

 L = 2.  Multiply by 1.3450342976 to convert [e a0^2] to [Debye ang]
 Quadrupole XX       :         -6.5814015            0.0000000           -6.5814015
 Quadrupole XY       :          0.0000000            0.0000000            0.0000000
 Quadrupole XZ       :          0.0000000            0.0000000            0.0000000
 Quadrupole YY       :         -6.5814015            0.0000000           -6.5814015
 Quadrupole YZ       :          0.0000000            0.0000000            0.0000000
 Quadrupole ZZ       :        -14.6195428            6.0158386           -8.6037042
 Traceless XX        :          2.6793804           -2.0052795            0.6741009
 Traceless YY        :          2.6793804           -2.0052795            0.6741009
 Traceless ZZ        :         -5.3587609            4.0105591           -1.3482018

 ------------------------------------------------------------------------------------
  ==> Computing MBIS Charges <==

  Electron Count from Grid (Expected Number): 14.00000 (14.00000)
  Difference:  0.00000

  MBIS Charges: (a.u.)
   Center  Symbol  Z      Pop.       Charge
      1       O    8    7.845632    0.154368
      2       C    6    6.154368   -0.154368

  MBIS Dipoles: [e a0]
   Center  Symbol  Z        X           Y           Z
      1       O    8    0.000000    0.000000    0.000130
      2       C    6    0.000000    0.000000   -0.328931

  MBIS Quadrupoles: [e a0^2]
   Center  Symbol  Z      XX        XY        XZ        YY        YZ        ZZ
      1       O    8   -2.7384    0.0000   -0.0000   -2.7384    0.0000   -3.1869
      2       C    6   -3.8430    0.0000   -0.0000   -3.8430    0.0000   -4.8801

  MBIS Octupoles: [e a0^3]
   Center  Symbol  Z      XXX       XXY       XXZ       XYY       XYZ       XZZ       YYY       YYZ       YZZ       ZZZ
      1       O    8    0.0000    0.0000    0.0593   -0.0000    0.0000    0.0000   -0.0000    0.0593   -0.0000    0.3345
      2       C    6    0.0000    0.0000   -0.6623   -0.0000    0.0000    0.0000    0.0000   -0.6623    0.0000   -1.6115

  MBIS Radial Moments:
   Center  Symbol  Z      [a0^2]      [a0^3]      [a0^4]      
      1       O    8    8.663700   14.300514   28.444160
      2       C    6   12.566121   29.624505   83.262050

  MBIS Valence Widths: [a0]
   Center  Symbol  Z     Width
      1       O    8    0.339530
      2       C    6    0.482792


  MBIS Valence Charges: (a.u.)
   Center  Symbol  Z     Charge
      1       O    8   -6.325783
      2       C    6   -4.481105

*** tstop() called on cics-quant-001 at Tue Dec 23 13:43:22 2025
Module time:
	user time   =       0.56 seconds =       0.01 minutes
	system time =       0.04 seconds =       0.00 minutes
	total time  =          1 seconds =       0.02 minutes
Total time:
	user time   =       1.65 seconds =       0.03 minutes
	system time =       0.10 seconds =       0.00 minutes
	total time  =          1 seconds =       0.02 minutes

    Psi4 stopped on: Tuesday, 23 December 2025 01:43PM
    Psi4 wall time for execution: 0:00:00.67

*** Psi4 exiting successfully. Buy a developer a beer!
