
    -----------------------------------------------------------------------
          Psi4: An Open-Source Ab Initio Electronic Structure Package
                               Psi4 1.9.1 release

                         Git: Rev {} zzzzzzz 


    D. G. A. Smith, L. A. Burns, A. C. Simmonett, R. M. Parrish,
    M. C. Schieber, R. Galvelis, P. Kraus, H. Kruse, R. Di Remigio,
    A. Alenaizan, A. M. James, S. Lehtola, J. P. Misiewicz, M. Scheurer,
    R. A. Shaw, J. B. Schriber, Y. Xie, Z. L. Glick, D. A. Sirianni,
    J. S. O'Brien, J. M. Waldrop, A. Kumar, E. G. Hohenstein,
    B. P. Pritchard, B. R. Brooks, H. F. Schaefer III, A. Yu. Sokolov,
    K. Patkowski, A. E. DePrince III, U. Bozkaya, R. A. King,
    F. A. Evangelista, J. M. Turney, T. D. Crawford, C. D. Sherrill,
    J. Chem. Phys. 152(18) 184108 (2020). https://doi.org/10.1063/5.0006002

                            Additional Code Authors
    E. T. Seidl, C. L. Janssen, E. F. Valeev, M. L. Leininger,
    J. F. Gonthier, R. M. Richard, H. R. McAlexander, M. Saitow, X. Wang,
    P. Verma, M. H. Lechner, A. Jiang, S. Behnle, A. G. Heide,
    M. F. Herbst, and D. L. Poole

             Previous Authors, Complete List of Code Contributors,
                       and Citations for Specific Modules
    https://github.com/psi4/psi4/blob/master/codemeta.json
    https://github.com/psi4/psi4/graphs/contributors
    http://psicode.org/psi4manual/master/introduction.html#citing-psifour

    -----------------------------------------------------------------------


    Psi4 started on: Tuesday, 26 August 2025 10:23PM

    Process ID: 61357
    Host:       Mac.lan
    PSIDATADIR: /Users/joseantoniorodriguesromero/anaconda3/share/psi4
    Memory:     500.0 MiB
    Threads:    1
    
  ==> Input File <==

--------------------------------------------------------------------------
molecule { 
0 2
O           0.000000           0.000000           0.000000
N           0.000000           0.000000           1.064098
}

set { 
basis              cc-pvtz
reference          uks
maxiter            500
DAMPING_PERCENTAGE 1
E_CONVERGENCE      1.0E-8
D_CONVERGENCE      1.0E-8
DIIS_MAX_VECS      400
MBIS_MAXITER       8000
guess              read
}

E, wfn = energy('b3lyp', restart_file='last_wfn', return_wfn=True)
properties('b3lyp','MBIS_CHARGES', wfn=wfn)
wfn.to_file('last_wfn')
--------------------------------------------------------------------------

Scratch directory: /tmp/
 Found user provided orbital data. Setting orbital guess to READ 
 Copying restart file <last_wfn.npy> to </tmp/scan_NO_15.default.61357.180.npy> for internal processing
   => Libint2 <=

    Primary   basis highest AM E, G, H:  6, 6, 3
    Auxiliary basis highest AM E, G, H:  7, 7, 4
    Onebody   basis highest AM E, G, H:  -, -, -
    Solid Harmonics ordering:            Gaussian

*** tstart() called on Mac.lan
*** at Tue Aug 26 22:23:54 2025

   => Loading Basis Set <=

    Name: CC-PVTZ
    Role: ORBITAL
    Keyword: BASIS
    atoms 1 entry O          line   262 file /Users/joseantoniorodriguesromero/anaconda3/share/psi4/basis/cc-pvtz.gbs 
    atoms 2 entry N          line   224 file /Users/joseantoniorodriguesromero/anaconda3/share/psi4/basis/cc-pvtz.gbs 


         ---------------------------------------------------------
                                   SCF
               by Justin Turney, Rob Parrish, Andy Simmonett
                          and Daniel G. A. Smith
                              UKS Reference
                        1 Threads,    500 MiB Core
         ---------------------------------------------------------

  ==> Geometry <==

    Molecular point group: c2v
    Full point group: C_inf_v

    Geometry (in Angstrom), charge = 0, multiplicity = 2:

       Center              X                  Y                   Z               Mass       
    ------------   -----------------  -----------------  -----------------  -----------------
         O            0.000000000000     0.000000000000    -0.496721404516    15.994914619570
         N            0.000000000000     0.000000000000     0.567376595484    14.003074004430

  Running in c2v symmetry.

  Rotational constants: A = ************  B =      1.99398  C =      1.99398 [cm^-1]
  Rotational constants: A = ************  B =  59777.91613  C =  59777.91613 [MHz]
  Nuclear repulsion =   27.848867113292197

  Charge       = 0
  Multiplicity = 2
  Electrons    = 15
  Nalpha       = 8
  Nbeta        = 7

  ==> Algorithm <==

  SCF Algorithm Type is DF.
  DIIS enabled.
  MOM disabled.
  Fractional occupation disabled.
  Guess Type is READ.
  Energy threshold   = 1.00e-08
  Density threshold  = 1.00e-08
  Integral threshold = 1.00e-12

  ==> Primary Basis <==

  Basis Set: CC-PVTZ
    Blend: CC-PVTZ
    Number of shells: 20
    Number of basis functions: 60
    Number of Cartesian functions: 70
    Spherical Harmonics?: true
    Max angular momentum: 3

  ==> DFT Potential <==

   => LibXC <=

    Version 6.2.2
    S. Lehtola, C. Steigemann, M. J.T. Oliveira, and M. A.L. Marques.,  SoftwareX 7, 1–5 (2018) (10.1016/j.softx.2017.11.002)

   => Composite Functional: B3LYP <= 

    B3LYP Hyb-GGA Exchange-Correlation Functional

    P. J. Stephens, F. J. Devlin, C. F. Chabalowski, and M. J. Frisch.,  J. Phys. Chem. 98, 11623 (1994) (10.1021/j100096a001)

    Deriv               =              1
    GGA                 =           TRUE
    Meta                =          FALSE

    Exchange Hybrid     =           TRUE
    MP2 Hybrid          =          FALSE

   => Exchange Functionals <=

    0.0800   Slater exchange
    0.7200         Becke 88

   => Exact (HF) Exchange <=

    0.2000               HF 

   => Correlation Functionals <=

    0.1900   Vosko, Wilk & Nusair (VWN5_RPA)
    0.8100   Lee, Yang & Parr

   => LibXC Density Thresholds  <==

    XC_HYB_GGA_XC_B3LYP:  1.00E-15 

   => Molecular Quadrature <=

    Radial Scheme          =       TREUTLER
    Pruning Scheme         =           NONE
    Nuclear Scheme         =       TREUTLER

    Blocking Scheme        =         OCTREE
    BS radius alpha        =              1
    Pruning alpha          =              1
    Radial Points          =             75
    Spherical Points       =            302
    Total Points           =          42700
    Total Blocks           =            383
    Max Points             =            253
    Max Functions          =             60
    Weights Tolerance      =       1.00E-15

   => Loading Basis Set <=

    Name: (CC-PVTZ AUX)
    Role: JKFIT
    Keyword: DF_BASIS_SCF
    atoms 1 entry O          line   229 file /Users/joseantoniorodriguesromero/anaconda3/share/psi4/basis/cc-pvtz-jkfit.gbs 
    atoms 2 entry N          line   177 file /Users/joseantoniorodriguesromero/anaconda3/share/psi4/basis/cc-pvtz-jkfit.gbs 

   => Loading Basis Set <=

    Name: CC-PVTZ
    Role: ORBITAL
    Keyword: BASIS
    atoms 1 entry O          line   262 file /Users/joseantoniorodriguesromero/anaconda3/share/psi4/basis/cc-pvtz.gbs 
    atoms 2 entry N          line   224 file /Users/joseantoniorodriguesromero/anaconda3/share/psi4/basis/cc-pvtz.gbs 

  Reading orbitals from file /tmp/scan_NO_15.default.61357.180.npy, no projection.

  ==> Integral Setup <==

  DFHelper Memory: AOs need 0.005 GiB; user supplied 0.295 GiB. 
  Using in-core AOs.

  ==> MemDFJK: Density-Fitted J/K Matrices <==

    J tasked:                   Yes
    K tasked:                   Yes
    wK tasked:                   No
    OpenMP threads:               1
    Memory [MiB]:               302
    Algorithm:                 Core
    Schwarz Cutoff:           1E-12
    Mask sparsity (%):       0.0000
    Fitting Condition:        1E-10

   => Auxiliary Basis Set <=

  Basis Set: (CC-PVTZ AUX)
    Blend: CC-PVTZ-JKFIT
    Number of shells: 50
    Number of basis functions: 158
    Number of Cartesian functions: 192
    Spherical Harmonics?: true
    Max angular momentum: 4

  Cached 100.0% of DFT collocation blocks in 0.071 [GiB].

  Minimum eigenvalue in the overlap matrix is 2.1853011807E-03.
  Reciprocal condition number of the overlap matrix is 5.4558284124E-04.
    Using symmetric orthogonalization.

  ==> Pre-Iterations <==

  SCF Guess: Orbitals guess was supplied from a previous computation.

   -------------------------------------------------------
    Irrep   Nso     Nmo     Nalpha   Nbeta   Ndocc  Nsocc
   -------------------------------------------------------
     A1        26      26       5       5       5       0
     A2         6       6       0       0       0       0
     B1        14      14       2       1       1       1
     B2        14      14       1       1       1       0
   -------------------------------------------------------
    Total      60      60       8       7       7       1
   -------------------------------------------------------

  ==> Iterations <==

                           Total Energy        Delta E     RMS |[F,P]|

   @DF-UKS iter   0:  -129.96358329860408   -1.29964e+02   5.56741e-03 
   @DF-UKS iter   1:  -129.92366681043831    3.99165e-02   1.24480e-03 DIIS/ADIIS
   @DF-UKS iter   2:  -129.92203523889486    1.63157e-03   2.51034e-03 DIIS/ADIIS/DAMP=1%
   @DF-UKS iter   3:  -129.92503590088052   -3.00066e-03   1.96611e-04 DIIS/ADIIS/DAMP=1%
   @DF-UKS iter   4:  -129.92440969711606    6.26204e-04   5.44310e-05 DIIS/DAMP=1%
   @DF-UKS iter   5:  -129.92427089918851    1.38798e-04   7.15931e-06 DIIS/DAMP=1%
   @DF-UKS iter   6:  -129.92430158983944   -3.06907e-05   1.56984e-06 DIIS/DAMP=1%
   @DF-UKS iter   7:  -129.92429354525231    8.04459e-06   4.72373e-07 DIIS/DAMP=1%
   @DF-UKS iter   8:  -129.92429423011788   -6.84866e-07   9.91591e-08 DIIS/DAMP=1%
   @DF-UKS iter   9:  -129.92429424576287   -1.56450e-08   2.50490e-08 DIIS/DAMP=1%
   @DF-UKS iter  10:  -129.92429421564910    3.01138e-08   2.40288e-09 DIIS/DAMP=1%
   @DF-UKS iter  11:  -129.92429421483331    8.15788e-10   2.79910e-10 DIIS/DAMP=1%
  Energy and wave function converged.


  ==> Post-Iterations <==

   Electrons on quadrature grid:
      Nalpha   =    8.0000002186 ; deviation = 2.186e-07
      Nbeta    =    7.0000002077 ; deviation = 2.077e-07
      Ntotal   =   15.0000004264 ; deviation = 4.264e-07 

   @Spin Contamination Metric:   2.505380445E-03
   @S^2 Expected:                7.500000000E-01
   @S^2 Observed:                7.525053804E-01
   @S   Expected:                5.000000000E-01
   @S   Observed:                5.000000000E-01

    Orbital Energies [Eh]
    ---------------------

    Alpha Occupied:                                                       

       1A1   -19.264886     2A1   -14.434716     3A1    -1.318879  
       4A1    -0.677882     1B1    -0.575756     1B2    -0.550811  
       5A1    -0.494106     2B1    -0.182781  

    Alpha Virtual:                                                        

       2B2    -0.072248     6A1     0.243303     3B1     0.403560  
       3B2     0.408598     7A1     0.441873     8A1     0.527747  
       4B1     0.594611     4B2     0.603261     9A1     0.689411  
       1A2     0.913254    10A1     0.914988    11A1     1.172163  
       5B1     1.172986     5B2     1.174423     2A2     1.542679  
      12A1     1.543979    13A1     1.725409     6B1     2.030304  
       6B2     2.033097    14A1     2.257580     7B1     2.807737  
       7B2     2.822592    15A1     3.092065     8B1     3.596507  
       8B2     3.604862    16A1     3.745291     9B1     3.764729  
       9B2     3.765237     3A2     3.783887    17A1     3.785951  
      10B1     4.076319    10B2     4.077210     4A2     4.362739  
      18A1     4.367622    19A1     4.442595    11B1     4.763930  
      11B2     4.765447    20A1     5.041104    12B1     5.061275  
      12B2     5.061403     5A2     5.705467    21A1     5.706688  
       6A2     6.151118    22A1     6.153199    13B1     6.502255  
      13B2     6.505490    23A1     6.540812    24A1     7.050822  
      14B2     7.198949    14B1     7.200376    25A1     7.427668  
      26A1    15.688413  

    Beta Occupied:                                                        

       1A1   -19.253932     2A1   -14.419877     3A1    -1.299305  
       4A1    -0.643866     1B2    -0.541060     1B1    -0.504196  
       5A1    -0.467061  

    Beta Virtual:                                                         

       2B2    -0.057282     2B1    -0.016655     6A1     0.248022  
       3B2     0.413738     3B1     0.435418     7A1     0.454697  
       8A1     0.536515     4B2     0.607837     4B1     0.626089  
       9A1     0.709743     1A2     0.938183    10A1     0.938345  
       5B2     1.177256    11A1     1.181183     5B1     1.205564  
      12A1     1.567624     2A2     1.567658    13A1     1.739536  
       6B2     2.036643     6B1     2.060059    14A1     2.271360  
       7B2     2.834625     7B1     2.873552    15A1     3.106528  
       8B2     3.612232     8B1     3.643981    16A1     3.761924  
       3A2     3.805475     9B2     3.806295     9B1     3.806366  
      17A1     3.806499    10B2     4.081710    10B1     4.114320  
      18A1     4.418290     4A2     4.424359    19A1     4.467057  
      11B2     4.769653    11B1     4.802460    20A1     5.057060  
      12B2     5.087156    12B1     5.087167     5A2     5.727016  
      21A1     5.727216    22A1     6.189615     6A2     6.189652  
      13B2     6.509487    13B1     6.539032    23A1     6.551516  
      24A1     7.068085    14B2     7.202987    14B1     7.233352  
      25A1     7.444185    26A1    15.706746  

    Final Occupation by Irrep:
             A1    A2    B1    B2 
    DOCC [     5,    0,    1,    1 ]
    SOCC [     0,    0,    1,    0 ]
    NA   [     5,    0,    2,    1 ]
    NB   [     5,    0,    1,    1 ]

  @DF-UKS Final Energy:  -129.92429421483331

   => Energetics <=

    Nuclear Repulsion Energy =             27.8488671132921972
    One-Electron Energy =                -231.9350321198378424
    Two-Electron Energy =                  86.6621303640279166
    DFT Exchange-Correlation Energy =     -12.5002595723155672
    Empirical Dispersion Energy =           0.0000000000000000
    VV10 Nonlocal Energy =                  0.0000000000000000
    Total Energy =                       -129.9242942148333100

  UHF NO Occupations:
  HONO-2 :    5 A1 1.9995711
  HONO-1 :    1 B1 1.9993409
  HONO-0 :    2 B1 1.0000000
  LUNO+0 :    3 B1 0.0006591
  LUNO+1 :    6 A1 0.0004289
  LUNO+2 :    7 A1 0.0000960
  LUNO+3 :    2 B2 0.0000590


Computation Completed


Properties will be evaluated at   0.000000,   0.000000,   0.000000 [a0]

Properties computed using the SCF density matrix


 Multipole Moments:

 ------------------------------------------------------------------------------------
     Multipole            Electronic (a.u.)      Nuclear  (a.u.)        Total (a.u.)
 ------------------------------------------------------------------------------------

 L = 1.  Multiply by 2.5417464519 to convert [e a0] to [Debye]
 Dipole X            :          0.0000000            0.0000000            0.0000000
 Dipole Y            :          0.0000000            0.0000000            0.0000000
 Dipole Z            :         -0.1229587           -0.0040347           -0.1269934
 Magnitude           :                                                    0.1269934

 ------------------------------------------------------------------------------------

*** tstop() called on Mac.lan at Tue Aug 26 22:23:56 2025
Module time:
	user time   =      13.86 seconds =       0.23 minutes
	system time =       1.96 seconds =       0.03 minutes
	total time  =          2 seconds =       0.03 minutes
Total time:
	user time   =      13.86 seconds =       0.23 minutes
	system time =       1.96 seconds =       0.03 minutes
	total time  =          2 seconds =       0.03 minutes

*** tstart() called on Mac.lan
*** at Tue Aug 26 22:23:56 2025

   => Libint2 <=

    Primary   basis highest AM E, G, H:  6, 6, 3
    Auxiliary basis highest AM E, G, H:  7, 7, 4
    Onebody   basis highest AM E, G, H:  -, -, -
    Solid Harmonics ordering:            Gaussian
   => Loading Basis Set <=

    Name: CC-PVTZ
    Role: ORBITAL
    Keyword: BASIS
    atoms 1 entry O          line   262 file /Users/joseantoniorodriguesromero/anaconda3/share/psi4/basis/cc-pvtz.gbs 
    atoms 2 entry N          line   224 file /Users/joseantoniorodriguesromero/anaconda3/share/psi4/basis/cc-pvtz.gbs 


         ---------------------------------------------------------
                                   SCF
               by Justin Turney, Rob Parrish, Andy Simmonett
                          and Daniel G. A. Smith
                              UKS Reference
                        1 Threads,    500 MiB Core
         ---------------------------------------------------------

  ==> Geometry <==

    Molecular point group: c2v
    Full point group: C_inf_v

    Geometry (in Angstrom), charge = 0, multiplicity = 2:

       Center              X                  Y                   Z               Mass       
    ------------   -----------------  -----------------  -----------------  -----------------
         O            0.000000000000     0.000000000000    -0.496721404516    15.994914619570
         N            0.000000000000     0.000000000000     0.567376595484    14.003074004430

  Running in c2v symmetry.

  Rotational constants: A = ************  B =      1.99398  C =      1.99398 [cm^-1]
  Rotational constants: A = ************  B =  59777.91613  C =  59777.91613 [MHz]
  Nuclear repulsion =   27.848867113292197

  Charge       = 0
  Multiplicity = 2
  Electrons    = 15
  Nalpha       = 8
  Nbeta        = 7

  ==> Algorithm <==

  SCF Algorithm Type is DF.
  DIIS enabled.
  MOM disabled.
  Fractional occupation disabled.
  Guess Type is READ.
  Energy threshold   = 1.00e-08
  Density threshold  = 1.00e-08
  Integral threshold = 1.00e-12

  ==> Primary Basis <==

  Basis Set: CC-PVTZ
    Blend: CC-PVTZ
    Number of shells: 20
    Number of basis functions: 60
    Number of Cartesian functions: 70
    Spherical Harmonics?: true
    Max angular momentum: 3

  ==> DFT Potential <==

   => LibXC <=

    Version 6.2.2
    S. Lehtola, C. Steigemann, M. J.T. Oliveira, and M. A.L. Marques.,  SoftwareX 7, 1–5 (2018) (10.1016/j.softx.2017.11.002)

   => Composite Functional: B3LYP <= 

    B3LYP Hyb-GGA Exchange-Correlation Functional

    P. J. Stephens, F. J. Devlin, C. F. Chabalowski, and M. J. Frisch.,  J. Phys. Chem. 98, 11623 (1994) (10.1021/j100096a001)

    Deriv               =              1
    GGA                 =           TRUE
    Meta                =          FALSE

    Exchange Hybrid     =           TRUE
    MP2 Hybrid          =          FALSE

   => Exchange Functionals <=

    0.0800   Slater exchange
    0.7200         Becke 88

   => Exact (HF) Exchange <=

    0.2000               HF 

   => Correlation Functionals <=

    0.1900   Vosko, Wilk & Nusair (VWN5_RPA)
    0.8100   Lee, Yang & Parr

   => LibXC Density Thresholds  <==

    XC_HYB_GGA_XC_B3LYP:  1.00E-15 

   => Molecular Quadrature <=

    Radial Scheme          =       TREUTLER
    Pruning Scheme         =           NONE
    Nuclear Scheme         =       TREUTLER

    Blocking Scheme        =         OCTREE
    BS radius alpha        =              1
    Pruning alpha          =              1
    Radial Points          =             75
    Spherical Points       =            302
    Total Points           =          42700
    Total Blocks           =            383
    Max Points             =            253
    Max Functions          =             60
    Weights Tolerance      =       1.00E-15

   => Loading Basis Set <=

    Name: (CC-PVTZ AUX)
    Role: JKFIT
    Keyword: DF_BASIS_SCF
    atoms 1 entry O          line   229 file /Users/joseantoniorodriguesromero/anaconda3/share/psi4/basis/cc-pvtz-jkfit.gbs 
    atoms 2 entry N          line   177 file /Users/joseantoniorodriguesromero/anaconda3/share/psi4/basis/cc-pvtz-jkfit.gbs 

   => Loading Basis Set <=

    Name: CC-PVTZ
    Role: ORBITAL
    Keyword: BASIS
    atoms 1 entry O          line   262 file /Users/joseantoniorodriguesromero/anaconda3/share/psi4/basis/cc-pvtz.gbs 
    atoms 2 entry N          line   224 file /Users/joseantoniorodriguesromero/anaconda3/share/psi4/basis/cc-pvtz.gbs 

  Reading orbitals from file /tmp/scan_NO_15.default.61357.180.npy, no projection.

  ==> Integral Setup <==

  DFHelper Memory: AOs need 0.005 GiB; user supplied 0.295 GiB. 
  Using in-core AOs.

  ==> MemDFJK: Density-Fitted J/K Matrices <==

    J tasked:                   Yes
    K tasked:                   Yes
    wK tasked:                   No
    OpenMP threads:               1
    Memory [MiB]:               302
    Algorithm:                 Core
    Schwarz Cutoff:           1E-12
    Mask sparsity (%):       0.0000
    Fitting Condition:        1E-10

   => Auxiliary Basis Set <=

  Basis Set: (CC-PVTZ AUX)
    Blend: CC-PVTZ-JKFIT
    Number of shells: 50
    Number of basis functions: 158
    Number of Cartesian functions: 192
    Spherical Harmonics?: true
    Max angular momentum: 4

  Cached 100.0% of DFT collocation blocks in 0.071 [GiB].

  Minimum eigenvalue in the overlap matrix is 2.1853011807E-03.
  Reciprocal condition number of the overlap matrix is 5.4558284124E-04.
    Using symmetric orthogonalization.

  ==> Pre-Iterations <==

  SCF Guess: Orbitals guess was supplied from a previous computation.

   -------------------------------------------------------
    Irrep   Nso     Nmo     Nalpha   Nbeta   Ndocc  Nsocc
   -------------------------------------------------------
     A1        26      26       5       5       5       0
     A2         6       6       0       0       0       0
     B1        14      14       2       1       1       1
     B2        14      14       1       1       1       0
   -------------------------------------------------------
    Total      60      60       8       7       7       1
   -------------------------------------------------------

  ==> Iterations <==

                           Total Energy        Delta E     RMS |[F,P]|

   @DF-UKS iter   0:  -129.92429421518571   -1.29924e+02   5.57809e-11 
   @DF-UKS iter   1:  -129.92429421518597   -2.55795e-13   1.08020e-10 DIIS
  Energy and wave function converged.


  ==> Post-Iterations <==

   Electrons on quadrature grid:
      Nalpha   =    8.0000002186 ; deviation = 2.186e-07
      Nbeta    =    7.0000002077 ; deviation = 2.077e-07
      Ntotal   =   15.0000004264 ; deviation = 4.264e-07 

   @Spin Contamination Metric:   2.505380394E-03
   @S^2 Expected:                7.500000000E-01
   @S^2 Observed:                7.525053804E-01
   @S   Expected:                5.000000000E-01
   @S   Observed:                5.000000000E-01

    Orbital Energies [Eh]
    ---------------------

    Alpha Occupied:                                                       

       1A1   -19.264886     2A1   -14.434716     3A1    -1.318879  
       4A1    -0.677882     1B1    -0.575756     1B2    -0.550811  
       5A1    -0.494106     2B1    -0.182781  

    Alpha Virtual:                                                        

       2B2    -0.072248     6A1     0.243303     3B1     0.403560  
       3B2     0.408598     7A1     0.441873     8A1     0.527747  
       4B1     0.594611     4B2     0.603261     9A1     0.689411  
       1A2     0.913254    10A1     0.914988    11A1     1.172163  
       5B1     1.172986     5B2     1.174423     2A2     1.542679  
      12A1     1.543979    13A1     1.725409     6B1     2.030304  
       6B2     2.033097    14A1     2.257580     7B1     2.807737  
       7B2     2.822592    15A1     3.092065     8B1     3.596507  
       8B2     3.604862    16A1     3.745291     9B1     3.764729  
       9B2     3.765237     3A2     3.783887    17A1     3.785951  
      10B1     4.076319    10B2     4.077210     4A2     4.362739  
      18A1     4.367622    19A1     4.442595    11B1     4.763930  
      11B2     4.765447    20A1     5.041104    12B1     5.061275  
      12B2     5.061403     5A2     5.705467    21A1     5.706688  
       6A2     6.151118    22A1     6.153199    13B1     6.502255  
      13B2     6.505490    23A1     6.540812    24A1     7.050822  
      14B2     7.198949    14B1     7.200376    25A1     7.427668  
      26A1    15.688413  

    Beta Occupied:                                                        

       1A1   -19.253932     2A1   -14.419877     3A1    -1.299305  
       4A1    -0.643866     1B2    -0.541060     1B1    -0.504196  
       5A1    -0.467061  

    Beta Virtual:                                                         

       2B2    -0.057282     2B1    -0.016655     6A1     0.248022  
       3B2     0.413738     3B1     0.435418     7A1     0.454697  
       8A1     0.536515     4B2     0.607837     4B1     0.626089  
       9A1     0.709743     1A2     0.938183    10A1     0.938345  
       5B2     1.177256    11A1     1.181183     5B1     1.205564  
      12A1     1.567624     2A2     1.567658    13A1     1.739536  
       6B2     2.036643     6B1     2.060059    14A1     2.271360  
       7B2     2.834625     7B1     2.873552    15A1     3.106528  
       8B2     3.612232     8B1     3.643981    16A1     3.761924  
       3A2     3.805475     9B2     3.806295     9B1     3.806366  
      17A1     3.806499    10B2     4.081710    10B1     4.114320  
      18A1     4.418290     4A2     4.424359    19A1     4.467057  
      11B2     4.769653    11B1     4.802460    20A1     5.057060  
      12B2     5.087156    12B1     5.087167     5A2     5.727016  
      21A1     5.727216    22A1     6.189615     6A2     6.189652  
      13B2     6.509487    13B1     6.539032    23A1     6.551516  
      24A1     7.068085    14B2     7.202987    14B1     7.233352  
      25A1     7.444185    26A1    15.706746  

    Final Occupation by Irrep:
             A1    A2    B1    B2 
    DOCC [     5,    0,    1,    1 ]
    SOCC [     0,    0,    1,    0 ]
    NA   [     5,    0,    2,    1 ]
    NB   [     5,    0,    1,    1 ]

  @DF-UKS Final Energy:  -129.92429421518597

   => Energetics <=

    Nuclear Repulsion Energy =             27.8488671132921972
    One-Electron Energy =                -231.9350321097993515
    Two-Electron Energy =                  86.6621303525258924
    DFT Exchange-Correlation Energy =     -12.5002595712047047
    Empirical Dispersion Energy =           0.0000000000000000
    VV10 Nonlocal Energy =                  0.0000000000000000
    Total Energy =                       -129.9242942151859666

  UHF NO Occupations:
  HONO-2 :    5 A1 1.9995711
  HONO-1 :    1 B1 1.9993409
  HONO-0 :    2 B1 1.0000000
  LUNO+0 :    3 B1 0.0006591
  LUNO+1 :    6 A1 0.0004289
  LUNO+2 :    7 A1 0.0000960
  LUNO+3 :    2 B2 0.0000590


Computation Completed


Properties will be evaluated at   0.000000,   0.000000,   0.000000 [a0]

Properties computed using the B3LYP density matrix


 Multipole Moments:

 ------------------------------------------------------------------------------------
     Multipole            Electronic (a.u.)      Nuclear  (a.u.)        Total (a.u.)
 ------------------------------------------------------------------------------------

 L = 1.  Multiply by 2.5417464519 to convert [e a0] to [Debye]
 Dipole X            :          0.0000000            0.0000000            0.0000000
 Dipole Y            :          0.0000000            0.0000000            0.0000000
 Dipole Z            :         -0.1229587           -0.0040347           -0.1269934
 Magnitude           :                                                    0.1269934

 L = 2.  Multiply by 1.3450342976 to convert [e a0^2] to [Debye ang]
 Quadrupole XX       :         -7.8129269            0.0000000           -7.8129269
 Quadrupole XY       :          0.0000000            0.0000000            0.0000000
 Quadrupole XZ       :          0.0000000            0.0000000            0.0000000
 Quadrupole YY       :         -6.9574143            0.0000000           -6.9574143
 Quadrupole YZ       :          0.0000000            0.0000000            0.0000000
 Quadrupole ZZ       :        -23.5552820           15.0958575           -8.4594245
 Traceless XX        :          4.9622808           -5.0319525           -0.0696717
 Traceless YY        :          5.8177934           -5.0319525            0.7858409
 Traceless ZZ        :        -10.7800743           10.0639050           -0.7161693

 ------------------------------------------------------------------------------------
  ==> Computing MBIS Charges <==

  Electron Count from Grid (Expected Number): 15.00000 (15.00000)
  Difference:  0.00000

  MBIS Charges: (a.u.)
   Center  Symbol  Z      Pop.       Charge
      1       O    8    7.995082    0.004918
      2       N    7    7.004919   -0.004919

  MBIS Dipoles: [e a0]
   Center  Symbol  Z        X           Y           Z
      1       O    8   -0.000000   -0.000000    0.072366
      2       N    7    0.000000   -0.000000   -0.189469

  MBIS Quadrupoles: [e a0^2]
   Center  Symbol  Z      XX        XY        XZ        YY        YZ        ZZ
      1       O    8   -3.6054   -0.0000    0.0000   -3.3428    0.0000   -3.6951
      2       N    7   -4.2076   -0.0000    0.0000   -3.6146   -0.0000   -4.2209

  MBIS Octupoles: [e a0^3]
   Center  Symbol  Z      XXX       XXY       XXZ       XYY       XYZ       XZZ       YYY       YYZ       YZZ       ZZZ
      1       O    8    0.0000   -0.0000    0.1518    0.0000   -0.0000   -0.0000   -0.0000    0.0916    0.0000    0.0736
      2       N    7    0.0000   -0.0000   -0.3839    0.0000   -0.0000    0.0000   -0.0000   -0.0999   -0.0000   -0.1183

  MBIS Radial Moments:
   Center  Symbol  Z      [a0^2]      [a0^3]      [a0^4]      
      1       O    8   10.643231   19.377623   42.414057
      2       N    7   12.043065   25.252693   63.234896

  MBIS Valence Widths: [a0]
   Center  Symbol  Z     Width
      1       O    8    0.374263
      2       N    7    0.434960

*** tstop() called on Mac.lan at Tue Aug 26 22:23:57 2025
Module time:
	user time   =       4.70 seconds =       0.08 minutes
	system time =       1.58 seconds =       0.03 minutes
	total time  =          1 seconds =       0.02 minutes
Total time:
	user time   =      18.63 seconds =       0.31 minutes
	system time =       3.68 seconds =       0.06 minutes
	total time  =          3 seconds =       0.05 minutes

    Psi4 stopped on: Tuesday, 26 August 2025 10:23PM
    Psi4 wall time for execution: 0:00:02.17

*** Psi4 exiting successfully. Buy a developer a beer!
