
    -----------------------------------------------------------------------
          Psi4: An Open-Source Ab Initio Electronic Structure Package
                               Psi4 1.10 release

                         Git: Rev {} zzzzzzz 


    D. G. A. Smith, L. A. Burns, A. C. Simmonett, R. M. Parrish,
    M. C. Schieber, R. Galvelis, P. Kraus, H. Kruse, R. Di Remigio,
    A. Alenaizan, A. M. James, S. Lehtola, J. P. Misiewicz, M. Scheurer,
    R. A. Shaw, J. B. Schriber, Y. Xie, Z. L. Glick, D. A. Sirianni,
    J. S. O'Brien, J. M. Waldrop, A. Kumar, E. G. Hohenstein,
    B. P. Pritchard, B. R. Brooks, H. F. Schaefer III, A. Yu. Sokolov,
    K. Patkowski, A. E. DePrince III, U. Bozkaya, R. A. King,
    F. A. Evangelista, J. M. Turney, T. D. Crawford, C. D. Sherrill,
    J. Chem. Phys. 152(18) 184108 (2020). https://doi.org/10.1063/5.0006002

                            Additional Code Authors
    E. T. Seidl, C. L. Janssen, E. F. Valeev, M. L. Leininger,
    J. F. Gonthier, R. M. Richard, H. R. McAlexander, M. Saitow, X. Wang,
    P. Verma, M. H. Lechner, A. Jiang, S. Behnle, A. G. Heide,
    M. F. Herbst, D. L. Poole, T. Győri, E. C. Mitchell, J. P. Pederson,
    and A. M. Wallace

             Previous Authors, Complete List of Code Contributors,
                       and Citations for Specific Modules
    https://github.com/psi4/psi4/blob/master/codemeta.json
    https://github.com/psi4/psi4/graphs/contributors
    https://psicode.org/psi4manual/master/introduction.html#citing-psifour

    -----------------------------------------------------------------------


    Psi4 started on: Tuesday, 23 December 2025 01:36PM

    Process ID: 486679
    Host:       cics-quant-001
    PSIDATADIR: /home/jrodriguesro/psi4conda/share/psi4
    Memory:     500.0 MiB
    Threads:    5
    Addons:     adcc, a̶m̶b̶i̶t̶, b̶s̶e̶, c̶c̶t̶3̶, c̶f̶o̶u̶r̶, c̶h̶e̶m̶p̶s̶2̶, c̶p̶p̶e̶, ddx, dftd3, dftd4,
                dkh, ecpint, einsums, f̶o̶r̶t̶e̶, g̶a̶u̶x̶c̶, gcp, g̶d̶m̶a̶, geometric,
                g̶p̶u̶_̶d̶f̶c̶c̶, i̶n̶t̶e̶g̶r̶a̶t̶o̶r̶x̶x̶, i̶p̶i̶, libefp, m̶d̶i̶, m̶p̶2̶d̶,
                m̶r̶c̶c̶, ooo, o̶p̶e̶n̶f̶e̶r̶m̶i̶o̶n̶p̶s̶i̶4̶, pcmsolver, p̶s̶i̶4̶f̶o̶c̶k̶c̶i̶,
                p̶s̶i̶x̶a̶s̶, r̶e̶s̶p̶, s̶i̶m̶i̶n̶t̶, s̶n̶s̶m̶p̶2̶, v̶2̶r̶d̶m̶_̶c̶a̶s̶s̶c̶f̶

  ==> Input File <==

--------------------------------------------------------------------------
memory 8 Gb

molecule { 
0 3
O           0.000000           0.000000           0.000000
O           0.000000           0.000000           0.898218
}

set { 
basis              cc-pvtz
reference          uks
maxiter            500
DAMPING_PERCENTAGE 1
E_CONVERGENCE      1.0E-8
D_CONVERGENCE      1.0E-8
DIIS_MAX_VECS      400
MBIS_MAXITER       8000
guess              read
}

E, wfn = energy('b3lyp', restart_file='last_wfn', return_wfn=True)
properties('b3lyp','MBIS_CHARGES', wfn=wfn)
wfn.to_file('last_wfn')
--------------------------------------------------------------------------

  Memory set to   7.451 GiB by Python driver.

Scratch directory: /tmp/
 Found user provided orbital data. Setting orbital guess to READ 
 Copying restart file <last_wfn.npy> to </tmp/scan_OO_9.default.486679.180.npy> for internal processing
   => Libint2 <=

    Primary   basis highest AM E, G, H:  6, 6, 3
    Auxiliary basis highest AM E, G, H:  7, 7, 4
    Onebody   basis highest AM E, G, H:  -, -, -
    Solid Harmonics ordering:            Gaussian

*** tstart() called on cics-quant-001
*** at Tue Dec 23 13:36:23 2025

   => Loading Basis Set <=

    Name: CC-PVTZ
    Role: ORBITAL
    Keyword: BASIS
    atoms 1-2 entry O          line   262 file /home/jrodriguesro/psi4conda/share/psi4/basis/cc-pvtz.gbs 


         ---------------------------------------------------------
                                   SCF
               by Justin Turney, Rob Parrish, Andy Simmonett
                          and Daniel G. A. Smith
                              UKS Reference
                        5 Threads,   7629 MiB Core
         ---------------------------------------------------------

  ==> Geometry <==

    Molecular point group: d2h
    Full point group: D_inf_h

    Geometry (in Angstrom), charge = 0, multiplicity = 3:

       Center              X                  Y                   Z               Mass       
    ------------   -----------------  -----------------  -----------------  -----------------
         O            0.000000000000     0.000000000000    -0.449109000000    15.994914619570
         O            0.000000000000     0.000000000000     0.449109000000    15.994914619570

  Running in d2h symmetry.

  Rotational constants: A = ************  B =      2.61265  C =      2.61265 [cm^-1]
  Rotational constants: A = ************  B =  78325.24481  C =  78325.24481 [MHz]
  Nuclear repulsion =   37.705035395505327

  Charge       = 0
  Multiplicity = 3
  Electrons    = 16
  Nalpha       = 9
  Nbeta        = 7

  ==> Algorithm <==

  SCF Algorithm Type is DF.
  DIIS enabled.
  MOM disabled.
  Fractional occupation disabled.
  Guess Type is READ.
  Energy threshold   = 1.00e-08
  Density threshold  = 1.00e-08
  Integral threshold = 1.00e-12

  ==> Primary Basis <==

  Basis Set: CC-PVTZ
    Blend: CC-PVTZ
    Number of shells: 20
    Number of basis functions: 60
    Number of Cartesian functions: 70
    Spherical Harmonics?: true
    Max angular momentum: 3

  ==> DFT Potential <==

   => LibXC <=

    Version 7.0.0
    S. Lehtola, C. Steigemann, M. J.T. Oliveira, and M. A.L. Marques.,  SoftwareX 7, 1–5 (2018) (10.1016/j.softx.2017.11.002)

   => Composite Functional: B3LYP <= 

    B3LYP Hyb-GGA Exchange-Correlation Functional

    P. J. Stephens, F. J. Devlin, C. F. Chabalowski, and M. J. Frisch.,  J. Phys. Chem. 98, 11623 (1994) (10.1021/j100096a001)

    Deriv               =              1
    GGA                 =           TRUE
    Meta                =          FALSE

    Exchange Hybrid     =           TRUE
    MP2 Hybrid          =          FALSE

   => Exchange Functionals <=

    0.0800   Slater exchange
    0.7200         Becke 88

   => Exact (HF) Exchange <=

    0.2000               HF 

   => Correlation Functionals <=

    0.1900   Vosko, Wilk & Nusair (VWN5_RPA)
    0.8100   Lee, Yang & Parr

   => LibXC Density Thresholds  <==

    XC_HYB_GGA_XC_B3LYP:  1.00E-15 

   => Molecular Quadrature <=

    Radial Scheme          =       TREUTLER
    Pruning Scheme         =           NONE
    Nuclear Scheme         =       TREUTLER

    Blocking Scheme        =         OCTREE
    BS radius alpha        =              1
    Pruning alpha          =              1
    Radial Points          =             75
    Spherical Points       =            302
    Total Points           =          42366
    Total Blocks           =            376
    Max Points             =            253
    Max Functions          =             60
    Weights Tolerance      =       1.00E-15

   => Loading Basis Set <=

    Name: (CC-PVTZ AUX)
    Role: JKFIT
    Keyword: DF_BASIS_SCF
    atoms 1-2 entry O          line   229 file /home/jrodriguesro/psi4conda/share/psi4/basis/cc-pvtz-jkfit.gbs 

   => Loading Basis Set <=

    Name: CC-PVTZ
    Role: ORBITAL
    Keyword: BASIS
    atoms 1-2 entry O          line   262 file /home/jrodriguesro/psi4conda/share/psi4/basis/cc-pvtz.gbs 

  Reading orbitals from file /tmp/scan_OO_9.default.486679.180.npy, no projection.

  ==> Integral Setup <==

  DFHelper Memory: AOs need 0.005 GiB; user supplied 5.517 GiB. 
  SCF_SUBTYPE=INCORE selected. In-core MEM_DF algorithm will be used.
  Using in-core AOs.

  ==> MemDFJK: Density-Fitted J/K Matrices <==

    J tasked:                   Yes
    K tasked:                   Yes
    wK tasked:                   No
    OpenMP threads:               5
    Memory [MiB]:              5649
    Algorithm:                 Core
    Schwarz Cutoff:           1E-12
    Mask sparsity (%):       0.0000
    Fitting Condition:        1E-10

   => Auxiliary Basis Set <=

  Basis Set: (CC-PVTZ AUX)
    Blend: CC-PVTZ-JKFIT
    Number of shells: 50
    Number of basis functions: 158
    Number of Cartesian functions: 192
    Spherical Harmonics?: true
    Max angular momentum: 4

  Cached 100.0% of DFT collocation blocks in 0.071 [GiB].

  Minimum eigenvalue in the overlap matrix is 2.1959890347E-03.
  Reciprocal condition number of the overlap matrix is 5.8022957812E-04.
    Using symmetric orthogonalization.

  ==> Pre-Iterations <==

  SCF Guess: Orbitals guess was supplied from a previous computation.

   -------------------------------------------------------
    Irrep   Nso     Nmo     Nalpha   Nbeta   Ndocc  Nsocc
   -------------------------------------------------------
     Ag        13      13       3       3       3       0
     B1g        3       3       0       0       0       0
     B2g        7       7       1       0       0       1
     B3g        7       7       1       0       0       1
     Au         3       3       0       0       0       0
     B1u       13      13       2       2       2       0
     B2u        7       7       1       1       1       0
     B3u        7       7       1       1       1       0
   -------------------------------------------------------
    Total      60      60       9       7       7       2
   -------------------------------------------------------

  ==> Iterations <==

                           Total Energy        Delta E     RMS |[F,P]|

   @DF-UKS iter   0:  -150.10463852296056   -1.50105e+02   1.31797e-02 
   @DF-UKS iter   1:  -150.07310365729160    3.15349e-02   1.12462e-03 DIIS/ADIIS
   @DF-UKS iter   2:  -150.07322542665639   -1.21769e-04   5.66143e-04 DIIS/ADIIS/DAMP=1%
   @DF-UKS iter   3:  -150.07281530431882    4.10122e-04   1.34990e-04 DIIS/ADIIS/DAMP=1%
   @DF-UKS iter   4:  -150.07336763002579   -5.52326e-04   7.18792e-06 DIIS/DAMP=1%
   @DF-UKS iter   5:  -150.07327290502602    9.47250e-05   1.23236e-06 DIIS/DAMP=1%
   @DF-UKS iter   6:  -150.07327283015817    7.48678e-08   1.11214e-07 DIIS/DAMP=1%
   @DF-UKS iter   7:  -150.07327325387675   -4.23719e-07   1.12078e-08 DIIS/DAMP=1%
   @DF-UKS iter   8:  -150.07327324250966    1.13671e-08   1.56577e-09 DIIS/DAMP=1%
   @DF-UKS iter   9:  -150.07327325207837   -9.56871e-09   1.68227e-10 DIIS/DAMP=1%
  Energy and wave function converged.


  ==> Post-Iterations <==

   Electrons on quadrature grid:
      Nalpha   =    8.9999996394 ; deviation = -3.606e-07
      Nbeta    =    6.9999997882 ; deviation = -2.118e-07
      Ntotal   =   15.9999994277 ; deviation = -5.723e-07 

   @Spin Contamination Metric:   3.955668761E-03
   @S^2 Expected:                2.000000000E+00
   @S^2 Observed:                2.003955669E+00
   @S   Expected:                1.000000000E+00
   @S   Observed:                1.000000000E+00

    Orbital Energies [Eh]
    ---------------------

    Alpha Occupied:                                                       

       1Ag   -19.250219     1B1u  -19.246405     2Ag    -1.626562  
       2B1u   -0.743741     1B2u   -0.726036     1B3u   -0.726036  
       3Ag    -0.610230     1B3g   -0.161756     1B2g   -0.161756  

    Alpha Virtual:                                                        

       3B1u    0.341584     2B3u    0.445837     2B2u    0.445837  
       4Ag     0.498100     2B3g    0.635546     2B2g    0.635546  
       5Ag     0.650384     4B1u    0.988658     1B1g    1.126585  
       6Ag     1.126585     5B1u    1.198375     3B2u    1.524991  
       3B3u    1.524991     6B1u    1.739794     1Au     1.739794  
       7Ag     2.147389     3B3g    2.263244     3B2g    2.263244  
       7B1u    2.621293     4B3u    3.387824     4B2u    3.387824  
       8Ag     3.827175     4B2g    3.962269     4B3g    3.962269  
       8B1u    4.375484     2B1g    4.561056     9Ag     4.561056  
       5B3u    4.627754     5B2u    4.627754     6B3u    4.889311  
       6B2u    4.889311     5B2g    5.375285     5B3g    5.375285  
      10Ag     5.449076     6B3g    5.947536     6B2g    5.947536  
       3B1g    5.984904    11Ag     5.984907     2Au     6.163420  
       9B1u    6.163423    10B1u    6.305000    12Ag     6.575645  
      11B1u    6.609638     3Au     6.609638     7B3u    6.854492  
       7B2u    6.854492    12B1u    7.930180     7B3g    8.827395  
       7B2g    8.827395    13Ag     9.163036    13B1u   24.535080  

    Beta Occupied:                                                        

       1Ag   -19.221792     1B1u  -19.217703     2Ag    -1.587249  
       2B1u   -0.658232     1B2u   -0.635423     1B3u   -0.635423  
       3Ag    -0.559761  

    Beta Virtual:                                                         

       1B3g    0.029187     1B2g    0.029187     3B1u    0.355578  
       2B3u    0.471888     2B2u    0.471888     4Ag     0.505593  
       5Ag     0.676298     2B3g    0.686377     2B2g    0.686377  
       4B1u    1.028329     1B1g    1.165334     6Ag     1.165334  
       5B1u    1.239402     3B2u    1.565289     3B3u    1.565289  
       6B1u    1.806796     1Au     1.806796     7Ag     2.168811  
       3B3g    2.304856     3B2g    2.304856     7B1u    2.651378  
       4B3u    3.456173     4B2u    3.456173     8Ag     3.851397  
       4B2g    4.033486     4B3g    4.033486     8B1u    4.422496  
       9Ag     4.594106     2B1g    4.594106     5B2u    4.687625  
       5B3u    4.687625     6B3u    4.927657     6B2u    4.927657  
       5B2g    5.450384     5B3g    5.450384    10Ag     5.477650  
       6B3g    5.994445     6B2g    5.994445     3B1g    6.085724  
      11Ag     6.085726     2Au     6.266167     9B1u    6.266169  
      10B1u    6.342578    12Ag     6.619881    11B1u    6.663274  
       3Au     6.663275     7B3u    6.900290     7B2u    6.900290  
      12B1u    7.963708     7B3g    8.875488     7B2g    8.875488  
      13Ag     9.201723    13B1u   24.573183  

    Final Occupation by Irrep:
             Ag   B1g   B2g   B3g    Au   B1u   B2u   B3u 
    DOCC [     3,    0,    0,    0,    0,    2,    1,    1 ]
    SOCC [     0,    0,    1,    1,    0,    0,    0,    0 ]
    NA   [     3,    0,    1,    1,    0,    2,    1,    1 ]
    NB   [     3,    0,    0,    0,    0,    2,    1,    1 ]

  @DF-UKS Final Energy:  -150.07327325207837

   => Energetics <=

    Nuclear Repulsion Energy =             37.7050353955053268
    One-Electron Energy =                -279.6674208010633720
    Two-Electron Energy =                 106.0018075159607776
    DFT Exchange-Correlation Energy =     -14.1126953624810874
    Empirical Dispersion Energy =           0.0000000000000000
    VV10 Nonlocal Energy =                  0.0000000000000000
    Total Energy =                       -150.0732732520783657

  UHF NO Occupations:
  HONO-2 :    1B3u 1.9993956
  HONO-1 :    1B2g 1.0000000
  HONO-0 :    1B3g 1.0000000
  LUNO+0 :    2B3u 0.0006044
  LUNO+1 :    2B2u 0.0006044
  LUNO+2 :    3B1u 0.0005427
  LUNO+3 :    4 Ag 0.0002144


Computation Completed


Properties will be evaluated at   0.000000,   0.000000,   0.000000 [a0]

Properties computed using the SCF density matrix


 Multipole Moments:

 ------------------------------------------------------------------------------------
     Multipole            Electronic (a.u.)      Nuclear  (a.u.)        Total (a.u.)
 ------------------------------------------------------------------------------------

 L = 1.  Multiply by 2.5417464519 to convert [e a0] to [Debye]
 Dipole X            :          0.0000000            0.0000000            0.0000000
 Dipole Y            :          0.0000000            0.0000000            0.0000000
 Dipole Z            :          0.0000000            0.0000000            0.0000000
 Magnitude           :                                                    0.0000000

 ------------------------------------------------------------------------------------

*** tstop() called on cics-quant-001 at Tue Dec 23 13:36:23 2025
Module time:
	user time   =       1.20 seconds =       0.02 minutes
	system time =       0.08 seconds =       0.00 minutes
	total time  =          0 seconds =       0.00 minutes
Total time:
	user time   =       1.20 seconds =       0.02 minutes
	system time =       0.08 seconds =       0.00 minutes
	total time  =          0 seconds =       0.00 minutes

*** tstart() called on cics-quant-001
*** at Tue Dec 23 13:36:23 2025

   => Libint2 <=

    Primary   basis highest AM E, G, H:  6, 6, 3
    Auxiliary basis highest AM E, G, H:  7, 7, 4
    Onebody   basis highest AM E, G, H:  -, -, -
    Solid Harmonics ordering:            Gaussian
   => Loading Basis Set <=

    Name: CC-PVTZ
    Role: ORBITAL
    Keyword: BASIS
    atoms 1-2 entry O          line   262 file /home/jrodriguesro/psi4conda/share/psi4/basis/cc-pvtz.gbs 


         ---------------------------------------------------------
                                   SCF
               by Justin Turney, Rob Parrish, Andy Simmonett
                          and Daniel G. A. Smith
                              UKS Reference
                        5 Threads,   7629 MiB Core
         ---------------------------------------------------------

  ==> Geometry <==

    Molecular point group: d2h
    Full point group: D_inf_h

    Geometry (in Angstrom), charge = 0, multiplicity = 3:

       Center              X                  Y                   Z               Mass       
    ------------   -----------------  -----------------  -----------------  -----------------
         O            0.000000000000     0.000000000000    -0.449109000000    15.994914619570
         O            0.000000000000     0.000000000000     0.449109000000    15.994914619570

  Running in d2h symmetry.

  Rotational constants: A = ************  B =      2.61265  C =      2.61265 [cm^-1]
  Rotational constants: A = ************  B =  78325.24481  C =  78325.24481 [MHz]
  Nuclear repulsion =   37.705035395505327

  Charge       = 0
  Multiplicity = 3
  Electrons    = 16
  Nalpha       = 9
  Nbeta        = 7

  ==> Algorithm <==

  SCF Algorithm Type is DF.
  DIIS enabled.
  MOM disabled.
  Fractional occupation disabled.
  Guess Type is READ.
  Energy threshold   = 1.00e-08
  Density threshold  = 1.00e-08
  Integral threshold = 1.00e-12

  ==> Primary Basis <==

  Basis Set: CC-PVTZ
    Blend: CC-PVTZ
    Number of shells: 20
    Number of basis functions: 60
    Number of Cartesian functions: 70
    Spherical Harmonics?: true
    Max angular momentum: 3

  ==> DFT Potential <==

   => LibXC <=

    Version 7.0.0
    S. Lehtola, C. Steigemann, M. J.T. Oliveira, and M. A.L. Marques.,  SoftwareX 7, 1–5 (2018) (10.1016/j.softx.2017.11.002)

   => Composite Functional: B3LYP <= 

    B3LYP Hyb-GGA Exchange-Correlation Functional

    P. J. Stephens, F. J. Devlin, C. F. Chabalowski, and M. J. Frisch.,  J. Phys. Chem. 98, 11623 (1994) (10.1021/j100096a001)

    Deriv               =              1
    GGA                 =           TRUE
    Meta                =          FALSE

    Exchange Hybrid     =           TRUE
    MP2 Hybrid          =          FALSE

   => Exchange Functionals <=

    0.0800   Slater exchange
    0.7200         Becke 88

   => Exact (HF) Exchange <=

    0.2000               HF 

   => Correlation Functionals <=

    0.1900   Vosko, Wilk & Nusair (VWN5_RPA)
    0.8100   Lee, Yang & Parr

   => LibXC Density Thresholds  <==

    XC_HYB_GGA_XC_B3LYP:  1.00E-15 

   => Molecular Quadrature <=

    Radial Scheme          =       TREUTLER
    Pruning Scheme         =           NONE
    Nuclear Scheme         =       TREUTLER

    Blocking Scheme        =         OCTREE
    BS radius alpha        =              1
    Pruning alpha          =              1
    Radial Points          =             75
    Spherical Points       =            302
    Total Points           =          42366
    Total Blocks           =            376
    Max Points             =            253
    Max Functions          =             60
    Weights Tolerance      =       1.00E-15

   => Loading Basis Set <=

    Name: (CC-PVTZ AUX)
    Role: JKFIT
    Keyword: DF_BASIS_SCF
    atoms 1-2 entry O          line   229 file /home/jrodriguesro/psi4conda/share/psi4/basis/cc-pvtz-jkfit.gbs 

   => Loading Basis Set <=

    Name: CC-PVTZ
    Role: ORBITAL
    Keyword: BASIS
    atoms 1-2 entry O          line   262 file /home/jrodriguesro/psi4conda/share/psi4/basis/cc-pvtz.gbs 

  Reading orbitals from file /tmp/scan_OO_9.default.486679.180.npy, no projection.

  ==> Integral Setup <==

  DFHelper Memory: AOs need 0.005 GiB; user supplied 5.517 GiB. 
  SCF_SUBTYPE=INCORE selected. In-core MEM_DF algorithm will be used.
  Using in-core AOs.

  ==> MemDFJK: Density-Fitted J/K Matrices <==

    J tasked:                   Yes
    K tasked:                   Yes
    wK tasked:                   No
    OpenMP threads:               5
    Memory [MiB]:              5649
    Algorithm:                 Core
    Schwarz Cutoff:           1E-12
    Mask sparsity (%):       0.0000
    Fitting Condition:        1E-10

   => Auxiliary Basis Set <=

  Basis Set: (CC-PVTZ AUX)
    Blend: CC-PVTZ-JKFIT
    Number of shells: 50
    Number of basis functions: 158
    Number of Cartesian functions: 192
    Spherical Harmonics?: true
    Max angular momentum: 4

  Cached 100.0% of DFT collocation blocks in 0.071 [GiB].

  Minimum eigenvalue in the overlap matrix is 2.1959890347E-03.
  Reciprocal condition number of the overlap matrix is 5.8022957812E-04.
    Using symmetric orthogonalization.

  ==> Pre-Iterations <==

  SCF Guess: Orbitals guess was supplied from a previous computation.

   -------------------------------------------------------
    Irrep   Nso     Nmo     Nalpha   Nbeta   Ndocc  Nsocc
   -------------------------------------------------------
     Ag        13      13       3       3       3       0
     B1g        3       3       0       0       0       0
     B2g        7       7       1       0       0       1
     B3g        7       7       1       0       0       1
     Au         3       3       0       0       0       0
     B1u       13      13       2       2       2       0
     B2u        7       7       1       1       1       0
     B3u        7       7       1       1       1       0
   -------------------------------------------------------
    Total      60      60       9       7       7       2
   -------------------------------------------------------

  ==> Iterations <==

                           Total Energy        Delta E     RMS |[F,P]|

   @DF-UKS iter   0:  -150.07327325085555   -1.50073e+02   9.65790e-12 
   @DF-UKS iter   1:  -150.07327325085544    1.13687e-13   8.56476e-12 DIIS
  Energy and wave function converged.


  ==> Post-Iterations <==

   Electrons on quadrature grid:
      Nalpha   =    8.9999996394 ; deviation = -3.606e-07
      Nbeta    =    6.9999997882 ; deviation = -2.118e-07
      Ntotal   =   15.9999994277 ; deviation = -5.723e-07 

   @Spin Contamination Metric:   3.955668761E-03
   @S^2 Expected:                2.000000000E+00
   @S^2 Observed:                2.003955669E+00
   @S   Expected:                1.000000000E+00
   @S   Observed:                1.000000000E+00

    Orbital Energies [Eh]
    ---------------------

    Alpha Occupied:                                                       

       1Ag   -19.250219     1B1u  -19.246405     2Ag    -1.626562  
       2B1u   -0.743741     1B2u   -0.726036     1B3u   -0.726036  
       3Ag    -0.610230     1B3g   -0.161756     1B2g   -0.161756  

    Alpha Virtual:                                                        

       3B1u    0.341584     2B3u    0.445837     2B2u    0.445837  
       4Ag     0.498100     2B3g    0.635546     2B2g    0.635546  
       5Ag     0.650384     4B1u    0.988658     1B1g    1.126585  
       6Ag     1.126585     5B1u    1.198375     3B2u    1.524991  
       3B3u    1.524991     6B1u    1.739794     1Au     1.739794  
       7Ag     2.147389     3B3g    2.263244     3B2g    2.263244  
       7B1u    2.621293     4B3u    3.387824     4B2u    3.387824  
       8Ag     3.827175     4B2g    3.962269     4B3g    3.962269  
       8B1u    4.375484     2B1g    4.561056     9Ag     4.561056  
       5B2u    4.627754     5B3u    4.627754     6B3u    4.889311  
       6B2u    4.889311     5B2g    5.375285     5B3g    5.375285  
      10Ag     5.449076     6B3g    5.947536     6B2g    5.947536  
       3B1g    5.984904    11Ag     5.984907     2Au     6.163420  
       9B1u    6.163423    10B1u    6.305000    12Ag     6.575645  
      11B1u    6.609638     3Au     6.609638     7B3u    6.854492  
       7B2u    6.854492    12B1u    7.930180     7B3g    8.827395  
       7B2g    8.827395    13Ag     9.163036    13B1u   24.535080  

    Beta Occupied:                                                        

       1Ag   -19.221792     1B1u  -19.217703     2Ag    -1.587249  
       2B1u   -0.658232     1B2u   -0.635423     1B3u   -0.635423  
       3Ag    -0.559761  

    Beta Virtual:                                                         

       1B3g    0.029187     1B2g    0.029187     3B1u    0.355578  
       2B3u    0.471888     2B2u    0.471888     4Ag     0.505593  
       5Ag     0.676298     2B3g    0.686377     2B2g    0.686377  
       4B1u    1.028329     1B1g    1.165334     6Ag     1.165334  
       5B1u    1.239402     3B2u    1.565289     3B3u    1.565289  
       6B1u    1.806796     1Au     1.806796     7Ag     2.168811  
       3B3g    2.304856     3B2g    2.304856     7B1u    2.651378  
       4B3u    3.456173     4B2u    3.456173     8Ag     3.851397  
       4B2g    4.033486     4B3g    4.033486     8B1u    4.422496  
       9Ag     4.594106     2B1g    4.594106     5B2u    4.687625  
       5B3u    4.687625     6B3u    4.927657     6B2u    4.927657  
       5B2g    5.450384     5B3g    5.450384    10Ag     5.477650  
       6B3g    5.994445     6B2g    5.994445     3B1g    6.085724  
      11Ag     6.085726     2Au     6.266167     9B1u    6.266169  
      10B1u    6.342578    12Ag     6.619881    11B1u    6.663274  
       3Au     6.663275     7B3u    6.900290     7B2u    6.900290  
      12B1u    7.963708     7B3g    8.875488     7B2g    8.875488  
      13Ag     9.201723    13B1u   24.573183  

    Final Occupation by Irrep:
             Ag   B1g   B2g   B3g    Au   B1u   B2u   B3u 
    DOCC [     3,    0,    0,    0,    0,    2,    1,    1 ]
    SOCC [     0,    0,    1,    1,    0,    0,    0,    0 ]
    NA   [     3,    0,    1,    1,    0,    2,    1,    1 ]
    NB   [     3,    0,    0,    0,    0,    2,    1,    1 ]

  @DF-UKS Final Energy:  -150.07327325085544

   => Energetics <=

    Nuclear Repulsion Energy =             37.7050353955053268
    One-Electron Energy =                -279.6674208215999897
    Two-Electron Energy =                 106.0018075398272543
    DFT Exchange-Correlation Energy =     -14.1126953645880473
    Empirical Dispersion Energy =           0.0000000000000000
    VV10 Nonlocal Energy =                  0.0000000000000000
    Total Energy =                       -150.0732732508554363

  UHF NO Occupations:
  HONO-2 :    1B3u 1.9993956
  HONO-1 :    1B2g 1.0000000
  HONO-0 :    1B3g 1.0000000
  LUNO+0 :    2B3u 0.0006044
  LUNO+1 :    2B2u 0.0006044
  LUNO+2 :    3B1u 0.0005427
  LUNO+3 :    4 Ag 0.0002144


Computation Completed


Properties will be evaluated at   0.000000,   0.000000,   0.000000 [a0]

Properties computed using the B3LYP density matrix


 Multipole Moments:

 ------------------------------------------------------------------------------------
     Multipole            Electronic (a.u.)      Nuclear  (a.u.)        Total (a.u.)
 ------------------------------------------------------------------------------------

 L = 1.  Multiply by 2.5417464519 to convert [e a0] to [Debye]
 Dipole X            :          0.0000000            0.0000000            0.0000000
 Dipole Y            :          0.0000000            0.0000000            0.0000000
 Dipole Z            :          0.0000000            0.0000000            0.0000000
 Magnitude           :                                                    0.0000000

 L = 2.  Multiply by 1.3450342976 to convert [e a0^2] to [Debye ang]
 Quadrupole XX       :         -6.9016081            0.0000000           -6.9016081
 Quadrupole XY       :          0.0000000            0.0000000            0.0000000
 Quadrupole XZ       :          0.0000000            0.0000000            0.0000000
 Quadrupole YY       :         -6.9016081            0.0000000           -6.9016081
 Quadrupole YZ       :          0.0000000            0.0000000            0.0000000
 Quadrupole ZZ       :        -19.6417058           11.5244772           -8.1172286
 Traceless XX        :          4.2466992           -3.8414924            0.4052068
 Traceless YY        :          4.2466992           -3.8414924            0.4052068
 Traceless ZZ        :         -8.4933985            7.6829848           -0.8104137

 ------------------------------------------------------------------------------------
  ==> Computing MBIS Charges <==

  Electron Count from Grid (Expected Number): 16.00000 (16.00000)
  Difference: -0.00000

  MBIS Charges: (a.u.)
   Center  Symbol  Z      Pop.       Charge
      1       O    8    8.000000    0.000000
      2       O    8    8.000000    0.000000

  MBIS Dipoles: [e a0]
   Center  Symbol  Z        X           Y           Z
      1       O    8    0.000000    0.000000    0.211492
      2       O    8    0.000000   -0.000000   -0.211492

  MBIS Quadrupoles: [e a0^2]
   Center  Symbol  Z      XX        XY        XZ        YY        YZ        ZZ
      1       O    8   -3.4508    0.0000    0.0000   -3.4508   -0.0000   -3.6996
      2       O    8   -3.4508    0.0000   -0.0000   -3.4508    0.0000   -3.6996

  MBIS Octupoles: [e a0^3]
   Center  Symbol  Z      XXX       XXY       XXZ       XYY       XYZ       XZZ       YYY       YYZ       YZZ       ZZZ
      1       O    8   -0.0000   -0.0000    0.3303   -0.0000   -0.0000   -0.0000    0.0000    0.3303    0.0000    0.1837
      2       O    8   -0.0000   -0.0000   -0.3303   -0.0000    0.0000   -0.0000    0.0000   -0.3303    0.0000   -0.1837

  MBIS Radial Moments:
   Center  Symbol  Z      [a0^2]      [a0^3]      [a0^4]      
      1       O    8   10.601239   19.448164   43.053491
      2       O    8   10.601239   19.448164   43.053491

  MBIS Valence Widths: [a0]
   Center  Symbol  Z     Width
      1       O    8    0.372248
      2       O    8    0.372248


  MBIS Valence Charges: (a.u.)
   Center  Symbol  Z     Charge
      1       O    8   -6.396206
      2       O    8   -6.396206

*** tstop() called on cics-quant-001 at Tue Dec 23 13:36:24 2025
Module time:
	user time   =       0.53 seconds =       0.01 minutes
	system time =       0.03 seconds =       0.00 minutes
	total time  =          1 seconds =       0.02 minutes
Total time:
	user time   =       1.75 seconds =       0.03 minutes
	system time =       0.11 seconds =       0.00 minutes
	total time  =          1 seconds =       0.02 minutes

    Psi4 stopped on: Tuesday, 23 December 2025 01:36PM
    Psi4 wall time for execution: 0:00:00.75

*** Psi4 exiting successfully. Buy a developer a beer!
