
    -----------------------------------------------------------------------
          Psi4: An Open-Source Ab Initio Electronic Structure Package
                               Psi4 1.9.1 release

                         Git: Rev {} zzzzzzz 


    D. G. A. Smith, L. A. Burns, A. C. Simmonett, R. M. Parrish,
    M. C. Schieber, R. Galvelis, P. Kraus, H. Kruse, R. Di Remigio,
    A. Alenaizan, A. M. James, S. Lehtola, J. P. Misiewicz, M. Scheurer,
    R. A. Shaw, J. B. Schriber, Y. Xie, Z. L. Glick, D. A. Sirianni,
    J. S. O'Brien, J. M. Waldrop, A. Kumar, E. G. Hohenstein,
    B. P. Pritchard, B. R. Brooks, H. F. Schaefer III, A. Yu. Sokolov,
    K. Patkowski, A. E. DePrince III, U. Bozkaya, R. A. King,
    F. A. Evangelista, J. M. Turney, T. D. Crawford, C. D. Sherrill,
    J. Chem. Phys. 152(18) 184108 (2020). https://doi.org/10.1063/5.0006002

                            Additional Code Authors
    E. T. Seidl, C. L. Janssen, E. F. Valeev, M. L. Leininger,
    J. F. Gonthier, R. M. Richard, H. R. McAlexander, M. Saitow, X. Wang,
    P. Verma, M. H. Lechner, A. Jiang, S. Behnle, A. G. Heide,
    M. F. Herbst, and D. L. Poole

             Previous Authors, Complete List of Code Contributors,
                       and Citations for Specific Modules
    https://github.com/psi4/psi4/blob/master/codemeta.json
    https://github.com/psi4/psi4/graphs/contributors
    http://psicode.org/psi4manual/master/introduction.html#citing-psifour

    -----------------------------------------------------------------------


    Psi4 started on: Tuesday, 26 August 2025 10:25PM

    Process ID: 61416
    Host:       Mac.lan
    PSIDATADIR: /Users/joseantoniorodriguesromero/anaconda3/share/psi4
    Memory:     500.0 MiB
    Threads:    1
    
  ==> Input File <==

--------------------------------------------------------------------------
molecule { 
0 2
O           0.000000           0.000000           0.000000
N           0.000000           0.000000           1.906022
}

set { 
basis              cc-pvtz
reference          uks
maxiter            500
DAMPING_PERCENTAGE 1
E_CONVERGENCE      1.0E-8
D_CONVERGENCE      1.0E-8
DIIS_MAX_VECS      400
MBIS_MAXITER       8000
guess              read
}

E, wfn = energy('b3lyp', restart_file='last_wfn', return_wfn=True)
properties('b3lyp','MBIS_CHARGES', wfn=wfn)
wfn.to_file('last_wfn')
--------------------------------------------------------------------------

Scratch directory: /tmp/
 Found user provided orbital data. Setting orbital guess to READ 
 Copying restart file <last_wfn.npy> to </tmp/scan_NO_39.default.61416.180.npy> for internal processing
   => Libint2 <=

    Primary   basis highest AM E, G, H:  6, 6, 3
    Auxiliary basis highest AM E, G, H:  7, 7, 4
    Onebody   basis highest AM E, G, H:  -, -, -
    Solid Harmonics ordering:            Gaussian

*** tstart() called on Mac.lan
*** at Tue Aug 26 22:25:52 2025

   => Loading Basis Set <=

    Name: CC-PVTZ
    Role: ORBITAL
    Keyword: BASIS
    atoms 1 entry O          line   262 file /Users/joseantoniorodriguesromero/anaconda3/share/psi4/basis/cc-pvtz.gbs 
    atoms 2 entry N          line   224 file /Users/joseantoniorodriguesromero/anaconda3/share/psi4/basis/cc-pvtz.gbs 


         ---------------------------------------------------------
                                   SCF
               by Justin Turney, Rob Parrish, Andy Simmonett
                          and Daniel G. A. Smith
                              UKS Reference
                        1 Threads,    500 MiB Core
         ---------------------------------------------------------

  ==> Geometry <==

    Molecular point group: c2v
    Full point group: C_inf_v

    Geometry (in Angstrom), charge = 0, multiplicity = 2:

       Center              X                  Y                   Z               Mass       
    ------------   -----------------  -----------------  -----------------  -----------------
         O            0.000000000000     0.000000000000    -0.889731890181    15.994914619570
         N            0.000000000000     0.000000000000     1.016290109819    14.003074004430

  Running in c2v symmetry.

  Rotational constants: A = ************  B =      0.62148  C =      0.62148 [cm^-1]
  Rotational constants: A = ************  B =  18631.51657  C =  18631.51657 [MHz]
  Nuclear repulsion =   15.547524528845940

  Charge       = 0
  Multiplicity = 2
  Electrons    = 15
  Nalpha       = 8
  Nbeta        = 7

  ==> Algorithm <==

  SCF Algorithm Type is DF.
  DIIS enabled.
  MOM disabled.
  Fractional occupation disabled.
  Guess Type is READ.
  Energy threshold   = 1.00e-08
  Density threshold  = 1.00e-08
  Integral threshold = 1.00e-12

  ==> Primary Basis <==

  Basis Set: CC-PVTZ
    Blend: CC-PVTZ
    Number of shells: 20
    Number of basis functions: 60
    Number of Cartesian functions: 70
    Spherical Harmonics?: true
    Max angular momentum: 3

  ==> DFT Potential <==

   => LibXC <=

    Version 6.2.2
    S. Lehtola, C. Steigemann, M. J.T. Oliveira, and M. A.L. Marques.,  SoftwareX 7, 1–5 (2018) (10.1016/j.softx.2017.11.002)

   => Composite Functional: B3LYP <= 

    B3LYP Hyb-GGA Exchange-Correlation Functional

    P. J. Stephens, F. J. Devlin, C. F. Chabalowski, and M. J. Frisch.,  J. Phys. Chem. 98, 11623 (1994) (10.1021/j100096a001)

    Deriv               =              1
    GGA                 =           TRUE
    Meta                =          FALSE

    Exchange Hybrid     =           TRUE
    MP2 Hybrid          =          FALSE

   => Exchange Functionals <=

    0.0800   Slater exchange
    0.7200         Becke 88

   => Exact (HF) Exchange <=

    0.2000               HF 

   => Correlation Functionals <=

    0.1900   Vosko, Wilk & Nusair (VWN5_RPA)
    0.8100   Lee, Yang & Parr

   => LibXC Density Thresholds  <==

    XC_HYB_GGA_XC_B3LYP:  1.00E-15 

   => Molecular Quadrature <=

    Radial Scheme          =       TREUTLER
    Pruning Scheme         =           NONE
    Nuclear Scheme         =       TREUTLER

    Blocking Scheme        =         OCTREE
    BS radius alpha        =              1
    Pruning alpha          =              1
    Radial Points          =             75
    Spherical Points       =            302
    Total Points           =          42804
    Total Blocks           =            384
    Max Points             =            254
    Max Functions          =             60
    Weights Tolerance      =       1.00E-15

   => Loading Basis Set <=

    Name: (CC-PVTZ AUX)
    Role: JKFIT
    Keyword: DF_BASIS_SCF
    atoms 1 entry O          line   229 file /Users/joseantoniorodriguesromero/anaconda3/share/psi4/basis/cc-pvtz-jkfit.gbs 
    atoms 2 entry N          line   177 file /Users/joseantoniorodriguesromero/anaconda3/share/psi4/basis/cc-pvtz-jkfit.gbs 

   => Loading Basis Set <=

    Name: CC-PVTZ
    Role: ORBITAL
    Keyword: BASIS
    atoms 1 entry O          line   262 file /Users/joseantoniorodriguesromero/anaconda3/share/psi4/basis/cc-pvtz.gbs 
    atoms 2 entry N          line   224 file /Users/joseantoniorodriguesromero/anaconda3/share/psi4/basis/cc-pvtz.gbs 

  Reading orbitals from file /tmp/scan_NO_39.default.61416.180.npy, no projection.

  ==> Integral Setup <==

  DFHelper Memory: AOs need 0.005 GiB; user supplied 0.297 GiB. 
  Using in-core AOs.

  ==> MemDFJK: Density-Fitted J/K Matrices <==

    J tasked:                   Yes
    K tasked:                   Yes
    wK tasked:                   No
    OpenMP threads:               1
    Memory [MiB]:               304
    Algorithm:                 Core
    Schwarz Cutoff:           1E-12
    Mask sparsity (%):       0.0000
    Fitting Condition:        1E-10

   => Auxiliary Basis Set <=

  Basis Set: (CC-PVTZ AUX)
    Blend: CC-PVTZ-JKFIT
    Number of shells: 50
    Number of basis functions: 158
    Number of Cartesian functions: 192
    Spherical Harmonics?: true
    Max angular momentum: 4

  Cached 100.0% of DFT collocation blocks in 0.069 [GiB].

  Minimum eigenvalue in the overlap matrix is 1.9654402869E-02.
  Reciprocal condition number of the overlap matrix is 6.5304525776E-03.
    Using symmetric orthogonalization.

  ==> Pre-Iterations <==

  SCF Guess: Orbitals guess was supplied from a previous computation.

   -------------------------------------------------------
    Irrep   Nso     Nmo     Nalpha   Nbeta   Ndocc  Nsocc
   -------------------------------------------------------
     A1        26      26       5       5       5       0
     A2         6       6       0       0       0       0
     B1        14      14       2       1       1       1
     B2        14      14       1       1       1       0
   -------------------------------------------------------
    Total      60      60       8       7       7       1
   -------------------------------------------------------

  ==> Iterations <==

                           Total Energy        Delta E     RMS |[F,P]|

   @DF-UKS iter   0:  -129.72650052543440   -1.29727e+02   9.22074e-04 
   @DF-UKS iter   1:  -129.73283952239072   -6.33900e-03   3.26695e-04 ADIIS/DIIS
   @DF-UKS iter   2:  -129.73289030113622   -5.07787e-05   3.20031e-04 ADIIS/DIIS/DAMP=1%
   @DF-UKS iter   3:  -129.73269576405792    1.94537e-04   2.35990e-04 ADIIS/DIIS/DAMP=1%
   @DF-UKS iter   4:  -129.73301186709151   -3.16103e-04   6.87776e-05 DIIS/DAMP=1%
   @DF-UKS iter   5:  -129.73297014502234    4.17221e-05   2.62314e-05 DIIS/DAMP=1%
   @DF-UKS iter   6:  -129.73296618150562    3.96352e-06   4.93629e-06 DIIS/DAMP=1%
   @DF-UKS iter   7:  -129.73298363694047   -1.74554e-05   1.92701e-06 DIIS/DAMP=1%
   @DF-UKS iter   8:  -129.73297775651167    5.88043e-06   1.73226e-07 DIIS/DAMP=1%
   @DF-UKS iter   9:  -129.73297915828559   -1.40177e-06   4.76428e-08 DIIS/DAMP=1%
   @DF-UKS iter  10:  -129.73297906671391    9.15717e-08   5.97001e-09 DIIS/DAMP=1%
   @DF-UKS iter  11:  -129.73297908284735   -1.61334e-08   8.74329e-10 DIIS/DAMP=1%
   @DF-UKS iter  12:  -129.73297908118820    1.65915e-09   2.11771e-10 DIIS/DAMP=1%
  Energy and wave function converged.


  ==> Post-Iterations <==

   Electrons on quadrature grid:
      Nalpha   =    8.0000000273 ; deviation = 2.735e-08
      Nbeta    =    7.0000008622 ; deviation = 8.622e-07
      Ntotal   =   15.0000008895 ; deviation = 8.895e-07 

   @Spin Contamination Metric:   1.215886147E+00
   @S^2 Expected:                7.500000000E-01
   @S^2 Observed:                1.965886147E+00
   @S   Expected:                5.000000000E-01
   @S   Observed:                5.000000000E-01

    Orbital Energies [Eh]
    ---------------------

    Alpha Occupied:                                                       

       1A1   -19.218235     2A1   -14.495865     3A1    -0.909429  
       4A1    -0.805626     1B1    -0.399127     5A1    -0.396064  
       1B2    -0.392100     2B1    -0.317094  

    Alpha Virtual:                                                        

       2B2    -0.170851     6A1    -0.129075     7A1     0.408683  
       3B1     0.410078     3B2     0.410621     8A1     0.525293  
       4B1     0.601793     9A1     0.624006     4B2     0.625883  
       1A2     0.955389    10A1     0.955449     5B2     0.957629  
       5B1     0.958538    11A1     0.966272    12A1     1.202085  
       2A2     1.476727    13A1     1.482806     6B1     1.610990  
       6B2     1.620420    14A1     1.974304     7B2     2.709783  
       7B1     2.710423    15A1     2.865574    16A1     3.488178  
       8B1     3.577215     8B2     3.612393     9B2     3.770932  
       9B1     3.770932     3A2     3.773730    17A1     3.773753  
      10B2     3.796828    10B1     3.797953    18A1     3.983884  
       4A2     4.280155    19A1     4.280223    11B2     4.332908  
      11B1     4.333550    20A1     4.609321     5A2     5.113068  
      21A1     5.119343    12B1     5.119704    12B2     5.122559  
      13B1     5.184488    13B2     5.192476    22A1     5.326552  
      23A1     5.396999     6A2     6.177889    24A1     6.192625  
      14B1     6.270824    14B2     6.302720    25A1     6.563290  
      26A1     7.756778  

    Beta Occupied:                                                        

       1A1   -19.255582     2A1   -14.445993     3A1    -0.994872  
       4A1    -0.674060     1B2    -0.437007     5A1    -0.415841  
       1B1    -0.363468  

    Beta Virtual:                                                         

       2B2    -0.142729     2B1    -0.137626     6A1    -0.105163  
       7A1     0.448170     3B2     0.465595     3B1     0.475690  
       8A1     0.550231     4B2     0.573544     4B1     0.600725  
       9A1     0.612991    10A1     0.957904     5B2     1.000509  
       5B1     1.011331    11A1     1.046205     1A2     1.046213  
      12A1     1.205700     2A2     1.427437    13A1     1.429376  
       6B2     1.567754     6B1     1.601365    14A1     1.974170  
       7B2     2.826891     7B1     2.830208    15A1     2.927085  
      16A1     3.457209     8B2     3.490357     8B1     3.553183  
      17A1     3.880142     3A2     3.880154     9B2     3.884857  
       9B1     3.889943    10B2     3.892849    10B1     3.892971  
      18A1     4.039795     4A2     4.446125    19A1     4.446136  
      11B2     4.453910    11B1     4.460211    20A1     4.668915  
      21A1     5.045346     5A2     5.046235    12B2     5.049947  
      12B1     5.052290    13B2     5.106019    13B1     5.151429  
      22A1     5.318907    23A1     5.450876    24A1     6.085878  
       6A2     6.087318    14B2     6.155915    14B1     6.215553  
      25A1     6.473356    26A1     7.695120  

    Final Occupation by Irrep:
             A1    A2    B1    B2 
    DOCC [     5,    0,    1,    1 ]
    SOCC [     0,    0,    1,    0 ]
    NA   [     5,    0,    2,    1 ]
    NB   [     5,    0,    1,    1 ]

  @DF-UKS Final Energy:  -129.73297908118820

   => Energetics <=

    Nuclear Repulsion Energy =             15.5475245288459405
    One-Electron Energy =                -208.2099485418364679
    Two-Electron Energy =                  75.2058256644374978
    DFT Exchange-Correlation Energy =     -12.2763807326351770
    Empirical Dispersion Energy =           0.0000000000000000
    VV10 Nonlocal Energy =                  0.0000000000000000
    Total Energy =                       -129.7329790811882049

  UHF NO Occupations:
  HONO-2 :    5 A1 1.8359995
  HONO-1 :    1 B2 1.2979260
  HONO-0 :    2 B1 1.0000000
  LUNO+0 :    2 B2 0.7020740
  LUNO+1 :    6 A1 0.1640005
  LUNO+2 :    7 A1 0.0010813
  LUNO+3 :    8 A1 0.0004801


Computation Completed


Properties will be evaluated at   0.000000,   0.000000,   0.000000 [a0]

Properties computed using the SCF density matrix


 Multipole Moments:

 ------------------------------------------------------------------------------------
     Multipole            Electronic (a.u.)      Nuclear  (a.u.)        Total (a.u.)
 ------------------------------------------------------------------------------------

 L = 1.  Multiply by 2.5417464519 to convert [e a0] to [Debye]
 Dipole X            :          0.0000000            0.0000000            0.0000000
 Dipole Y            :          0.0000000            0.0000000            0.0000000
 Dipole Z            :          0.3364042           -0.0072270            0.3291772
 Magnitude           :                                                    0.3291772

 ------------------------------------------------------------------------------------

*** tstop() called on Mac.lan at Tue Aug 26 22:25:54 2025
Module time:
	user time   =      16.71 seconds =       0.28 minutes
	system time =       1.91 seconds =       0.03 minutes
	total time  =          2 seconds =       0.03 minutes
Total time:
	user time   =      16.71 seconds =       0.28 minutes
	system time =       1.91 seconds =       0.03 minutes
	total time  =          2 seconds =       0.03 minutes

*** tstart() called on Mac.lan
*** at Tue Aug 26 22:25:54 2025

   => Libint2 <=

    Primary   basis highest AM E, G, H:  6, 6, 3
    Auxiliary basis highest AM E, G, H:  7, 7, 4
    Onebody   basis highest AM E, G, H:  -, -, -
    Solid Harmonics ordering:            Gaussian
   => Loading Basis Set <=

    Name: CC-PVTZ
    Role: ORBITAL
    Keyword: BASIS
    atoms 1 entry O          line   262 file /Users/joseantoniorodriguesromero/anaconda3/share/psi4/basis/cc-pvtz.gbs 
    atoms 2 entry N          line   224 file /Users/joseantoniorodriguesromero/anaconda3/share/psi4/basis/cc-pvtz.gbs 


         ---------------------------------------------------------
                                   SCF
               by Justin Turney, Rob Parrish, Andy Simmonett
                          and Daniel G. A. Smith
                              UKS Reference
                        1 Threads,    500 MiB Core
         ---------------------------------------------------------

  ==> Geometry <==

    Molecular point group: c2v
    Full point group: C_inf_v

    Geometry (in Angstrom), charge = 0, multiplicity = 2:

       Center              X                  Y                   Z               Mass       
    ------------   -----------------  -----------------  -----------------  -----------------
         O            0.000000000000     0.000000000000    -0.889731890181    15.994914619570
         N            0.000000000000     0.000000000000     1.016290109819    14.003074004430

  Running in c2v symmetry.

  Rotational constants: A = ************  B =      0.62148  C =      0.62148 [cm^-1]
  Rotational constants: A = ************  B =  18631.51657  C =  18631.51657 [MHz]
  Nuclear repulsion =   15.547524528845940

  Charge       = 0
  Multiplicity = 2
  Electrons    = 15
  Nalpha       = 8
  Nbeta        = 7

  ==> Algorithm <==

  SCF Algorithm Type is DF.
  DIIS enabled.
  MOM disabled.
  Fractional occupation disabled.
  Guess Type is READ.
  Energy threshold   = 1.00e-08
  Density threshold  = 1.00e-08
  Integral threshold = 1.00e-12

  ==> Primary Basis <==

  Basis Set: CC-PVTZ
    Blend: CC-PVTZ
    Number of shells: 20
    Number of basis functions: 60
    Number of Cartesian functions: 70
    Spherical Harmonics?: true
    Max angular momentum: 3

  ==> DFT Potential <==

   => LibXC <=

    Version 6.2.2
    S. Lehtola, C. Steigemann, M. J.T. Oliveira, and M. A.L. Marques.,  SoftwareX 7, 1–5 (2018) (10.1016/j.softx.2017.11.002)

   => Composite Functional: B3LYP <= 

    B3LYP Hyb-GGA Exchange-Correlation Functional

    P. J. Stephens, F. J. Devlin, C. F. Chabalowski, and M. J. Frisch.,  J. Phys. Chem. 98, 11623 (1994) (10.1021/j100096a001)

    Deriv               =              1
    GGA                 =           TRUE
    Meta                =          FALSE

    Exchange Hybrid     =           TRUE
    MP2 Hybrid          =          FALSE

   => Exchange Functionals <=

    0.0800   Slater exchange
    0.7200         Becke 88

   => Exact (HF) Exchange <=

    0.2000               HF 

   => Correlation Functionals <=

    0.1900   Vosko, Wilk & Nusair (VWN5_RPA)
    0.8100   Lee, Yang & Parr

   => LibXC Density Thresholds  <==

    XC_HYB_GGA_XC_B3LYP:  1.00E-15 

   => Molecular Quadrature <=

    Radial Scheme          =       TREUTLER
    Pruning Scheme         =           NONE
    Nuclear Scheme         =       TREUTLER

    Blocking Scheme        =         OCTREE
    BS radius alpha        =              1
    Pruning alpha          =              1
    Radial Points          =             75
    Spherical Points       =            302
    Total Points           =          42804
    Total Blocks           =            384
    Max Points             =            254
    Max Functions          =             60
    Weights Tolerance      =       1.00E-15

   => Loading Basis Set <=

    Name: (CC-PVTZ AUX)
    Role: JKFIT
    Keyword: DF_BASIS_SCF
    atoms 1 entry O          line   229 file /Users/joseantoniorodriguesromero/anaconda3/share/psi4/basis/cc-pvtz-jkfit.gbs 
    atoms 2 entry N          line   177 file /Users/joseantoniorodriguesromero/anaconda3/share/psi4/basis/cc-pvtz-jkfit.gbs 

   => Loading Basis Set <=

    Name: CC-PVTZ
    Role: ORBITAL
    Keyword: BASIS
    atoms 1 entry O          line   262 file /Users/joseantoniorodriguesromero/anaconda3/share/psi4/basis/cc-pvtz.gbs 
    atoms 2 entry N          line   224 file /Users/joseantoniorodriguesromero/anaconda3/share/psi4/basis/cc-pvtz.gbs 

  Reading orbitals from file /tmp/scan_NO_39.default.61416.180.npy, no projection.

  ==> Integral Setup <==

  DFHelper Memory: AOs need 0.005 GiB; user supplied 0.297 GiB. 
  Using in-core AOs.

  ==> MemDFJK: Density-Fitted J/K Matrices <==

    J tasked:                   Yes
    K tasked:                   Yes
    wK tasked:                   No
    OpenMP threads:               1
    Memory [MiB]:               304
    Algorithm:                 Core
    Schwarz Cutoff:           1E-12
    Mask sparsity (%):       0.0000
    Fitting Condition:        1E-10

   => Auxiliary Basis Set <=

  Basis Set: (CC-PVTZ AUX)
    Blend: CC-PVTZ-JKFIT
    Number of shells: 50
    Number of basis functions: 158
    Number of Cartesian functions: 192
    Spherical Harmonics?: true
    Max angular momentum: 4

  Cached 100.0% of DFT collocation blocks in 0.069 [GiB].

  Minimum eigenvalue in the overlap matrix is 1.9654402869E-02.
  Reciprocal condition number of the overlap matrix is 6.5304525776E-03.
    Using symmetric orthogonalization.

  ==> Pre-Iterations <==

  SCF Guess: Orbitals guess was supplied from a previous computation.

   -------------------------------------------------------
    Irrep   Nso     Nmo     Nalpha   Nbeta   Ndocc  Nsocc
   -------------------------------------------------------
     A1        26      26       5       5       5       0
     A2         6       6       0       0       0       0
     B1        14      14       2       1       1       1
     B2        14      14       1       1       1       0
   -------------------------------------------------------
    Total      60      60       8       7       7       1
   -------------------------------------------------------

  ==> Iterations <==

                           Total Energy        Delta E     RMS |[F,P]|

   @DF-UKS iter   0:  -129.73297908091604   -1.29733e+02   2.66219e-11 
   @DF-UKS iter   1:  -129.73297908091598    5.68434e-14   6.36989e-11 DIIS
  Energy and wave function converged.


  ==> Post-Iterations <==

   Electrons on quadrature grid:
      Nalpha   =    8.0000000273 ; deviation = 2.735e-08
      Nbeta    =    7.0000008622 ; deviation = 8.622e-07
      Ntotal   =   15.0000008895 ; deviation = 8.895e-07 

   @Spin Contamination Metric:   1.215886147E+00
   @S^2 Expected:                7.500000000E-01
   @S^2 Observed:                1.965886147E+00
   @S   Expected:                5.000000000E-01
   @S   Observed:                5.000000000E-01

    Orbital Energies [Eh]
    ---------------------

    Alpha Occupied:                                                       

       1A1   -19.218235     2A1   -14.495865     3A1    -0.909429  
       4A1    -0.805626     1B1    -0.399127     5A1    -0.396064  
       1B2    -0.392100     2B1    -0.317094  

    Alpha Virtual:                                                        

       2B2    -0.170851     6A1    -0.129075     7A1     0.408683  
       3B1     0.410078     3B2     0.410621     8A1     0.525293  
       4B1     0.601793     9A1     0.624006     4B2     0.625883  
       1A2     0.955389    10A1     0.955449     5B2     0.957629  
       5B1     0.958538    11A1     0.966272    12A1     1.202085  
       2A2     1.476727    13A1     1.482806     6B1     1.610990  
       6B2     1.620420    14A1     1.974304     7B2     2.709783  
       7B1     2.710423    15A1     2.865574    16A1     3.488178  
       8B1     3.577215     8B2     3.612393     9B2     3.770932  
       9B1     3.770932     3A2     3.773730    17A1     3.773753  
      10B2     3.796828    10B1     3.797953    18A1     3.983884  
       4A2     4.280155    19A1     4.280223    11B2     4.332908  
      11B1     4.333550    20A1     4.609321     5A2     5.113068  
      21A1     5.119343    12B1     5.119704    12B2     5.122559  
      13B1     5.184488    13B2     5.192476    22A1     5.326552  
      23A1     5.396999     6A2     6.177889    24A1     6.192625  
      14B1     6.270824    14B2     6.302720    25A1     6.563290  
      26A1     7.756778  

    Beta Occupied:                                                        

       1A1   -19.255582     2A1   -14.445993     3A1    -0.994872  
       4A1    -0.674060     1B2    -0.437007     5A1    -0.415841  
       1B1    -0.363468  

    Beta Virtual:                                                         

       2B2    -0.142729     2B1    -0.137626     6A1    -0.105163  
       7A1     0.448170     3B2     0.465595     3B1     0.475690  
       8A1     0.550231     4B2     0.573544     4B1     0.600725  
       9A1     0.612991    10A1     0.957904     5B2     1.000509  
       5B1     1.011331    11A1     1.046205     1A2     1.046213  
      12A1     1.205700     2A2     1.427437    13A1     1.429376  
       6B2     1.567754     6B1     1.601365    14A1     1.974170  
       7B2     2.826891     7B1     2.830208    15A1     2.927085  
      16A1     3.457209     8B2     3.490357     8B1     3.553183  
      17A1     3.880142     3A2     3.880154     9B2     3.884857  
       9B1     3.889943    10B2     3.892849    10B1     3.892971  
      18A1     4.039795     4A2     4.446125    19A1     4.446136  
      11B2     4.453910    11B1     4.460211    20A1     4.668915  
      21A1     5.045346     5A2     5.046235    12B2     5.049947  
      12B1     5.052290    13B2     5.106019    13B1     5.151429  
      22A1     5.318907    23A1     5.450876    24A1     6.085878  
       6A2     6.087318    14B2     6.155915    14B1     6.215553  
      25A1     6.473356    26A1     7.695120  

    Final Occupation by Irrep:
             A1    A2    B1    B2 
    DOCC [     5,    0,    1,    1 ]
    SOCC [     0,    0,    1,    0 ]
    NA   [     5,    0,    2,    1 ]
    NB   [     5,    0,    1,    1 ]

  @DF-UKS Final Energy:  -129.73297908091598

   => Energetics <=

    Nuclear Repulsion Energy =             15.5475245288459405
    One-Electron Energy =                -208.2099485514120829
    Two-Electron Energy =                  75.2058256757229771
    DFT Exchange-Correlation Energy =     -12.2763807340728306
    Empirical Dispersion Energy =           0.0000000000000000
    VV10 Nonlocal Energy =                  0.0000000000000000
    Total Energy =                       -129.7329790809159817

  UHF NO Occupations:
  HONO-2 :    5 A1 1.8359995
  HONO-1 :    1 B2 1.2979260
  HONO-0 :    2 B1 1.0000000
  LUNO+0 :    2 B2 0.7020740
  LUNO+1 :    6 A1 0.1640005
  LUNO+2 :    7 A1 0.0010813
  LUNO+3 :    8 A1 0.0004801


Computation Completed


Properties will be evaluated at   0.000000,   0.000000,   0.000000 [a0]

Properties computed using the B3LYP density matrix


 Multipole Moments:

 ------------------------------------------------------------------------------------
     Multipole            Electronic (a.u.)      Nuclear  (a.u.)        Total (a.u.)
 ------------------------------------------------------------------------------------

 L = 1.  Multiply by 2.5417464519 to convert [e a0] to [Debye]
 Dipole X            :          0.0000000            0.0000000            0.0000000
 Dipole Y            :          0.0000000            0.0000000            0.0000000
 Dipole Z            :          0.3364042           -0.0072270            0.3291773
 Magnitude           :                                                    0.3291773

 L = 2.  Multiply by 1.3450342976 to convert [e a0^2] to [Debye ang]
 Quadrupole XX       :         -8.3503160            0.0000000           -8.3503160
 Quadrupole XY       :          0.0000000            0.0000000            0.0000000
 Quadrupole XZ       :          0.0000000            0.0000000            0.0000000
 Quadrupole YY       :         -7.5005844            0.0000000           -7.5005844
 Quadrupole YZ       :          0.0000000            0.0000000            0.0000000
 Quadrupole ZZ       :        -56.1236847           48.4340016           -7.6896831
 Traceless XX        :         15.6412123          -16.1446672           -0.5034549
 Traceless YY        :         16.4909439          -16.1446672            0.3462767
 Traceless ZZ        :        -32.1321563           32.2893344            0.1571781

 ------------------------------------------------------------------------------------
  ==> Computing MBIS Charges <==

  Electron Count from Grid (Expected Number): 15.00000 (15.00000)
  Difference:  0.00000

  MBIS Charges: (a.u.)
   Center  Symbol  Z      Pop.       Charge
      1       O    8    8.110897   -0.110897
      2       N    7    6.889104    0.110896

  MBIS Dipoles: [e a0]
   Center  Symbol  Z        X           Y           Z
      1       O    8    0.000000   -0.000000   -0.035107
      2       N    7    0.000000   -0.000000   -0.035149

  MBIS Quadrupoles: [e a0^2]
   Center  Symbol  Z      XX        XY        XZ        YY        YZ        ZZ
      1       O    8   -4.3678    0.0000    0.0000   -3.5954    0.0000   -3.8184
      2       N    7   -3.9825   -0.0000   -0.0000   -3.9052   -0.0000   -3.9499

  MBIS Octupoles: [e a0^3]
   Center  Symbol  Z      XXX       XXY       XXZ       XYY       XYZ       XZZ       YYY       YYZ       YZZ       ZZZ
      1       O    8    0.0000   -0.0000    0.0045   -0.0000   -0.0000    0.0000   -0.0000   -0.0726    0.0000   -0.3185
      2       N    7    0.0000   -0.0000    0.0628   -0.0000   -0.0000    0.0000   -0.0000   -0.0094   -0.0000    0.2703

  MBIS Radial Moments:
   Center  Symbol  Z      [a0^2]      [a0^3]      [a0^4]      
      1       O    8   11.781553   22.493488   51.403515
      2       N    7   11.837601   24.807219   62.074234

  MBIS Valence Widths: [a0]
   Center  Symbol  Z     Width
      1       O    8    0.390820
      2       N    7    0.436923

*** tstop() called on Mac.lan at Tue Aug 26 22:25:55 2025
Module time:
	user time   =       5.66 seconds =       0.09 minutes
	system time =       0.58 seconds =       0.01 minutes
	total time  =          1 seconds =       0.02 minutes
Total time:
	user time   =      22.45 seconds =       0.37 minutes
	system time =       2.61 seconds =       0.04 minutes
	total time  =          3 seconds =       0.05 minutes

    Psi4 stopped on: Tuesday, 26 August 2025 10:25PM
    Psi4 wall time for execution: 0:00:02.46

*** Psi4 exiting successfully. Buy a developer a beer!
