
    -----------------------------------------------------------------------
          Psi4: An Open-Source Ab Initio Electronic Structure Package
                               Psi4 1.10 release

                         Git: Rev {} zzzzzzz 


    D. G. A. Smith, L. A. Burns, A. C. Simmonett, R. M. Parrish,
    M. C. Schieber, R. Galvelis, P. Kraus, H. Kruse, R. Di Remigio,
    A. Alenaizan, A. M. James, S. Lehtola, J. P. Misiewicz, M. Scheurer,
    R. A. Shaw, J. B. Schriber, Y. Xie, Z. L. Glick, D. A. Sirianni,
    J. S. O'Brien, J. M. Waldrop, A. Kumar, E. G. Hohenstein,
    B. P. Pritchard, B. R. Brooks, H. F. Schaefer III, A. Yu. Sokolov,
    K. Patkowski, A. E. DePrince III, U. Bozkaya, R. A. King,
    F. A. Evangelista, J. M. Turney, T. D. Crawford, C. D. Sherrill,
    J. Chem. Phys. 152(18) 184108 (2020). https://doi.org/10.1063/5.0006002

                            Additional Code Authors
    E. T. Seidl, C. L. Janssen, E. F. Valeev, M. L. Leininger,
    J. F. Gonthier, R. M. Richard, H. R. McAlexander, M. Saitow, X. Wang,
    P. Verma, M. H. Lechner, A. Jiang, S. Behnle, A. G. Heide,
    M. F. Herbst, D. L. Poole, T. Győri, E. C. Mitchell, J. P. Pederson,
    and A. M. Wallace

             Previous Authors, Complete List of Code Contributors,
                       and Citations for Specific Modules
    https://github.com/psi4/psi4/blob/master/codemeta.json
    https://github.com/psi4/psi4/graphs/contributors
    https://psicode.org/psi4manual/master/introduction.html#citing-psifour

    -----------------------------------------------------------------------


    Psi4 started on: Tuesday, 23 December 2025 01:42PM

    Process ID: 523908
    Host:       cics-quant-001
    PSIDATADIR: /home/jrodriguesro/psi4conda/share/psi4
    Memory:     500.0 MiB
    Threads:    5
    Addons:     adcc, a̶m̶b̶i̶t̶, b̶s̶e̶, c̶c̶t̶3̶, c̶f̶o̶u̶r̶, c̶h̶e̶m̶p̶s̶2̶, c̶p̶p̶e̶, ddx, dftd3, dftd4,
                dkh, ecpint, einsums, f̶o̶r̶t̶e̶, g̶a̶u̶x̶c̶, gcp, g̶d̶m̶a̶, geometric,
                g̶p̶u̶_̶d̶f̶c̶c̶, i̶n̶t̶e̶g̶r̶a̶t̶o̶r̶x̶x̶, i̶p̶i̶, libefp, m̶d̶i̶, m̶p̶2̶d̶,
                m̶r̶c̶c̶, ooo, o̶p̶e̶n̶f̶e̶r̶m̶i̶o̶n̶p̶s̶i̶4̶, pcmsolver, p̶s̶i̶4̶f̶o̶c̶k̶c̶i̶,
                p̶s̶i̶x̶a̶s̶, r̶e̶s̶p̶, s̶i̶m̶i̶n̶t̶, s̶n̶s̶m̶p̶2̶, v̶2̶r̶d̶m̶_̶c̶a̶s̶s̶c̶f̶

  ==> Input File <==

--------------------------------------------------------------------------
memory 8 Gb

molecule { 
0 2
N           0.000000           0.000000           0.000000
C           0.000000           0.000000           0.901750
}

set { 
basis              cc-pvtz
reference          uks
maxiter            500
DAMPING_PERCENTAGE 1
E_CONVERGENCE      1.0E-8
D_CONVERGENCE      1.0E-8
DIIS_MAX_VECS      400
MBIS_MAXITER       8000
guess              read
}

E, wfn = energy('b3lyp', restart_file='last_wfn', return_wfn=True)
properties('b3lyp','MBIS_CHARGES', wfn=wfn)
wfn.to_file('last_wfn')
--------------------------------------------------------------------------

  Memory set to   7.451 GiB by Python driver.

Scratch directory: /tmp/
 Found user provided orbital data. Setting orbital guess to READ 
 Copying restart file <last_wfn.npy> to </tmp/scan_CN_10.default.523908.180.npy> for internal processing
   => Libint2 <=

    Primary   basis highest AM E, G, H:  6, 6, 3
    Auxiliary basis highest AM E, G, H:  7, 7, 4
    Onebody   basis highest AM E, G, H:  -, -, -
    Solid Harmonics ordering:            Gaussian

*** tstart() called on cics-quant-001
*** at Tue Dec 23 13:42:02 2025

   => Loading Basis Set <=

    Name: CC-PVTZ
    Role: ORBITAL
    Keyword: BASIS
    atoms 1 entry N          line   224 file /home/jrodriguesro/psi4conda/share/psi4/basis/cc-pvtz.gbs 
    atoms 2 entry C          line   186 file /home/jrodriguesro/psi4conda/share/psi4/basis/cc-pvtz.gbs 


         ---------------------------------------------------------
                                   SCF
               by Justin Turney, Rob Parrish, Andy Simmonett
                          and Daniel G. A. Smith
                              UKS Reference
                        5 Threads,   7629 MiB Core
         ---------------------------------------------------------

  ==> Geometry <==

    Molecular point group: c2v
    Full point group: C_inf_v

    Geometry (in Angstrom), charge = 0, multiplicity = 2:

       Center              X                  Y                   Z               Mass       
    ------------   -----------------  -----------------  -----------------  -----------------
         N            0.000000000000     0.000000000000    -0.416143106702    14.003074004430
         C            0.000000000000     0.000000000000     0.485606893298    12.000000000000

  Running in c2v symmetry.

  Rotational constants: A = ************  B =      3.20807  C =      3.20807 [cm^-1]
  Rotational constants: A = ************  B =  96175.61216  C =  96175.61216 [MHz]
  Nuclear repulsion =   24.647011752858329

  Charge       = 0
  Multiplicity = 2
  Electrons    = 13
  Nalpha       = 7
  Nbeta        = 6

  ==> Algorithm <==

  SCF Algorithm Type is DF.
  DIIS enabled.
  MOM disabled.
  Fractional occupation disabled.
  Guess Type is READ.
  Energy threshold   = 1.00e-08
  Density threshold  = 1.00e-08
  Integral threshold = 1.00e-12

  ==> Primary Basis <==

  Basis Set: CC-PVTZ
    Blend: CC-PVTZ
    Number of shells: 20
    Number of basis functions: 60
    Number of Cartesian functions: 70
    Spherical Harmonics?: true
    Max angular momentum: 3

  ==> DFT Potential <==

   => LibXC <=

    Version 7.0.0
    S. Lehtola, C. Steigemann, M. J.T. Oliveira, and M. A.L. Marques.,  SoftwareX 7, 1–5 (2018) (10.1016/j.softx.2017.11.002)

   => Composite Functional: B3LYP <= 

    B3LYP Hyb-GGA Exchange-Correlation Functional

    P. J. Stephens, F. J. Devlin, C. F. Chabalowski, and M. J. Frisch.,  J. Phys. Chem. 98, 11623 (1994) (10.1021/j100096a001)

    Deriv               =              1
    GGA                 =           TRUE
    Meta                =          FALSE

    Exchange Hybrid     =           TRUE
    MP2 Hybrid          =          FALSE

   => Exchange Functionals <=

    0.0800   Slater exchange
    0.7200         Becke 88

   => Exact (HF) Exchange <=

    0.2000               HF 

   => Correlation Functionals <=

    0.1900   Vosko, Wilk & Nusair (VWN5_RPA)
    0.8100   Lee, Yang & Parr

   => LibXC Density Thresholds  <==

    XC_HYB_GGA_XC_B3LYP:  1.00E-15 

   => Molecular Quadrature <=

    Radial Scheme          =       TREUTLER
    Pruning Scheme         =           NONE
    Nuclear Scheme         =       TREUTLER

    Blocking Scheme        =         OCTREE
    BS radius alpha        =              1
    Pruning alpha          =              1
    Radial Points          =             75
    Spherical Points       =            302
    Total Points           =          43194
    Total Blocks           =            391
    Max Points             =            255
    Max Functions          =             60
    Weights Tolerance      =       1.00E-15

   => Loading Basis Set <=

    Name: (CC-PVTZ AUX)
    Role: JKFIT
    Keyword: DF_BASIS_SCF
    atoms 1 entry N          line   177 file /home/jrodriguesro/psi4conda/share/psi4/basis/cc-pvtz-jkfit.gbs 
    atoms 2 entry C          line   125 file /home/jrodriguesro/psi4conda/share/psi4/basis/cc-pvtz-jkfit.gbs 

   => Loading Basis Set <=

    Name: CC-PVTZ
    Role: ORBITAL
    Keyword: BASIS
    atoms 1 entry N          line   224 file /home/jrodriguesro/psi4conda/share/psi4/basis/cc-pvtz.gbs 
    atoms 2 entry C          line   186 file /home/jrodriguesro/psi4conda/share/psi4/basis/cc-pvtz.gbs 

  Reading orbitals from file /tmp/scan_CN_10.default.523908.180.npy, no projection.

  ==> Integral Setup <==

  DFHelper Memory: AOs need 0.005 GiB; user supplied 5.515 GiB. 
  SCF_SUBTYPE=INCORE selected. In-core MEM_DF algorithm will be used.
  Using in-core AOs.

  ==> MemDFJK: Density-Fitted J/K Matrices <==

    J tasked:                   Yes
    K tasked:                   Yes
    wK tasked:                   No
    OpenMP threads:               5
    Memory [MiB]:              5647
    Algorithm:                 Core
    Schwarz Cutoff:           1E-12
    Mask sparsity (%):       0.0000
    Fitting Condition:        1E-10

   => Auxiliary Basis Set <=

  Basis Set: (CC-PVTZ AUX)
    Blend: CC-PVTZ-JKFIT
    Number of shells: 50
    Number of basis functions: 158
    Number of Cartesian functions: 192
    Spherical Harmonics?: true
    Max angular momentum: 4

  Cached 100.0% of DFT collocation blocks in 0.072 [GiB].

  Minimum eigenvalue in the overlap matrix is 1.4439871947E-03.
  Reciprocal condition number of the overlap matrix is 3.3656783986E-04.
    Using symmetric orthogonalization.

  ==> Pre-Iterations <==

  SCF Guess: Orbitals guess was supplied from a previous computation.

   -------------------------------------------------------
    Irrep   Nso     Nmo     Nalpha   Nbeta   Ndocc  Nsocc
   -------------------------------------------------------
     A1        26      26       5       4       4       1
     A2         6       6       0       0       0       0
     B1        14      14       1       1       1       0
     B2        14      14       1       1       1       0
   -------------------------------------------------------
    Total      60      60       7       6       6       1
   -------------------------------------------------------

  ==> Iterations <==

                           Total Energy        Delta E     RMS |[F,P]|

   @DF-UKS iter   0:   -92.50546810815220   -9.25055e+01   6.69046e-03 
   @DF-UKS iter   1:   -92.48761817526344    1.78499e-02   4.74377e-04 DIIS/ADIIS
   @DF-UKS iter   2:   -92.48754578371947    7.23915e-05   7.23160e-04 DIIS/ADIIS/DAMP=1%
   @DF-UKS iter   3:   -92.48808459885716   -5.38815e-04   6.51857e-05 DIIS/DAMP=1%
   @DF-UKS iter   4:   -92.48775260243507    3.31996e-04   5.36845e-05 DIIS/DAMP=1%
   @DF-UKS iter   5:   -92.48775888646475   -6.28403e-06   2.71376e-05 DIIS/DAMP=1%
   @DF-UKS iter   6:   -92.48778797432857   -2.90879e-05   3.28303e-06 DIIS/DAMP=1%
   @DF-UKS iter   7:   -92.48777192037832    1.60540e-05   9.03473e-07 DIIS/DAMP=1%
   @DF-UKS iter   8:   -92.48777550240310   -3.58202e-06   1.68761e-07 DIIS/DAMP=1%
   @DF-UKS iter   9:   -92.48777483378827    6.68615e-07   2.80963e-08 DIIS/DAMP=1%
   @DF-UKS iter  10:   -92.48777483207262    1.71565e-09   2.78146e-09 DIIS/DAMP=1%
  Energy and wave function converged.


  ==> Post-Iterations <==

   Electrons on quadrature grid:
      Nalpha   =    7.0000000039 ; deviation = 3.901e-09
      Nbeta    =    5.9999999962 ; deviation = -3.833e-09
      Ntotal   =   13.0000000001 ; deviation = 6.815e-11 

   @Spin Contamination Metric:   5.072638820E-03
   @S^2 Expected:                7.500000000E-01
   @S^2 Observed:                7.550726388E-01
   @S   Expected:                5.000000000E-01
   @S   Observed:                5.000000000E-01

    Orbital Energies [Eh]
    ---------------------

    Alpha Occupied:                                                       

       1A1   -14.293307     2A1   -10.223389     3A1    -1.032769  
       1B1    -0.467689     1B2    -0.467689     4A1    -0.459937  
       5A1    -0.384759  

    Alpha Virtual:                                                        

       2B1     0.088402     2B2     0.088402     6A1     0.178256  
       7A1     0.245105     3B1     0.275866     3B2     0.275866  
       8A1     0.457541     4B2     0.538501     4B1     0.538501  
       9A1     0.615898     1A2     0.615898    10A1     0.797607  
       5B2     0.929353     5B1     0.929353    11A1     1.012504  
      12A1     1.245832     2A2     1.245832    13A1     1.539406  
       6B1     1.573200     6B2     1.573200     7B1     1.885155  
       7B2     1.885155    14A1     2.073062    15A1     2.364059  
       8B1     2.599305     8B2     2.599305    16A1     2.804016  
       3A2     2.804017    17A1     2.830487     9B2     2.862440  
       9B1     2.862440     4A2     2.936405    18A1     2.936405  
      10B2     3.221775    10B1     3.221775    19A1     3.289558  
      11B1     3.597164    11B2     3.597164    12B2     4.061454  
      12B1     4.061454    20A1     4.552455     5A2     4.552457  
      21A1     4.558816    22A1     5.001116     6A2     5.001116  
      13B1     5.001606    13B2     5.001606    23A1     5.480005  
      24A1     5.827960    14B1     6.241809    14B2     6.241809  
      25A1     7.692510    26A1    16.615630  

    Beta Occupied:                                                        

       1A1   -14.291104     2A1   -10.204285     3A1    -1.014899  
       1B1    -0.456218     1B2    -0.456218     4A1    -0.380590  

    Beta Virtual:                                                         

       5A1    -0.239115     2B1     0.110433     2B2     0.110433  
       6A1     0.185110     3B1     0.289512     3B2     0.289512  
       7A1     0.291441     8A1     0.469492     4B2     0.546842  
       4B1     0.546842     9A1     0.629644     1A2     0.629644  
      10A1     0.845027     5B2     0.957382     5B1     0.957382  
      11A1     1.020171    12A1     1.248694     2A2     1.248694  
       6B1     1.582465     6B2     1.582465    13A1     1.586843  
       7B1     1.907080     7B2     1.907080    14A1     2.100366  
      15A1     2.423995     8B1     2.619588     8B2     2.619588  
      16A1     2.816033     3A2     2.816033    17A1     2.876420  
       9B2     2.949548     9B1     2.949548     4A2     2.998731  
      18A1     2.998731    10B2     3.226498    10B1     3.226498  
      19A1     3.371043    11B1     3.630424    11B2     3.630424  
      12B2     4.059321    12B1     4.059321    20A1     4.546796  
       5A2     4.546798    21A1     4.579288    22A1     5.010336  
       6A2     5.010337    13B1     5.011350    13B2     5.011350  
      23A1     5.496863    24A1     5.863198    14B1     6.270261  
      14B2     6.270261    25A1     7.705949    26A1    16.643915  

    Final Occupation by Irrep:
             A1    A2    B1    B2 
    DOCC [     4,    0,    1,    1 ]
    SOCC [     1,    0,    0,    0 ]
    NA   [     5,    0,    1,    1 ]
    NB   [     4,    0,    1,    1 ]

  @DF-UKS Final Energy:   -92.48777483207262

   => Energetics <=

    Nuclear Repulsion Energy =             24.6470117528583295
    One-Electron Energy =                -172.8399522077909580
    Two-Electron Energy =                  65.8509030361345253
    DFT Exchange-Correlation Energy =     -10.1457374132745120
    Empirical Dispersion Energy =           0.0000000000000000
    VV10 Nonlocal Energy =                  0.0000000000000000
    Total Energy =                        -92.4877748320726170

  UHF NO Occupations:
  HONO-2 :    1 B1 1.9989179
  HONO-1 :    1 B2 1.9989179
  HONO-0 :    5 A1 1.0000000
  LUNO+0 :    2 B1 0.0010821
  LUNO+1 :    2 B2 0.0010821
  LUNO+2 :    6 A1 0.0003352
  LUNO+3 :    7 A1 0.0000376


Computation Completed


Properties will be evaluated at   0.000000,   0.000000,   0.000000 [a0]

Properties computed using the SCF density matrix


 Multipole Moments:

 ------------------------------------------------------------------------------------
     Multipole            Electronic (a.u.)      Nuclear  (a.u.)        Total (a.u.)
 ------------------------------------------------------------------------------------

 L = 1.  Multiply by 2.5417464519 to convert [e a0] to [Debye]
 Dipole X            :          0.0000000            0.0000000            0.0000000
 Dipole Y            :          0.0000000            0.0000000            0.0000000
 Dipole Z            :          0.7522969            0.0012087            0.7535056
 Magnitude           :                                                    0.7535056

 ------------------------------------------------------------------------------------

*** tstop() called on cics-quant-001 at Tue Dec 23 13:42:02 2025
Module time:
	user time   =       1.48 seconds =       0.02 minutes
	system time =       0.05 seconds =       0.00 minutes
	total time  =          0 seconds =       0.00 minutes
Total time:
	user time   =       1.48 seconds =       0.02 minutes
	system time =       0.05 seconds =       0.00 minutes
	total time  =          0 seconds =       0.00 minutes

*** tstart() called on cics-quant-001
*** at Tue Dec 23 13:42:02 2025

   => Libint2 <=

    Primary   basis highest AM E, G, H:  6, 6, 3
    Auxiliary basis highest AM E, G, H:  7, 7, 4
    Onebody   basis highest AM E, G, H:  -, -, -
    Solid Harmonics ordering:            Gaussian
   => Loading Basis Set <=

    Name: CC-PVTZ
    Role: ORBITAL
    Keyword: BASIS
    atoms 1 entry N          line   224 file /home/jrodriguesro/psi4conda/share/psi4/basis/cc-pvtz.gbs 
    atoms 2 entry C          line   186 file /home/jrodriguesro/psi4conda/share/psi4/basis/cc-pvtz.gbs 


         ---------------------------------------------------------
                                   SCF
               by Justin Turney, Rob Parrish, Andy Simmonett
                          and Daniel G. A. Smith
                              UKS Reference
                        5 Threads,   7629 MiB Core
         ---------------------------------------------------------

  ==> Geometry <==

    Molecular point group: c2v
    Full point group: C_inf_v

    Geometry (in Angstrom), charge = 0, multiplicity = 2:

       Center              X                  Y                   Z               Mass       
    ------------   -----------------  -----------------  -----------------  -----------------
         N            0.000000000000     0.000000000000    -0.416143106702    14.003074004430
         C            0.000000000000     0.000000000000     0.485606893298    12.000000000000

  Running in c2v symmetry.

  Rotational constants: A = ************  B =      3.20807  C =      3.20807 [cm^-1]
  Rotational constants: A = ************  B =  96175.61216  C =  96175.61216 [MHz]
  Nuclear repulsion =   24.647011752858329

  Charge       = 0
  Multiplicity = 2
  Electrons    = 13
  Nalpha       = 7
  Nbeta        = 6

  ==> Algorithm <==

  SCF Algorithm Type is DF.
  DIIS enabled.
  MOM disabled.
  Fractional occupation disabled.
  Guess Type is READ.
  Energy threshold   = 1.00e-08
  Density threshold  = 1.00e-08
  Integral threshold = 1.00e-12

  ==> Primary Basis <==

  Basis Set: CC-PVTZ
    Blend: CC-PVTZ
    Number of shells: 20
    Number of basis functions: 60
    Number of Cartesian functions: 70
    Spherical Harmonics?: true
    Max angular momentum: 3

  ==> DFT Potential <==

   => LibXC <=

    Version 7.0.0
    S. Lehtola, C. Steigemann, M. J.T. Oliveira, and M. A.L. Marques.,  SoftwareX 7, 1–5 (2018) (10.1016/j.softx.2017.11.002)

   => Composite Functional: B3LYP <= 

    B3LYP Hyb-GGA Exchange-Correlation Functional

    P. J. Stephens, F. J. Devlin, C. F. Chabalowski, and M. J. Frisch.,  J. Phys. Chem. 98, 11623 (1994) (10.1021/j100096a001)

    Deriv               =              1
    GGA                 =           TRUE
    Meta                =          FALSE

    Exchange Hybrid     =           TRUE
    MP2 Hybrid          =          FALSE

   => Exchange Functionals <=

    0.0800   Slater exchange
    0.7200         Becke 88

   => Exact (HF) Exchange <=

    0.2000               HF 

   => Correlation Functionals <=

    0.1900   Vosko, Wilk & Nusair (VWN5_RPA)
    0.8100   Lee, Yang & Parr

   => LibXC Density Thresholds  <==

    XC_HYB_GGA_XC_B3LYP:  1.00E-15 

   => Molecular Quadrature <=

    Radial Scheme          =       TREUTLER
    Pruning Scheme         =           NONE
    Nuclear Scheme         =       TREUTLER

    Blocking Scheme        =         OCTREE
    BS radius alpha        =              1
    Pruning alpha          =              1
    Radial Points          =             75
    Spherical Points       =            302
    Total Points           =          43194
    Total Blocks           =            391
    Max Points             =            255
    Max Functions          =             60
    Weights Tolerance      =       1.00E-15

   => Loading Basis Set <=

    Name: (CC-PVTZ AUX)
    Role: JKFIT
    Keyword: DF_BASIS_SCF
    atoms 1 entry N          line   177 file /home/jrodriguesro/psi4conda/share/psi4/basis/cc-pvtz-jkfit.gbs 
    atoms 2 entry C          line   125 file /home/jrodriguesro/psi4conda/share/psi4/basis/cc-pvtz-jkfit.gbs 

   => Loading Basis Set <=

    Name: CC-PVTZ
    Role: ORBITAL
    Keyword: BASIS
    atoms 1 entry N          line   224 file /home/jrodriguesro/psi4conda/share/psi4/basis/cc-pvtz.gbs 
    atoms 2 entry C          line   186 file /home/jrodriguesro/psi4conda/share/psi4/basis/cc-pvtz.gbs 

  Reading orbitals from file /tmp/scan_CN_10.default.523908.180.npy, no projection.

  ==> Integral Setup <==

  DFHelper Memory: AOs need 0.005 GiB; user supplied 5.515 GiB. 
  SCF_SUBTYPE=INCORE selected. In-core MEM_DF algorithm will be used.
  Using in-core AOs.

  ==> MemDFJK: Density-Fitted J/K Matrices <==

    J tasked:                   Yes
    K tasked:                   Yes
    wK tasked:                   No
    OpenMP threads:               5
    Memory [MiB]:              5647
    Algorithm:                 Core
    Schwarz Cutoff:           1E-12
    Mask sparsity (%):       0.0000
    Fitting Condition:        1E-10

   => Auxiliary Basis Set <=

  Basis Set: (CC-PVTZ AUX)
    Blend: CC-PVTZ-JKFIT
    Number of shells: 50
    Number of basis functions: 158
    Number of Cartesian functions: 192
    Spherical Harmonics?: true
    Max angular momentum: 4

  Cached 100.0% of DFT collocation blocks in 0.072 [GiB].

  Minimum eigenvalue in the overlap matrix is 1.4439871947E-03.
  Reciprocal condition number of the overlap matrix is 3.3656783986E-04.
    Using symmetric orthogonalization.

  ==> Pre-Iterations <==

  SCF Guess: Orbitals guess was supplied from a previous computation.

   -------------------------------------------------------
    Irrep   Nso     Nmo     Nalpha   Nbeta   Ndocc  Nsocc
   -------------------------------------------------------
     A1        26      26       5       4       4       1
     A2         6       6       0       0       0       0
     B1        14      14       1       1       1       0
     B2        14      14       1       1       1       0
   -------------------------------------------------------
    Total      60      60       7       6       6       1
   -------------------------------------------------------

  ==> Iterations <==

                           Total Energy        Delta E     RMS |[F,P]|

   @DF-UKS iter   0:   -92.48777485134103   -9.24878e+01   6.83637e-10 
   @DF-UKS iter   1:   -92.48777485134107   -4.26326e-14   1.16748e-09 DIIS
  Energy and wave function converged.


  ==> Post-Iterations <==

   Electrons on quadrature grid:
      Nalpha   =    7.0000000039 ; deviation = 3.901e-09
      Nbeta    =    5.9999999962 ; deviation = -3.833e-09
      Ntotal   =   13.0000000001 ; deviation = 6.815e-11 

   @Spin Contamination Metric:   5.072638641E-03
   @S^2 Expected:                7.500000000E-01
   @S^2 Observed:                7.550726386E-01
   @S   Expected:                5.000000000E-01
   @S   Observed:                5.000000000E-01

    Orbital Energies [Eh]
    ---------------------

    Alpha Occupied:                                                       

       1A1   -14.293307     2A1   -10.223389     3A1    -1.032769  
       1B1    -0.467689     1B2    -0.467689     4A1    -0.459937  
       5A1    -0.384759  

    Alpha Virtual:                                                        

       2B1     0.088402     2B2     0.088402     6A1     0.178256  
       7A1     0.245105     3B1     0.275866     3B2     0.275866  
       8A1     0.457541     4B2     0.538501     4B1     0.538501  
       9A1     0.615898     1A2     0.615898    10A1     0.797607  
       5B2     0.929353     5B1     0.929353    11A1     1.012504  
      12A1     1.245832     2A2     1.245832    13A1     1.539406  
       6B1     1.573200     6B2     1.573200     7B1     1.885155  
       7B2     1.885155    14A1     2.073062    15A1     2.364059  
       8B1     2.599305     8B2     2.599305    16A1     2.804016  
       3A2     2.804017    17A1     2.830487     9B2     2.862440  
       9B1     2.862440     4A2     2.936405    18A1     2.936405  
      10B2     3.221775    10B1     3.221775    19A1     3.289558  
      11B1     3.597164    11B2     3.597164    12B2     4.061454  
      12B1     4.061454    20A1     4.552455     5A2     4.552457  
      21A1     4.558816    22A1     5.001116     6A2     5.001116  
      13B1     5.001606    13B2     5.001606    23A1     5.480005  
      24A1     5.827960    14B1     6.241809    14B2     6.241809  
      25A1     7.692510    26A1    16.615630  

    Beta Occupied:                                                        

       1A1   -14.291104     2A1   -10.204285     3A1    -1.014899  
       1B1    -0.456218     1B2    -0.456218     4A1    -0.380590  

    Beta Virtual:                                                         

       5A1    -0.239115     2B1     0.110433     2B2     0.110433  
       6A1     0.185110     3B1     0.289512     3B2     0.289512  
       7A1     0.291441     8A1     0.469492     4B2     0.546842  
       4B1     0.546842     9A1     0.629644     1A2     0.629644  
      10A1     0.845027     5B2     0.957382     5B1     0.957382  
      11A1     1.020171    12A1     1.248694     2A2     1.248694  
       6B1     1.582465     6B2     1.582465    13A1     1.586843  
       7B1     1.907080     7B2     1.907080    14A1     2.100366  
      15A1     2.423995     8B1     2.619588     8B2     2.619588  
      16A1     2.816033     3A2     2.816033    17A1     2.876420  
       9B2     2.949548     9B1     2.949548     4A2     2.998731  
      18A1     2.998731    10B2     3.226498    10B1     3.226498  
      19A1     3.371043    11B1     3.630424    11B2     3.630424  
      12B2     4.059321    12B1     4.059321    20A1     4.546796  
       5A2     4.546798    21A1     4.579288    22A1     5.010336  
       6A2     5.010337    13B1     5.011350    13B2     5.011350  
      23A1     5.496863    24A1     5.863198    14B1     6.270261  
      14B2     6.270261    25A1     7.705949    26A1    16.643914  

    Final Occupation by Irrep:
             A1    A2    B1    B2 
    DOCC [     4,    0,    1,    1 ]
    SOCC [     1,    0,    0,    0 ]
    NA   [     5,    0,    1,    1 ]
    NB   [     4,    0,    1,    1 ]

  @DF-UKS Final Energy:   -92.48777485134107

   => Energetics <=

    Nuclear Repulsion Energy =             24.6470117528583295
    One-Electron Energy =                -172.8399520650421550
    Two-Electron Energy =                  65.8509028617100682
    DFT Exchange-Correlation Energy =     -10.1457374008673149
    Empirical Dispersion Energy =           0.0000000000000000
    VV10 Nonlocal Energy =                  0.0000000000000000
    Total Energy =                        -92.4877748513410722

  UHF NO Occupations:
  HONO-2 :    1 B1 1.9989179
  HONO-1 :    1 B2 1.9989179
  HONO-0 :    5 A1 1.0000000
  LUNO+0 :    2 B1 0.0010821
  LUNO+1 :    2 B2 0.0010821
  LUNO+2 :    6 A1 0.0003352
  LUNO+3 :    7 A1 0.0000376


Computation Completed


Properties will be evaluated at   0.000000,   0.000000,   0.000000 [a0]

Properties computed using the B3LYP density matrix


 Multipole Moments:

 ------------------------------------------------------------------------------------
     Multipole            Electronic (a.u.)      Nuclear  (a.u.)        Total (a.u.)
 ------------------------------------------------------------------------------------

 L = 1.  Multiply by 2.5417464519 to convert [e a0] to [Debye]
 Dipole X            :          0.0000000            0.0000000            0.0000000
 Dipole Y            :          0.0000000            0.0000000            0.0000000
 Dipole Z            :          0.7522970            0.0012087            0.7535057
 Magnitude           :                                                    0.7535057

 L = 2.  Multiply by 1.3450342976 to convert [e a0^2] to [Debye ang]
 Quadrupole XX       :         -7.3469524            0.0000000           -7.3469524
 Quadrupole XY       :          0.0000000            0.0000000            0.0000000
 Quadrupole XZ       :          0.0000000            0.0000000            0.0000000
 Quadrupole YY       :         -7.3469524            0.0000000           -7.3469524
 Quadrupole YZ       :          0.0000000            0.0000000            0.0000000
 Quadrupole ZZ       :        -17.1055492            9.3815799           -7.7239693
 Traceless XX        :          3.2528656           -3.1271933            0.1256723
 Traceless YY        :          3.2528656           -3.1271933            0.1256723
 Traceless ZZ        :         -6.5057311            6.2543866           -0.2513446

 ------------------------------------------------------------------------------------
  ==> Computing MBIS Charges <==

  Electron Count from Grid (Expected Number): 13.00000 (13.00000)
  Difference: -0.00000

  MBIS Charges: (a.u.)
   Center  Symbol  Z      Pop.       Charge
      1       N    7    7.439834   -0.439834
      2       C    6    5.560166    0.439834

  MBIS Dipoles: [e a0]
   Center  Symbol  Z        X           Y           Z
      1       N    7   -0.000000    0.000000   -0.092106
      2       C    6   -0.000000    0.000000    0.096108

  MBIS Quadrupoles: [e a0^2]
   Center  Symbol  Z      XX        XY        XZ        YY        YZ        ZZ
      1       N    7   -4.1043    0.0000   -0.0000   -4.1043    0.0000   -4.6504
      2       C    6   -3.2427    0.0000   -0.0000   -3.2427    0.0000   -3.4932

  MBIS Octupoles: [e a0^3]
   Center  Symbol  Z      XXX       XXY       XXZ       XYY       XYZ       XZZ       YYY       YYZ       YZZ       ZZZ
      1       N    7   -0.0000   -0.0000   -0.0357   -0.0000    0.0000   -0.0000   -0.0000   -0.0357    0.0000    0.2877
      2       C    6   -0.0000   -0.0000   -0.0745   -0.0000    0.0000   -0.0000    0.0000   -0.0745    0.0000   -0.2856

  MBIS Radial Moments:
   Center  Symbol  Z      [a0^2]      [a0^3]      [a0^4]      
      1       N    7   12.858876   26.887029   67.515166
      2       C    6    9.978637   22.303699   60.082666

  MBIS Valence Widths: [a0]
   Center  Symbol  Z     Width
      1       N    7    0.430935
      2       C    6    0.461562


  MBIS Valence Charges: (a.u.)
   Center  Symbol  Z     Charge
      1       N    7   -5.830807
      2       C    6   -3.914128

*** tstop() called on cics-quant-001 at Tue Dec 23 13:42:02 2025
Module time:
	user time   =       0.53 seconds =       0.01 minutes
	system time =       0.05 seconds =       0.00 minutes
	total time  =          0 seconds =       0.00 minutes
Total time:
	user time   =       2.02 seconds =       0.03 minutes
	system time =       0.10 seconds =       0.00 minutes
	total time  =          0 seconds =       0.00 minutes

    Psi4 stopped on: Tuesday, 23 December 2025 01:42PM
    Psi4 wall time for execution: 0:00:00.77

*** Psi4 exiting successfully. Buy a developer a beer!
