
    -----------------------------------------------------------------------
          Psi4: An Open-Source Ab Initio Electronic Structure Package
                               Psi4 1.10 release

                         Git: Rev {} zzzzzzz 


    D. G. A. Smith, L. A. Burns, A. C. Simmonett, R. M. Parrish,
    M. C. Schieber, R. Galvelis, P. Kraus, H. Kruse, R. Di Remigio,
    A. Alenaizan, A. M. James, S. Lehtola, J. P. Misiewicz, M. Scheurer,
    R. A. Shaw, J. B. Schriber, Y. Xie, Z. L. Glick, D. A. Sirianni,
    J. S. O'Brien, J. M. Waldrop, A. Kumar, E. G. Hohenstein,
    B. P. Pritchard, B. R. Brooks, H. F. Schaefer III, A. Yu. Sokolov,
    K. Patkowski, A. E. DePrince III, U. Bozkaya, R. A. King,
    F. A. Evangelista, J. M. Turney, T. D. Crawford, C. D. Sherrill,
    J. Chem. Phys. 152(18) 184108 (2020). https://doi.org/10.1063/5.0006002

                            Additional Code Authors
    E. T. Seidl, C. L. Janssen, E. F. Valeev, M. L. Leininger,
    J. F. Gonthier, R. M. Richard, H. R. McAlexander, M. Saitow, X. Wang,
    P. Verma, M. H. Lechner, A. Jiang, S. Behnle, A. G. Heide,
    M. F. Herbst, D. L. Poole, T. Győri, E. C. Mitchell, J. P. Pederson,
    and A. M. Wallace

             Previous Authors, Complete List of Code Contributors,
                       and Citations for Specific Modules
    https://github.com/psi4/psi4/blob/master/codemeta.json
    https://github.com/psi4/psi4/graphs/contributors
    https://psicode.org/psi4manual/master/introduction.html#citing-psifour

    -----------------------------------------------------------------------


    Psi4 started on: Tuesday, 23 December 2025 01:40PM

    Process ID: 515452
    Host:       cics-quant-001
    PSIDATADIR: /home/jrodriguesro/psi4conda/share/psi4
    Memory:     500.0 MiB
    Threads:    5
    Addons:     adcc, a̶m̶b̶i̶t̶, b̶s̶e̶, c̶c̶t̶3̶, c̶f̶o̶u̶r̶, c̶h̶e̶m̶p̶s̶2̶, c̶p̶p̶e̶, ddx, dftd3, dftd4,
                dkh, ecpint, einsums, f̶o̶r̶t̶e̶, g̶a̶u̶x̶c̶, gcp, g̶d̶m̶a̶, geometric,
                g̶p̶u̶_̶d̶f̶c̶c̶, i̶n̶t̶e̶g̶r̶a̶t̶o̶r̶x̶x̶, i̶p̶i̶, libefp, m̶d̶i̶, m̶p̶2̶d̶,
                m̶r̶c̶c̶, ooo, o̶p̶e̶n̶f̶e̶r̶m̶i̶o̶n̶p̶s̶i̶4̶, pcmsolver, p̶s̶i̶4̶f̶o̶c̶k̶c̶i̶,
                p̶s̶i̶x̶a̶s̶, r̶e̶s̶p̶, s̶i̶m̶i̶n̶t̶, s̶n̶s̶m̶p̶2̶, v̶2̶r̶d̶m̶_̶c̶a̶s̶s̶c̶f̶

  ==> Input File <==

--------------------------------------------------------------------------
memory 8 Gb

molecule { 
0 2
O           0.000000           0.000000           0.000000
H           0.000000           0.000000           1.054165
}

set { 
basis              cc-pvtz
reference          uks
maxiter            500
DAMPING_PERCENTAGE 1
E_CONVERGENCE      1.0E-8
D_CONVERGENCE      1.0E-8
DIIS_MAX_VECS      400
MBIS_MAXITER       8000
guess              read
}

E, wfn = energy('b3lyp', restart_file='last_wfn', return_wfn=True)
properties('b3lyp','MBIS_CHARGES', wfn=wfn)
wfn.to_file('last_wfn')
--------------------------------------------------------------------------

  Memory set to   7.451 GiB by Python driver.

Scratch directory: /tmp/
 Found user provided orbital data. Setting orbital guess to READ 
 Copying restart file <last_wfn.npy> to </tmp/scan_HO_20.default.515452.180.npy> for internal processing
   => Libint2 <=

    Primary   basis highest AM E, G, H:  6, 6, 3
    Auxiliary basis highest AM E, G, H:  7, 7, 4
    Onebody   basis highest AM E, G, H:  -, -, -
    Solid Harmonics ordering:            Gaussian

*** tstart() called on cics-quant-001
*** at Tue Dec 23 13:40:41 2025

   => Loading Basis Set <=

    Name: CC-PVTZ
    Role: ORBITAL
    Keyword: BASIS
    atoms 1 entry O          line   262 file /home/jrodriguesro/psi4conda/share/psi4/basis/cc-pvtz.gbs 
    atoms 2 entry H          line    23 file /home/jrodriguesro/psi4conda/share/psi4/basis/cc-pvtz.gbs 


         ---------------------------------------------------------
                                   SCF
               by Justin Turney, Rob Parrish, Andy Simmonett
                          and Daniel G. A. Smith
                              UKS Reference
                        5 Threads,   7629 MiB Core
         ---------------------------------------------------------

  ==> Geometry <==

    Molecular point group: c2v
    Full point group: C_inf_v

    Geometry (in Angstrom), charge = 0, multiplicity = 2:

       Center              X                  Y                   Z               Mass       
    ------------   -----------------  -----------------  -----------------  -----------------
         O            0.000000000000     0.000000000000    -0.062484864019    15.994914619570
         H            0.000000000000     0.000000000000     0.991680135981     1.007825032230

  Running in c2v symmetry.

  Rotational constants: A = ************  B =     16.00041  C =     16.00041 [cm^-1]
  Rotational constants: A = ************  B = 479680.26521  C = 479680.26521 [MHz]
  Nuclear repulsion =    4.015896643656354

  Charge       = 0
  Multiplicity = 2
  Electrons    = 9
  Nalpha       = 5
  Nbeta        = 4

  ==> Algorithm <==

  SCF Algorithm Type is DF.
  DIIS enabled.
  MOM disabled.
  Fractional occupation disabled.
  Guess Type is READ.
  Energy threshold   = 1.00e-08
  Density threshold  = 1.00e-08
  Integral threshold = 1.00e-12

  ==> Primary Basis <==

  Basis Set: CC-PVTZ
    Blend: CC-PVTZ
    Number of shells: 16
    Number of basis functions: 44
    Number of Cartesian functions: 50
    Spherical Harmonics?: true
    Max angular momentum: 3

  ==> DFT Potential <==

   => LibXC <=

    Version 7.0.0
    S. Lehtola, C. Steigemann, M. J.T. Oliveira, and M. A.L. Marques.,  SoftwareX 7, 1–5 (2018) (10.1016/j.softx.2017.11.002)

   => Composite Functional: B3LYP <= 

    B3LYP Hyb-GGA Exchange-Correlation Functional

    P. J. Stephens, F. J. Devlin, C. F. Chabalowski, and M. J. Frisch.,  J. Phys. Chem. 98, 11623 (1994) (10.1021/j100096a001)

    Deriv               =              1
    GGA                 =           TRUE
    Meta                =          FALSE

    Exchange Hybrid     =           TRUE
    MP2 Hybrid          =          FALSE

   => Exchange Functionals <=

    0.0800   Slater exchange
    0.7200         Becke 88

   => Exact (HF) Exchange <=

    0.2000               HF 

   => Correlation Functionals <=

    0.1900   Vosko, Wilk & Nusair (VWN5_RPA)
    0.8100   Lee, Yang & Parr

   => LibXC Density Thresholds  <==

    XC_HYB_GGA_XC_B3LYP:  1.00E-15 

   => Molecular Quadrature <=

    Radial Scheme          =       TREUTLER
    Pruning Scheme         =           NONE
    Nuclear Scheme         =       TREUTLER

    Blocking Scheme        =         OCTREE
    BS radius alpha        =              1
    Pruning alpha          =              1
    Radial Points          =             75
    Spherical Points       =            302
    Total Points           =          44142
    Total Blocks           =            393
    Max Points             =            256
    Max Functions          =             44
    Weights Tolerance      =       1.00E-15

   => Loading Basis Set <=

    Name: (CC-PVTZ AUX)
    Role: JKFIT
    Keyword: DF_BASIS_SCF
    atoms 1 entry O          line   229 file /home/jrodriguesro/psi4conda/share/psi4/basis/cc-pvtz-jkfit.gbs 
    atoms 2 entry H          line    51 file /home/jrodriguesro/psi4conda/share/psi4/basis/cc-pvtz-jkfit.gbs 

   => Loading Basis Set <=

    Name: CC-PVTZ
    Role: ORBITAL
    Keyword: BASIS
    atoms 1 entry O          line   262 file /home/jrodriguesro/psi4conda/share/psi4/basis/cc-pvtz.gbs 
    atoms 2 entry H          line    23 file /home/jrodriguesro/psi4conda/share/psi4/basis/cc-pvtz.gbs 

  Reading orbitals from file /tmp/scan_HO_20.default.515452.180.npy, no projection.

  ==> Integral Setup <==

  DFHelper Memory: AOs need 0.002 GiB; user supplied 5.533 GiB. 
  SCF_SUBTYPE=INCORE selected. In-core MEM_DF algorithm will be used.
  Using in-core AOs.

  ==> MemDFJK: Density-Fitted J/K Matrices <==

    J tasked:                   Yes
    K tasked:                   Yes
    wK tasked:                   No
    OpenMP threads:               5
    Memory [MiB]:              5666
    Algorithm:                 Core
    Schwarz Cutoff:           1E-12
    Mask sparsity (%):       0.0000
    Fitting Condition:        1E-10

   => Auxiliary Basis Set <=

  Basis Set: (CC-PVTZ AUX)
    Blend: CC-PVTZ-JKFIT
    Number of shells: 35
    Number of basis functions: 109
    Number of Cartesian functions: 131
    Spherical Harmonics?: true
    Max angular momentum: 4

  Cached 100.0% of DFT collocation blocks in 0.055 [GiB].

  Minimum eigenvalue in the overlap matrix is 5.6181497620E-03.
  Reciprocal condition number of the overlap matrix is 1.4540425892E-03.
    Using symmetric orthogonalization.

  ==> Pre-Iterations <==

  SCF Guess: Orbitals guess was supplied from a previous computation.

   -------------------------------------------------------
    Irrep   Nso     Nmo     Nalpha   Nbeta   Ndocc  Nsocc
   -------------------------------------------------------
     A1        20      20       3       3       3       0
     A2         4       4       0       0       0       0
     B1        10      10       1       0       0       1
     B2        10      10       1       1       1       0
   -------------------------------------------------------
    Total      44      44       5       4       4       1
   -------------------------------------------------------

  ==> Iterations <==

                           Total Energy        Delta E     RMS |[F,P]|

   @DF-UKS iter   0:   -75.77337975969250   -7.57734e+01   1.94720e-03 
   @DF-UKS iter   1:   -75.75945471287541    1.39250e-02   4.07996e-04 DIIS/ADIIS
   @DF-UKS iter   2:   -75.75948589508302   -3.11822e-05   1.92193e-04 DIIS/ADIIS/DAMP=1%
   @DF-UKS iter   3:   -75.75956730162537   -8.14065e-05   3.82143e-05 DIIS/DAMP=1%
   @DF-UKS iter   4:   -75.75946833486113    9.89668e-05   1.15109e-05 DIIS/DAMP=1%
   @DF-UKS iter   5:   -75.75949992771690   -3.15929e-05   1.76868e-06 DIIS/DAMP=1%
   @DF-UKS iter   6:   -75.75949277654045    7.15118e-06   3.98104e-07 DIIS/DAMP=1%
   @DF-UKS iter   7:   -75.75949358861490   -8.12074e-07   3.20017e-08 DIIS/DAMP=1%
   @DF-UKS iter   8:   -75.75949345960341    1.29011e-07   3.61037e-09 DIIS/DAMP=1%
   @DF-UKS iter   9:   -75.75949347113772   -1.15343e-08   3.84906e-10 DIIS/DAMP=1%
   @DF-UKS iter  10:   -75.75949346975716    1.38056e-09   5.06736e-11 DIIS/DAMP=1%
  Energy and wave function converged.


  ==> Post-Iterations <==

   Electrons on quadrature grid:
      Nalpha   =    5.0000000119 ; deviation = 1.195e-08
      Nbeta    =    4.0000000130 ; deviation = 1.296e-08
      Ntotal   =    9.0000000249 ; deviation = 2.490e-08 

   @Spin Contamination Metric:   2.567210060E-03
   @S^2 Expected:                7.500000000E-01
   @S^2 Observed:                7.525672101E-01
   @S   Expected:                5.000000000E-01
   @S   Observed:                5.000000000E-01

    Orbital Energies [Eh]
    ---------------------

    Alpha Occupied:                                                       

       1A1   -19.201749     2A1    -0.998362     3A1    -0.465404  
       1B1    -0.413777     1B2    -0.340808  

    Alpha Virtual:                                                        

       4A1     0.011552     5A1     0.327807     2B1     0.522534  
       6A1     0.527180     2B2     0.556950     3B1     0.681884  
       3B2     0.697398     7A1     0.894582     8A1     1.165165  
       1A2     1.422809     9A1     1.423332     4B1     1.688992  
       4B2     1.727291    10A1     1.953404    11A1     2.360260  
       2A2     3.164708    12A1     3.164840     5B1     3.271233  
       5B2     3.307139    13A1     3.572332     6B1     3.610428  
       6B2     3.634861     7B1     3.935941     7B2     3.971446  
      14A1     4.091131    15A1     4.720171     8B1     5.072092  
       8B2     5.072346     3A2     5.257639    16A1     5.258570  
       9B1     6.048742     9B2     6.100475    17A1     6.135414  
       4A2     6.136307    18A1     6.196993    10B1     6.471516  
      10B2     6.523062    19A1     6.858462    20A1     9.440592  

    Beta Occupied:                                                        

       1A1   -19.176146     2A1    -0.925879     3A1    -0.441387  
       1B2    -0.315118  

    Beta Virtual:                                                         

       1B1    -0.166369     4A1     0.019048     5A1     0.332098  
       6A1     0.535981     2B2     0.566465     2B1     0.591805  
       3B2     0.696502     3B1     0.697853     7A1     0.925746  
       8A1     1.173501     1A2     1.474939     9A1     1.480909  
       4B2     1.733480     4B1     1.739426    10A1     1.967558  
      11A1     2.363575     2A2     3.167063    12A1     3.167584  
       5B2     3.312871     5B1     3.326633    13A1     3.577193  
       6B2     3.635693     6B1     3.643740     7B2     3.978353  
       7B1     3.987104    14A1     4.107755    15A1     4.748652  
       8B2     5.142242     8B1     5.145236     3A2     5.303406  
      16A1     5.308476     9B2     6.111922     9B1     6.125784  
      17A1     6.222295     4A2     6.228557    18A1     6.242964  
      10B2     6.533110    10B1     6.545647    19A1     6.891067  
      20A1     9.476197  

    Final Occupation by Irrep:
             A1    A2    B1    B2 
    DOCC [     3,    0,    0,    1 ]
    SOCC [     0,    0,    1,    0 ]
    NA   [     3,    0,    1,    1 ]
    NB   [     3,    0,    0,    1 ]

  @DF-UKS Final Energy:   -75.75949346975716

   => Energetics <=

    Nuclear Repulsion Energy =              4.0158966436563537
    One-Electron Energy =                -112.1222931036543002
    Two-Electron Energy =                  39.5111231213408090
    DFT Exchange-Correlation Energy =      -7.1642201311000075
    Empirical Dispersion Energy =           0.0000000000000000
    VV10 Nonlocal Energy =                  0.0000000000000000
    Total Energy =                        -75.7594934697571460

  UHF NO Occupations:
  HONO-2 :    2 A1 1.9996306
  HONO-1 :    3 A1 1.9992454
  HONO-0 :    1 B1 1.0000000
  LUNO+0 :    4 A1 0.0007546
  LUNO+1 :    5 A1 0.0003694
  LUNO+2 :    2 B2 0.0001594
  LUNO+3 :    6 A1 0.0000006


Computation Completed


Properties will be evaluated at   0.000000,   0.000000,   0.000000 [a0]

Properties computed using the SCF density matrix


 Multipole Moments:

 ------------------------------------------------------------------------------------
     Multipole            Electronic (a.u.)      Nuclear  (a.u.)        Total (a.u.)
 ------------------------------------------------------------------------------------

 L = 1.  Multiply by 2.5417464519 to convert [e a0] to [Debye]
 Dipole X            :          0.0000000            0.0000000            0.0000000
 Dipole Y            :          0.0000000            0.0000000            0.0000000
 Dipole Z            :         -0.2526341            0.9293696            0.6767355
 Magnitude           :                                                    0.6767355

 ------------------------------------------------------------------------------------

*** tstop() called on cics-quant-001 at Tue Dec 23 13:40:42 2025
Module time:
	user time   =       0.88 seconds =       0.01 minutes
	system time =       0.05 seconds =       0.00 minutes
	total time  =          1 seconds =       0.02 minutes
Total time:
	user time   =       0.88 seconds =       0.01 minutes
	system time =       0.05 seconds =       0.00 minutes
	total time  =          1 seconds =       0.02 minutes

*** tstart() called on cics-quant-001
*** at Tue Dec 23 13:40:42 2025

   => Libint2 <=

    Primary   basis highest AM E, G, H:  6, 6, 3
    Auxiliary basis highest AM E, G, H:  7, 7, 4
    Onebody   basis highest AM E, G, H:  -, -, -
    Solid Harmonics ordering:            Gaussian
   => Loading Basis Set <=

    Name: CC-PVTZ
    Role: ORBITAL
    Keyword: BASIS
    atoms 1 entry O          line   262 file /home/jrodriguesro/psi4conda/share/psi4/basis/cc-pvtz.gbs 
    atoms 2 entry H          line    23 file /home/jrodriguesro/psi4conda/share/psi4/basis/cc-pvtz.gbs 


         ---------------------------------------------------------
                                   SCF
               by Justin Turney, Rob Parrish, Andy Simmonett
                          and Daniel G. A. Smith
                              UKS Reference
                        5 Threads,   7629 MiB Core
         ---------------------------------------------------------

  ==> Geometry <==

    Molecular point group: c2v
    Full point group: C_inf_v

    Geometry (in Angstrom), charge = 0, multiplicity = 2:

       Center              X                  Y                   Z               Mass       
    ------------   -----------------  -----------------  -----------------  -----------------
         O            0.000000000000     0.000000000000    -0.062484864019    15.994914619570
         H            0.000000000000     0.000000000000     0.991680135981     1.007825032230

  Running in c2v symmetry.

  Rotational constants: A = ************  B =     16.00041  C =     16.00041 [cm^-1]
  Rotational constants: A = ************  B = 479680.26521  C = 479680.26521 [MHz]
  Nuclear repulsion =    4.015896643656354

  Charge       = 0
  Multiplicity = 2
  Electrons    = 9
  Nalpha       = 5
  Nbeta        = 4

  ==> Algorithm <==

  SCF Algorithm Type is DF.
  DIIS enabled.
  MOM disabled.
  Fractional occupation disabled.
  Guess Type is READ.
  Energy threshold   = 1.00e-08
  Density threshold  = 1.00e-08
  Integral threshold = 1.00e-12

  ==> Primary Basis <==

  Basis Set: CC-PVTZ
    Blend: CC-PVTZ
    Number of shells: 16
    Number of basis functions: 44
    Number of Cartesian functions: 50
    Spherical Harmonics?: true
    Max angular momentum: 3

  ==> DFT Potential <==

   => LibXC <=

    Version 7.0.0
    S. Lehtola, C. Steigemann, M. J.T. Oliveira, and M. A.L. Marques.,  SoftwareX 7, 1–5 (2018) (10.1016/j.softx.2017.11.002)

   => Composite Functional: B3LYP <= 

    B3LYP Hyb-GGA Exchange-Correlation Functional

    P. J. Stephens, F. J. Devlin, C. F. Chabalowski, and M. J. Frisch.,  J. Phys. Chem. 98, 11623 (1994) (10.1021/j100096a001)

    Deriv               =              1
    GGA                 =           TRUE
    Meta                =          FALSE

    Exchange Hybrid     =           TRUE
    MP2 Hybrid          =          FALSE

   => Exchange Functionals <=

    0.0800   Slater exchange
    0.7200         Becke 88

   => Exact (HF) Exchange <=

    0.2000               HF 

   => Correlation Functionals <=

    0.1900   Vosko, Wilk & Nusair (VWN5_RPA)
    0.8100   Lee, Yang & Parr

   => LibXC Density Thresholds  <==

    XC_HYB_GGA_XC_B3LYP:  1.00E-15 

   => Molecular Quadrature <=

    Radial Scheme          =       TREUTLER
    Pruning Scheme         =           NONE
    Nuclear Scheme         =       TREUTLER

    Blocking Scheme        =         OCTREE
    BS radius alpha        =              1
    Pruning alpha          =              1
    Radial Points          =             75
    Spherical Points       =            302
    Total Points           =          44142
    Total Blocks           =            393
    Max Points             =            256
    Max Functions          =             44
    Weights Tolerance      =       1.00E-15

   => Loading Basis Set <=

    Name: (CC-PVTZ AUX)
    Role: JKFIT
    Keyword: DF_BASIS_SCF
    atoms 1 entry O          line   229 file /home/jrodriguesro/psi4conda/share/psi4/basis/cc-pvtz-jkfit.gbs 
    atoms 2 entry H          line    51 file /home/jrodriguesro/psi4conda/share/psi4/basis/cc-pvtz-jkfit.gbs 

   => Loading Basis Set <=

    Name: CC-PVTZ
    Role: ORBITAL
    Keyword: BASIS
    atoms 1 entry O          line   262 file /home/jrodriguesro/psi4conda/share/psi4/basis/cc-pvtz.gbs 
    atoms 2 entry H          line    23 file /home/jrodriguesro/psi4conda/share/psi4/basis/cc-pvtz.gbs 

  Reading orbitals from file /tmp/scan_HO_20.default.515452.180.npy, no projection.

  ==> Integral Setup <==

  DFHelper Memory: AOs need 0.002 GiB; user supplied 5.533 GiB. 
  SCF_SUBTYPE=INCORE selected. In-core MEM_DF algorithm will be used.
  Using in-core AOs.

  ==> MemDFJK: Density-Fitted J/K Matrices <==

    J tasked:                   Yes
    K tasked:                   Yes
    wK tasked:                   No
    OpenMP threads:               5
    Memory [MiB]:              5666
    Algorithm:                 Core
    Schwarz Cutoff:           1E-12
    Mask sparsity (%):       0.0000
    Fitting Condition:        1E-10

   => Auxiliary Basis Set <=

  Basis Set: (CC-PVTZ AUX)
    Blend: CC-PVTZ-JKFIT
    Number of shells: 35
    Number of basis functions: 109
    Number of Cartesian functions: 131
    Spherical Harmonics?: true
    Max angular momentum: 4

  Cached 100.0% of DFT collocation blocks in 0.055 [GiB].

  Minimum eigenvalue in the overlap matrix is 5.6181497620E-03.
  Reciprocal condition number of the overlap matrix is 1.4540425892E-03.
    Using symmetric orthogonalization.

  ==> Pre-Iterations <==

  SCF Guess: Orbitals guess was supplied from a previous computation.

   -------------------------------------------------------
    Irrep   Nso     Nmo     Nalpha   Nbeta   Ndocc  Nsocc
   -------------------------------------------------------
     A1        20      20       3       3       3       0
     A2         4       4       0       0       0       0
     B1        10      10       1       0       0       1
     B2        10      10       1       1       1       0
   -------------------------------------------------------
    Total      44      44       5       4       4       1
   -------------------------------------------------------

  ==> Iterations <==

                           Total Energy        Delta E     RMS |[F,P]|

   @DF-UKS iter   0:   -75.75949346981618   -7.57595e+01   4.41842e-12 
   @DF-UKS iter   1:   -75.75949346981614    4.26326e-14   3.14386e-12 DIIS
  Energy and wave function converged.


  ==> Post-Iterations <==

   Electrons on quadrature grid:
      Nalpha   =    5.0000000119 ; deviation = 1.195e-08
      Nbeta    =    4.0000000130 ; deviation = 1.296e-08
      Ntotal   =    9.0000000249 ; deviation = 2.490e-08 

   @Spin Contamination Metric:   2.567210055E-03
   @S^2 Expected:                7.500000000E-01
   @S^2 Observed:                7.525672101E-01
   @S   Expected:                5.000000000E-01
   @S   Observed:                5.000000000E-01

    Orbital Energies [Eh]
    ---------------------

    Alpha Occupied:                                                       

       1A1   -19.201749     2A1    -0.998362     3A1    -0.465404  
       1B1    -0.413777     1B2    -0.340808  

    Alpha Virtual:                                                        

       4A1     0.011552     5A1     0.327807     2B1     0.522534  
       6A1     0.527180     2B2     0.556950     3B1     0.681884  
       3B2     0.697398     7A1     0.894582     8A1     1.165165  
       1A2     1.422809     9A1     1.423332     4B1     1.688992  
       4B2     1.727291    10A1     1.953404    11A1     2.360260  
       2A2     3.164708    12A1     3.164840     5B1     3.271233  
       5B2     3.307139    13A1     3.572332     6B1     3.610428  
       6B2     3.634861     7B1     3.935941     7B2     3.971446  
      14A1     4.091131    15A1     4.720171     8B1     5.072092  
       8B2     5.072346     3A2     5.257639    16A1     5.258570  
       9B1     6.048742     9B2     6.100475    17A1     6.135414  
       4A2     6.136307    18A1     6.196993    10B1     6.471516  
      10B2     6.523062    19A1     6.858462    20A1     9.440592  

    Beta Occupied:                                                        

       1A1   -19.176146     2A1    -0.925879     3A1    -0.441387  
       1B2    -0.315118  

    Beta Virtual:                                                         

       1B1    -0.166369     4A1     0.019048     5A1     0.332098  
       6A1     0.535981     2B2     0.566465     2B1     0.591805  
       3B2     0.696502     3B1     0.697853     7A1     0.925746  
       8A1     1.173501     1A2     1.474939     9A1     1.480909  
       4B2     1.733480     4B1     1.739426    10A1     1.967558  
      11A1     2.363575     2A2     3.167063    12A1     3.167584  
       5B2     3.312871     5B1     3.326633    13A1     3.577193  
       6B2     3.635693     6B1     3.643740     7B2     3.978353  
       7B1     3.987104    14A1     4.107755    15A1     4.748652  
       8B2     5.142242     8B1     5.145236     3A2     5.303406  
      16A1     5.308476     9B2     6.111922     9B1     6.125784  
      17A1     6.222295     4A2     6.228557    18A1     6.242964  
      10B2     6.533110    10B1     6.545647    19A1     6.891067  
      20A1     9.476197  

    Final Occupation by Irrep:
             A1    A2    B1    B2 
    DOCC [     3,    0,    0,    1 ]
    SOCC [     0,    0,    1,    0 ]
    NA   [     3,    0,    1,    1 ]
    NB   [     3,    0,    0,    1 ]

  @DF-UKS Final Energy:   -75.75949346981614

   => Energetics <=

    Nuclear Repulsion Energy =              4.0158966436563537
    One-Electron Energy =                -112.1222931050801179
    Two-Electron Energy =                  39.5111231228173736
    DFT Exchange-Correlation Energy =      -7.1642201312097402
    Empirical Dispersion Energy =           0.0000000000000000
    VV10 Nonlocal Energy =                  0.0000000000000000
    Total Energy =                        -75.7594934698161495

  UHF NO Occupations:
  HONO-2 :    2 A1 1.9996306
  HONO-1 :    3 A1 1.9992454
  HONO-0 :    1 B1 1.0000000
  LUNO+0 :    4 A1 0.0007546
  LUNO+1 :    5 A1 0.0003694
  LUNO+2 :    2 B2 0.0001594
  LUNO+3 :    6 A1 0.0000006


Computation Completed


Properties will be evaluated at   0.000000,   0.000000,   0.000000 [a0]

Properties computed using the B3LYP density matrix


 Multipole Moments:

 ------------------------------------------------------------------------------------
     Multipole            Electronic (a.u.)      Nuclear  (a.u.)        Total (a.u.)
 ------------------------------------------------------------------------------------

 L = 1.  Multiply by 2.5417464519 to convert [e a0] to [Debye]
 Dipole X            :          0.0000000            0.0000000            0.0000000
 Dipole Y            :          0.0000000            0.0000000            0.0000000
 Dipole Z            :         -0.2526341            0.9293696            0.6767355
 Magnitude           :                                                    0.6767355

 L = 2.  Multiply by 1.3450342976 to convert [e a0^2] to [Debye ang]
 Quadrupole XX       :         -4.0663475            0.0000000           -4.0663475
 Quadrupole XY       :          0.0000000            0.0000000            0.0000000
 Quadrupole XZ       :          0.0000000            0.0000000            0.0000000
 Quadrupole YY       :         -4.9632358            0.0000000           -4.9632358
 Quadrupole YZ       :          0.0000000            0.0000000            0.0000000
 Quadrupole ZZ       :         -6.7676867            3.6234322           -3.1442545
 Traceless XX        :          1.1994092           -1.2078107           -0.0084016
 Traceless YY        :          0.3025209           -1.2078107           -0.9052899
 Traceless ZZ        :         -1.5019300            2.4156215            0.9136914

 ------------------------------------------------------------------------------------
  ==> Computing MBIS Charges <==

  Electron Count from Grid (Expected Number):  9.00000 ( 9.00000)
  Difference:  0.00000

  MBIS Charges: (a.u.)
   Center  Symbol  Z      Pop.       Charge
      1       O    8    8.362168   -0.362168
      2       H    1    0.637832    0.362168

  MBIS Dipoles: [e a0]
   Center  Symbol  Z        X           Y           Z
      1       O    8    0.000000   -0.000000   -0.081401
      2       H    1    0.000000   -0.000000    0.036668

  MBIS Quadrupoles: [e a0^2]
   Center  Symbol  Z      XX        XY        XZ        YY        YZ        ZZ
      1       O    8   -3.7198    0.0000    0.0000   -4.5765   -0.0000   -4.2175
      2       H    1   -0.3466   -0.0000    0.0000   -0.3867   -0.0000   -0.3503

  MBIS Octupoles: [e a0^3]
   Center  Symbol  Z      XXX       XXY       XXZ       XYY       XYZ       XZZ       YYY       YYZ       YZZ       ZZZ
      1       O    8   -0.0000   -0.0000   -0.0824    0.0000   -0.0000    0.0000   -0.0000   -0.0900   -0.0000   -0.4109
      2       H    1    0.0000   -0.0000   -0.0047    0.0000   -0.0000    0.0000   -0.0000    0.0152   -0.0000    0.0314

  MBIS Radial Moments:
   Center  Symbol  Z      [a0^2]      [a0^3]      [a0^4]      
      1       O    8   12.513800   24.093391   55.448301
      2       H    1    1.083538    2.027056    4.534119

  MBIS Valence Widths: [a0]
   Center  Symbol  Z     Width
      1       O    8    0.395545
      2       H    1    0.377391


  MBIS Valence Charges: (a.u.)
   Center  Symbol  Z     Charge
      1       O    8   -6.724981
      2       H    1   -0.637832

*** tstop() called on cics-quant-001 at Tue Dec 23 13:40:42 2025
Module time:
	user time   =       0.41 seconds =       0.01 minutes
	system time =       0.04 seconds =       0.00 minutes
	total time  =          0 seconds =       0.00 minutes
Total time:
	user time   =       1.30 seconds =       0.02 minutes
	system time =       0.09 seconds =       0.00 minutes
	total time  =          1 seconds =       0.02 minutes

    Psi4 stopped on: Tuesday, 23 December 2025 01:40PM
    Psi4 wall time for execution: 0:00:00.58

*** Psi4 exiting successfully. Buy a developer a beer!
