
    -----------------------------------------------------------------------
          Psi4: An Open-Source Ab Initio Electronic Structure Package
                               Psi4 1.10 release

                         Git: Rev {} zzzzzzz 


    D. G. A. Smith, L. A. Burns, A. C. Simmonett, R. M. Parrish,
    M. C. Schieber, R. Galvelis, P. Kraus, H. Kruse, R. Di Remigio,
    A. Alenaizan, A. M. James, S. Lehtola, J. P. Misiewicz, M. Scheurer,
    R. A. Shaw, J. B. Schriber, Y. Xie, Z. L. Glick, D. A. Sirianni,
    J. S. O'Brien, J. M. Waldrop, A. Kumar, E. G. Hohenstein,
    B. P. Pritchard, B. R. Brooks, H. F. Schaefer III, A. Yu. Sokolov,
    K. Patkowski, A. E. DePrince III, U. Bozkaya, R. A. King,
    F. A. Evangelista, J. M. Turney, T. D. Crawford, C. D. Sherrill,
    J. Chem. Phys. 152(18) 184108 (2020). https://doi.org/10.1063/5.0006002

                            Additional Code Authors
    E. T. Seidl, C. L. Janssen, E. F. Valeev, M. L. Leininger,
    J. F. Gonthier, R. M. Richard, H. R. McAlexander, M. Saitow, X. Wang,
    P. Verma, M. H. Lechner, A. Jiang, S. Behnle, A. G. Heide,
    M. F. Herbst, D. L. Poole, T. Győri, E. C. Mitchell, J. P. Pederson,
    and A. M. Wallace

             Previous Authors, Complete List of Code Contributors,
                       and Citations for Specific Modules
    https://github.com/psi4/psi4/blob/master/codemeta.json
    https://github.com/psi4/psi4/graphs/contributors
    https://psicode.org/psi4manual/master/introduction.html#citing-psifour

    -----------------------------------------------------------------------


    Psi4 started on: Tuesday, 23 December 2025 01:39PM

    Process ID: 508411
    Host:       cics-quant-001
    PSIDATADIR: /home/jrodriguesro/psi4conda/share/psi4
    Memory:     500.0 MiB
    Threads:    5
    Addons:     adcc, a̶m̶b̶i̶t̶, b̶s̶e̶, c̶c̶t̶3̶, c̶f̶o̶u̶r̶, c̶h̶e̶m̶p̶s̶2̶, c̶p̶p̶e̶, ddx, dftd3, dftd4,
                dkh, ecpint, einsums, f̶o̶r̶t̶e̶, g̶a̶u̶x̶c̶, gcp, g̶d̶m̶a̶, geometric,
                g̶p̶u̶_̶d̶f̶c̶c̶, i̶n̶t̶e̶g̶r̶a̶t̶o̶r̶x̶x̶, i̶p̶i̶, libefp, m̶d̶i̶, m̶p̶2̶d̶,
                m̶r̶c̶c̶, ooo, o̶p̶e̶n̶f̶e̶r̶m̶i̶o̶n̶p̶s̶i̶4̶, pcmsolver, p̶s̶i̶4̶f̶o̶c̶k̶c̶i̶,
                p̶s̶i̶x̶a̶s̶, r̶e̶s̶p̶, s̶i̶m̶i̶n̶t̶, s̶n̶s̶m̶p̶2̶, v̶2̶r̶d̶m̶_̶c̶a̶s̶s̶c̶f̶

  ==> Input File <==

--------------------------------------------------------------------------
memory 8 Gb

molecule { 
0 2
C           0.000000           0.000000           0.000000
H           0.000000           0.000000           1.215431
}

set { 
basis              cc-pvtz
reference          uks
maxiter            500
DAMPING_PERCENTAGE 1
E_CONVERGENCE      1.0E-8
D_CONVERGENCE      1.0E-8
DIIS_MAX_VECS      400
MBIS_MAXITER       8000
guess              read
}

E, wfn = energy('b3lyp', restart_file='last_wfn', return_wfn=True)
properties('b3lyp','MBIS_CHARGES', wfn=wfn)
wfn.to_file('last_wfn')
--------------------------------------------------------------------------

  Memory set to   7.451 GiB by Python driver.

Scratch directory: /tmp/
 Found user provided orbital data. Setting orbital guess to READ 
 Copying restart file <last_wfn.npy> to </tmp/scan_HC_20.default.508411.180.npy> for internal processing
   => Libint2 <=

    Primary   basis highest AM E, G, H:  6, 6, 3
    Auxiliary basis highest AM E, G, H:  7, 7, 4
    Onebody   basis highest AM E, G, H:  -, -, -
    Solid Harmonics ordering:            Gaussian

*** tstart() called on cics-quant-001
*** at Tue Dec 23 13:39:38 2025

   => Loading Basis Set <=

    Name: CC-PVTZ
    Role: ORBITAL
    Keyword: BASIS
    atoms 1 entry C          line   186 file /home/jrodriguesro/psi4conda/share/psi4/basis/cc-pvtz.gbs 
    atoms 2 entry H          line    23 file /home/jrodriguesro/psi4conda/share/psi4/basis/cc-pvtz.gbs 


         ---------------------------------------------------------
                                   SCF
               by Justin Turney, Rob Parrish, Andy Simmonett
                          and Daniel G. A. Smith
                              UKS Reference
                        5 Threads,   7629 MiB Core
         ---------------------------------------------------------

  ==> Geometry <==

    Molecular point group: c2v
    Full point group: C_inf_v

    Geometry (in Angstrom), charge = 0, multiplicity = 2:

       Center              X                  Y                   Z               Mass       
    ------------   -----------------  -----------------  -----------------  -----------------
         C            0.000000000000     0.000000000000    -0.094169608195    12.000000000000
         H            0.000000000000     0.000000000000     1.121261391805     1.007825032230

  Running in c2v symmetry.

  Rotational constants: A = ************  B =     12.27366  C =     12.27366 [cm^-1]
  Rotational constants: A = ************  B = 367955.14577  C = 367955.14577 [MHz]
  Nuclear repulsion =    2.612294127778542

  Charge       = 0
  Multiplicity = 2
  Electrons    = 7
  Nalpha       = 4
  Nbeta        = 3

  ==> Algorithm <==

  SCF Algorithm Type is DF.
  DIIS enabled.
  MOM disabled.
  Fractional occupation disabled.
  Guess Type is READ.
  Energy threshold   = 1.00e-08
  Density threshold  = 1.00e-08
  Integral threshold = 1.00e-12

  ==> Primary Basis <==

  Basis Set: CC-PVTZ
    Blend: CC-PVTZ
    Number of shells: 16
    Number of basis functions: 44
    Number of Cartesian functions: 50
    Spherical Harmonics?: true
    Max angular momentum: 3

  ==> DFT Potential <==

   => LibXC <=

    Version 7.0.0
    S. Lehtola, C. Steigemann, M. J.T. Oliveira, and M. A.L. Marques.,  SoftwareX 7, 1–5 (2018) (10.1016/j.softx.2017.11.002)

   => Composite Functional: B3LYP <= 

    B3LYP Hyb-GGA Exchange-Correlation Functional

    P. J. Stephens, F. J. Devlin, C. F. Chabalowski, and M. J. Frisch.,  J. Phys. Chem. 98, 11623 (1994) (10.1021/j100096a001)

    Deriv               =              1
    GGA                 =           TRUE
    Meta                =          FALSE

    Exchange Hybrid     =           TRUE
    MP2 Hybrid          =          FALSE

   => Exchange Functionals <=

    0.0800   Slater exchange
    0.7200         Becke 88

   => Exact (HF) Exchange <=

    0.2000               HF 

   => Correlation Functionals <=

    0.1900   Vosko, Wilk & Nusair (VWN5_RPA)
    0.8100   Lee, Yang & Parr

   => LibXC Density Thresholds  <==

    XC_HYB_GGA_XC_B3LYP:  1.00E-15 

   => Molecular Quadrature <=

    Radial Scheme          =       TREUTLER
    Pruning Scheme         =           NONE
    Nuclear Scheme         =       TREUTLER

    Blocking Scheme        =         OCTREE
    BS radius alpha        =              1
    Pruning alpha          =              1
    Radial Points          =             75
    Spherical Points       =            302
    Total Points           =          43822
    Total Blocks           =            389
    Max Points             =            255
    Max Functions          =             44
    Weights Tolerance      =       1.00E-15

   => Loading Basis Set <=

    Name: (CC-PVTZ AUX)
    Role: JKFIT
    Keyword: DF_BASIS_SCF
    atoms 1 entry C          line   125 file /home/jrodriguesro/psi4conda/share/psi4/basis/cc-pvtz-jkfit.gbs 
    atoms 2 entry H          line    51 file /home/jrodriguesro/psi4conda/share/psi4/basis/cc-pvtz-jkfit.gbs 

   => Loading Basis Set <=

    Name: CC-PVTZ
    Role: ORBITAL
    Keyword: BASIS
    atoms 1 entry C          line   186 file /home/jrodriguesro/psi4conda/share/psi4/basis/cc-pvtz.gbs 
    atoms 2 entry H          line    23 file /home/jrodriguesro/psi4conda/share/psi4/basis/cc-pvtz.gbs 

  Reading orbitals from file /tmp/scan_HC_20.default.508411.180.npy, no projection.

  ==> Integral Setup <==

  DFHelper Memory: AOs need 0.002 GiB; user supplied 5.533 GiB. 
  SCF_SUBTYPE=INCORE selected. In-core MEM_DF algorithm will be used.
  Using in-core AOs.

  ==> MemDFJK: Density-Fitted J/K Matrices <==

    J tasked:                   Yes
    K tasked:                   Yes
    wK tasked:                   No
    OpenMP threads:               5
    Memory [MiB]:              5665
    Algorithm:                 Core
    Schwarz Cutoff:           1E-12
    Mask sparsity (%):       0.0000
    Fitting Condition:        1E-10

   => Auxiliary Basis Set <=

  Basis Set: (CC-PVTZ AUX)
    Blend: CC-PVTZ-JKFIT
    Number of shells: 35
    Number of basis functions: 109
    Number of Cartesian functions: 131
    Spherical Harmonics?: true
    Max angular momentum: 4

  Cached 100.0% of DFT collocation blocks in 0.055 [GiB].

  Minimum eigenvalue in the overlap matrix is 4.0772605944E-03.
  Reciprocal condition number of the overlap matrix is 1.0216189501E-03.
    Using symmetric orthogonalization.

  ==> Pre-Iterations <==

  SCF Guess: Orbitals guess was supplied from a previous computation.

   -------------------------------------------------------
    Irrep   Nso     Nmo     Nalpha   Nbeta   Ndocc  Nsocc
   -------------------------------------------------------
     A1        20      20       3       3       3       0
     A2         4       4       0       0       0       0
     B1        10      10       1       0       0       1
     B2        10      10       0       0       0       0
   -------------------------------------------------------
    Total      44      44       4       3       3       1
   -------------------------------------------------------

  ==> Iterations <==

                           Total Energy        Delta E     RMS |[F,P]|

   @DF-UKS iter   0:   -38.49980182220023   -3.84998e+01   1.62374e-03 
   @DF-UKS iter   1:   -38.49269217970144    7.10964e-03   3.11536e-04 DIIS/ADIIS
   @DF-UKS iter   2:   -38.49272000833367   -2.78286e-05   1.80975e-04 DIIS/ADIIS/DAMP=1%
   @DF-UKS iter   3:   -38.49266753876718    5.24696e-05   3.76976e-05 DIIS/DAMP=1%
   @DF-UKS iter   4:   -38.49275077292045   -8.32342e-05   1.59403e-06 DIIS/DAMP=1%
   @DF-UKS iter   5:   -38.49273396334155    1.68096e-05   4.67101e-07 DIIS/DAMP=1%
   @DF-UKS iter   6:   -38.49273409163537   -1.28294e-07   1.47892e-07 DIIS/DAMP=1%
   @DF-UKS iter   7:   -38.49273397888162    1.12754e-07   2.01646e-08 DIIS/DAMP=1%
   @DF-UKS iter   8:   -38.49273399543706   -1.65554e-08   2.94034e-09 DIIS/DAMP=1%
   @DF-UKS iter   9:   -38.49273399591198   -4.74920e-10   3.31794e-10 DIIS/DAMP=1%
  Energy and wave function converged.


  ==> Post-Iterations <==

   Electrons on quadrature grid:
      Nalpha   =    4.0000000134 ; deviation = 1.341e-08
      Nbeta    =    3.0000000159 ; deviation = 1.587e-08
      Ntotal   =    7.0000000293 ; deviation = 2.928e-08 

   @Spin Contamination Metric:   3.130696274E-03
   @S^2 Expected:                7.500000000E-01
   @S^2 Observed:                7.531306963E-01
   @S   Expected:                5.000000000E-01
   @S   Observed:                5.000000000E-01

    Orbital Energies [Eh]
    ---------------------

    Alpha Occupied:                                                       

       1A1   -10.291821     2A1    -0.632673     3A1    -0.323383  
       1B1    -0.261076  

    Alpha Virtual:                                                        

       1B2    -0.148736     4A1     0.045821     5A1     0.278047  
       2B1     0.290435     2B2     0.310132     6A1     0.335277  
       7A1     0.442435     3B1     0.558255     3B2     0.561184  
       1A2     0.654705     8A1     0.660444     9A1     0.934467  
       4B1     1.003974     4B2     1.004500    10A1     1.286961  
       5B1     1.919959     5B2     1.946298    11A1     2.102853  
      12A1     2.263989     2A2     2.529306    13A1     2.533104  
       6B1     2.586627     6B2     2.592282     7B1     2.640055  
       7B2     2.642567    14A1     2.827615     3A2     2.896974  
      15A1     2.910997     8B1     3.041013     8B2     3.051534  
      16A1     3.125257     4A2     3.468653    17A1     3.470125  
       9B2     3.754928     9B1     3.757340    18A1     4.151511  
      10B1     4.457183    10B2     4.457708    19A1     4.542087  
      20A1     7.208484  

    Beta Occupied:                                                        

       1A1   -10.276939     2A1    -0.588471     3A1    -0.304879  

    Beta Virtual:                                                         

       1B2    -0.132626     1B1    -0.086439     4A1     0.052272  
       5A1     0.283994     2B2     0.317591     6A1     0.344272  
       2B1     0.346331     7A1     0.459893     3B2     0.562275  
       3B1     0.583761     8A1     0.697913     1A2     0.698228  
       9A1     0.947613     4B2     1.005908     4B1     1.025600  
      10A1     1.295257     5B2     1.957597     5B1     2.001518  
      11A1     2.113689    12A1     2.275328     2A2     2.559650  
      13A1     2.559819     6B2     2.595354     6B1     2.627243  
       7B2     2.698714     7B1     2.699456    14A1     2.846728  
       3A2     2.975170    15A1     2.978376     8B2     3.056368  
       8B1     3.097029    16A1     3.141430     4A2     3.477777  
      17A1     3.478119     9B2     3.750460     9B1     3.758605  
      18A1     4.161098    10B2     4.457961    10B1     4.479181  
      19A1     4.545905    20A1     7.225242  

    Final Occupation by Irrep:
             A1    A2    B1    B2 
    DOCC [     3,    0,    0,    0 ]
    SOCC [     0,    0,    1,    0 ]
    NA   [     3,    0,    1,    0 ]
    NB   [     3,    0,    0,    0 ]

  @DF-UKS Final Energy:   -38.49273399591198

   => Energetics <=

    Nuclear Repulsion Energy =              2.6122941277785419
    One-Electron Energy =                 -56.2635973204828161
    Two-Electron Energy =                  19.6826830282222538
    DFT Exchange-Correlation Energy =      -4.5241138314299674
    Empirical Dispersion Energy =           0.0000000000000000
    VV10 Nonlocal Energy =                  0.0000000000000000
    Total Energy =                        -38.4927339959119834

  UHF NO Occupations:
  HONO-2 :    2 A1 1.9997862
  HONO-1 :    3 A1 1.9986482
  HONO-0 :    1 B1 1.0000000
  LUNO+0 :    4 A1 0.0013518
  LUNO+1 :    5 A1 0.0002138
  LUNO+2 :    6 A1 0.0000007
  LUNO+3 :    7 A1 0.0000000


Computation Completed


Properties will be evaluated at   0.000000,   0.000000,   0.000000 [a0]

Properties computed using the SCF density matrix


 Multipole Moments:

 ------------------------------------------------------------------------------------
     Multipole            Electronic (a.u.)      Nuclear  (a.u.)        Total (a.u.)
 ------------------------------------------------------------------------------------

 L = 1.  Multiply by 2.5417464519 to convert [e a0] to [Debye]
 Dipole X            :          0.0000000            0.0000000            0.0000000
 Dipole Y            :          0.0000000            0.0000000            0.0000000
 Dipole Z            :         -0.5418737            1.0511483            0.5092746
 Magnitude           :                                                    0.5092746

 ------------------------------------------------------------------------------------

*** tstop() called on cics-quant-001 at Tue Dec 23 13:39:39 2025
Module time:
	user time   =       0.84 seconds =       0.01 minutes
	system time =       0.06 seconds =       0.00 minutes
	total time  =          1 seconds =       0.02 minutes
Total time:
	user time   =       0.84 seconds =       0.01 minutes
	system time =       0.06 seconds =       0.00 minutes
	total time  =          1 seconds =       0.02 minutes

*** tstart() called on cics-quant-001
*** at Tue Dec 23 13:39:39 2025

   => Libint2 <=

    Primary   basis highest AM E, G, H:  6, 6, 3
    Auxiliary basis highest AM E, G, H:  7, 7, 4
    Onebody   basis highest AM E, G, H:  -, -, -
    Solid Harmonics ordering:            Gaussian
   => Loading Basis Set <=

    Name: CC-PVTZ
    Role: ORBITAL
    Keyword: BASIS
    atoms 1 entry C          line   186 file /home/jrodriguesro/psi4conda/share/psi4/basis/cc-pvtz.gbs 
    atoms 2 entry H          line    23 file /home/jrodriguesro/psi4conda/share/psi4/basis/cc-pvtz.gbs 


         ---------------------------------------------------------
                                   SCF
               by Justin Turney, Rob Parrish, Andy Simmonett
                          and Daniel G. A. Smith
                              UKS Reference
                        5 Threads,   7629 MiB Core
         ---------------------------------------------------------

  ==> Geometry <==

    Molecular point group: c2v
    Full point group: C_inf_v

    Geometry (in Angstrom), charge = 0, multiplicity = 2:

       Center              X                  Y                   Z               Mass       
    ------------   -----------------  -----------------  -----------------  -----------------
         C            0.000000000000     0.000000000000    -0.094169608195    12.000000000000
         H            0.000000000000     0.000000000000     1.121261391805     1.007825032230

  Running in c2v symmetry.

  Rotational constants: A = ************  B =     12.27366  C =     12.27366 [cm^-1]
  Rotational constants: A = ************  B = 367955.14577  C = 367955.14577 [MHz]
  Nuclear repulsion =    2.612294127778542

  Charge       = 0
  Multiplicity = 2
  Electrons    = 7
  Nalpha       = 4
  Nbeta        = 3

  ==> Algorithm <==

  SCF Algorithm Type is DF.
  DIIS enabled.
  MOM disabled.
  Fractional occupation disabled.
  Guess Type is READ.
  Energy threshold   = 1.00e-08
  Density threshold  = 1.00e-08
  Integral threshold = 1.00e-12

  ==> Primary Basis <==

  Basis Set: CC-PVTZ
    Blend: CC-PVTZ
    Number of shells: 16
    Number of basis functions: 44
    Number of Cartesian functions: 50
    Spherical Harmonics?: true
    Max angular momentum: 3

  ==> DFT Potential <==

   => LibXC <=

    Version 7.0.0
    S. Lehtola, C. Steigemann, M. J.T. Oliveira, and M. A.L. Marques.,  SoftwareX 7, 1–5 (2018) (10.1016/j.softx.2017.11.002)

   => Composite Functional: B3LYP <= 

    B3LYP Hyb-GGA Exchange-Correlation Functional

    P. J. Stephens, F. J. Devlin, C. F. Chabalowski, and M. J. Frisch.,  J. Phys. Chem. 98, 11623 (1994) (10.1021/j100096a001)

    Deriv               =              1
    GGA                 =           TRUE
    Meta                =          FALSE

    Exchange Hybrid     =           TRUE
    MP2 Hybrid          =          FALSE

   => Exchange Functionals <=

    0.0800   Slater exchange
    0.7200         Becke 88

   => Exact (HF) Exchange <=

    0.2000               HF 

   => Correlation Functionals <=

    0.1900   Vosko, Wilk & Nusair (VWN5_RPA)
    0.8100   Lee, Yang & Parr

   => LibXC Density Thresholds  <==

    XC_HYB_GGA_XC_B3LYP:  1.00E-15 

   => Molecular Quadrature <=

    Radial Scheme          =       TREUTLER
    Pruning Scheme         =           NONE
    Nuclear Scheme         =       TREUTLER

    Blocking Scheme        =         OCTREE
    BS radius alpha        =              1
    Pruning alpha          =              1
    Radial Points          =             75
    Spherical Points       =            302
    Total Points           =          43822
    Total Blocks           =            389
    Max Points             =            255
    Max Functions          =             44
    Weights Tolerance      =       1.00E-15

   => Loading Basis Set <=

    Name: (CC-PVTZ AUX)
    Role: JKFIT
    Keyword: DF_BASIS_SCF
    atoms 1 entry C          line   125 file /home/jrodriguesro/psi4conda/share/psi4/basis/cc-pvtz-jkfit.gbs 
    atoms 2 entry H          line    51 file /home/jrodriguesro/psi4conda/share/psi4/basis/cc-pvtz-jkfit.gbs 

   => Loading Basis Set <=

    Name: CC-PVTZ
    Role: ORBITAL
    Keyword: BASIS
    atoms 1 entry C          line   186 file /home/jrodriguesro/psi4conda/share/psi4/basis/cc-pvtz.gbs 
    atoms 2 entry H          line    23 file /home/jrodriguesro/psi4conda/share/psi4/basis/cc-pvtz.gbs 

  Reading orbitals from file /tmp/scan_HC_20.default.508411.180.npy, no projection.

  ==> Integral Setup <==

  DFHelper Memory: AOs need 0.002 GiB; user supplied 5.533 GiB. 
  SCF_SUBTYPE=INCORE selected. In-core MEM_DF algorithm will be used.
  Using in-core AOs.

  ==> MemDFJK: Density-Fitted J/K Matrices <==

    J tasked:                   Yes
    K tasked:                   Yes
    wK tasked:                   No
    OpenMP threads:               5
    Memory [MiB]:              5665
    Algorithm:                 Core
    Schwarz Cutoff:           1E-12
    Mask sparsity (%):       0.0000
    Fitting Condition:        1E-10

   => Auxiliary Basis Set <=

  Basis Set: (CC-PVTZ AUX)
    Blend: CC-PVTZ-JKFIT
    Number of shells: 35
    Number of basis functions: 109
    Number of Cartesian functions: 131
    Spherical Harmonics?: true
    Max angular momentum: 4

  Cached 100.0% of DFT collocation blocks in 0.055 [GiB].

  Minimum eigenvalue in the overlap matrix is 4.0772605944E-03.
  Reciprocal condition number of the overlap matrix is 1.0216189501E-03.
    Using symmetric orthogonalization.

  ==> Pre-Iterations <==

  SCF Guess: Orbitals guess was supplied from a previous computation.

   -------------------------------------------------------
    Irrep   Nso     Nmo     Nalpha   Nbeta   Ndocc  Nsocc
   -------------------------------------------------------
     A1        20      20       3       3       3       0
     A2         4       4       0       0       0       0
     B1        10      10       1       0       0       1
     B2        10      10       0       0       0       0
   -------------------------------------------------------
    Total      44      44       4       3       3       1
   -------------------------------------------------------

  ==> Iterations <==

                           Total Energy        Delta E     RMS |[F,P]|

   @DF-UKS iter   0:   -38.49273399524312   -3.84927e+01   3.87861e-11 
   @DF-UKS iter   1:   -38.49273399524311    7.10543e-15   2.23262e-11 DIIS
  Energy and wave function converged.


  ==> Post-Iterations <==

   Electrons on quadrature grid:
      Nalpha   =    4.0000000134 ; deviation = 1.341e-08
      Nbeta    =    3.0000000159 ; deviation = 1.587e-08
      Ntotal   =    7.0000000293 ; deviation = 2.928e-08 

   @Spin Contamination Metric:   3.130696214E-03
   @S^2 Expected:                7.500000000E-01
   @S^2 Observed:                7.531306962E-01
   @S   Expected:                5.000000000E-01
   @S   Observed:                5.000000000E-01

    Orbital Energies [Eh]
    ---------------------

    Alpha Occupied:                                                       

       1A1   -10.291821     2A1    -0.632673     3A1    -0.323383  
       1B1    -0.261076  

    Alpha Virtual:                                                        

       1B2    -0.148736     4A1     0.045821     5A1     0.278047  
       2B1     0.290435     2B2     0.310132     6A1     0.335277  
       7A1     0.442435     3B1     0.558255     3B2     0.561184  
       1A2     0.654705     8A1     0.660444     9A1     0.934467  
       4B1     1.003974     4B2     1.004500    10A1     1.286961  
       5B1     1.919959     5B2     1.946298    11A1     2.102853  
      12A1     2.263989     2A2     2.529306    13A1     2.533104  
       6B1     2.586627     6B2     2.592282     7B1     2.640055  
       7B2     2.642567    14A1     2.827615     3A2     2.896974  
      15A1     2.910997     8B1     3.041013     8B2     3.051534  
      16A1     3.125257     4A2     3.468653    17A1     3.470125  
       9B2     3.754928     9B1     3.757340    18A1     4.151511  
      10B1     4.457183    10B2     4.457708    19A1     4.542087  
      20A1     7.208484  

    Beta Occupied:                                                        

       1A1   -10.276939     2A1    -0.588471     3A1    -0.304879  

    Beta Virtual:                                                         

       1B2    -0.132626     1B1    -0.086439     4A1     0.052272  
       5A1     0.283994     2B2     0.317591     6A1     0.344272  
       2B1     0.346331     7A1     0.459893     3B2     0.562275  
       3B1     0.583761     8A1     0.697913     1A2     0.698228  
       9A1     0.947613     4B2     1.005908     4B1     1.025600  
      10A1     1.295257     5B2     1.957597     5B1     2.001518  
      11A1     2.113689    12A1     2.275328     2A2     2.559650  
      13A1     2.559819     6B2     2.595354     6B1     2.627243  
       7B2     2.698714     7B1     2.699456    14A1     2.846728  
       3A2     2.975170    15A1     2.978376     8B2     3.056368  
       8B1     3.097029    16A1     3.141430     4A2     3.477777  
      17A1     3.478119     9B2     3.750460     9B1     3.758605  
      18A1     4.161098    10B2     4.457961    10B1     4.479181  
      19A1     4.545905    20A1     7.225242  

    Final Occupation by Irrep:
             A1    A2    B1    B2 
    DOCC [     3,    0,    0,    0 ]
    SOCC [     0,    0,    1,    0 ]
    NA   [     3,    0,    1,    0 ]
    NB   [     3,    0,    0,    0 ]

  @DF-UKS Final Energy:   -38.49273399524311

   => Energetics <=

    Nuclear Repulsion Energy =              2.6122941277785419
    One-Electron Energy =                 -56.2635973294210388
    Two-Electron Energy =                  19.6826830387721259
    DFT Exchange-Correlation Energy =      -4.5241138323727386
    Empirical Dispersion Energy =           0.0000000000000000
    VV10 Nonlocal Energy =                  0.0000000000000000
    Total Energy =                        -38.4927339952431140

  UHF NO Occupations:
  HONO-2 :    2 A1 1.9997862
  HONO-1 :    3 A1 1.9986482
  HONO-0 :    1 B1 1.0000000
  LUNO+0 :    4 A1 0.0013518
  LUNO+1 :    5 A1 0.0002138
  LUNO+2 :    6 A1 0.0000007
  LUNO+3 :    7 A1 0.0000000


Computation Completed


Properties will be evaluated at   0.000000,   0.000000,   0.000000 [a0]

Properties computed using the B3LYP density matrix


 Multipole Moments:

 ------------------------------------------------------------------------------------
     Multipole            Electronic (a.u.)      Nuclear  (a.u.)        Total (a.u.)
 ------------------------------------------------------------------------------------

 L = 1.  Multiply by 2.5417464519 to convert [e a0] to [Debye]
 Dipole X            :          0.0000000            0.0000000            0.0000000
 Dipole Y            :          0.0000000            0.0000000            0.0000000
 Dipole Z            :         -0.5418737            1.0511483            0.5092746
 Magnitude           :                                                    0.5092746

 L = 2.  Multiply by 1.3450342976 to convert [e a0^2] to [Debye ang]
 Quadrupole XX       :         -5.7661787            0.0000000           -5.7661787
 Quadrupole XY       :          0.0000000            0.0000000            0.0000000
 Quadrupole XZ       :          0.0000000            0.0000000            0.0000000
 Quadrupole YY       :         -4.2766456            0.0000000           -4.2766456
 Quadrupole YZ       :          0.0000000            0.0000000            0.0000000
 Quadrupole ZZ       :        -10.2792240            4.6796469           -5.5995771
 Traceless XX        :          1.0078374           -1.5598823           -0.5520449
 Traceless YY        :          2.4973705           -1.5598823            0.9374882
 Traceless ZZ        :         -3.5052079            3.1197646           -0.3854433

 ------------------------------------------------------------------------------------
  ==> Computing MBIS Charges <==

  Electron Count from Grid (Expected Number):  7.00000 ( 7.00000)
  Difference:  0.00000

  MBIS Charges: (a.u.)
   Center  Symbol  Z      Pop.       Charge
      1       C    6    6.065304   -0.065304
      2       H    1    0.934696    0.065304

  MBIS Dipoles: [e a0]
   Center  Symbol  Z        X           Y           Z
      1       C    6    0.000000    0.000000    0.304893
      2       H    1   -0.000000    0.000000    0.054389

  MBIS Quadrupoles: [e a0^2]
   Center  Symbol  Z      XX        XY        XZ        YY        YZ        ZZ
      1       C    6   -5.1229    0.0000    0.0000   -3.7077   -0.0000   -5.3760
      2       H    1   -0.6432   -0.0000   -0.0000   -0.5689    0.0000   -0.6366

  MBIS Octupoles: [e a0^3]
   Center  Symbol  Z      XXX       XXY       XXZ       XYY       XYZ       XZZ       YYY       YYZ       YZZ       ZZZ
      1       C    6    0.0000   -0.0000    0.3979   -0.0000   -0.0000    0.0000    0.0000    0.4011    0.0000    0.7222
      2       H    1   -0.0000    0.0000   -0.0004   -0.0000   -0.0000   -0.0000    0.0000   -0.0490    0.0000   -0.0297

  MBIS Radial Moments:
   Center  Symbol  Z      [a0^2]      [a0^3]      [a0^4]      
      1       C    6   14.206694   35.468226   105.944046
      2       H    1    1.848804    3.735060    9.099829

  MBIS Valence Widths: [a0]
   Center  Symbol  Z     Width
      1       C    6    0.523848
      2       H    1    0.408339


  MBIS Valence Charges: (a.u.)
   Center  Symbol  Z     Charge
      1       C    6   -4.386763
      2       H    1   -0.934696

*** tstop() called on cics-quant-001 at Tue Dec 23 13:39:39 2025
Module time:
	user time   =       0.43 seconds =       0.01 minutes
	system time =       0.04 seconds =       0.00 minutes
	total time  =          0 seconds =       0.00 minutes
Total time:
	user time   =       1.29 seconds =       0.02 minutes
	system time =       0.10 seconds =       0.00 minutes
	total time  =          1 seconds =       0.02 minutes

    Psi4 stopped on: Tuesday, 23 December 2025 01:39PM
    Psi4 wall time for execution: 0:00:00.61

*** Psi4 exiting successfully. Buy a developer a beer!
