
    -----------------------------------------------------------------------
          Psi4: An Open-Source Ab Initio Electronic Structure Package
                               Psi4 1.10 release

                         Git: Rev {} zzzzzzz 


    D. G. A. Smith, L. A. Burns, A. C. Simmonett, R. M. Parrish,
    M. C. Schieber, R. Galvelis, P. Kraus, H. Kruse, R. Di Remigio,
    A. Alenaizan, A. M. James, S. Lehtola, J. P. Misiewicz, M. Scheurer,
    R. A. Shaw, J. B. Schriber, Y. Xie, Z. L. Glick, D. A. Sirianni,
    J. S. O'Brien, J. M. Waldrop, A. Kumar, E. G. Hohenstein,
    B. P. Pritchard, B. R. Brooks, H. F. Schaefer III, A. Yu. Sokolov,
    K. Patkowski, A. E. DePrince III, U. Bozkaya, R. A. King,
    F. A. Evangelista, J. M. Turney, T. D. Crawford, C. D. Sherrill,
    J. Chem. Phys. 152(18) 184108 (2020). https://doi.org/10.1063/5.0006002

                            Additional Code Authors
    E. T. Seidl, C. L. Janssen, E. F. Valeev, M. L. Leininger,
    J. F. Gonthier, R. M. Richard, H. R. McAlexander, M. Saitow, X. Wang,
    P. Verma, M. H. Lechner, A. Jiang, S. Behnle, A. G. Heide,
    M. F. Herbst, D. L. Poole, T. Győri, E. C. Mitchell, J. P. Pederson,
    and A. M. Wallace

             Previous Authors, Complete List of Code Contributors,
                       and Citations for Specific Modules
    https://github.com/psi4/psi4/blob/master/codemeta.json
    https://github.com/psi4/psi4/graphs/contributors
    https://psicode.org/psi4manual/master/introduction.html#citing-psifour

    -----------------------------------------------------------------------


    Psi4 started on: Tuesday, 23 December 2025 01:44PM

    Process ID: 537892
    Host:       cics-quant-001
    PSIDATADIR: /home/jrodriguesro/psi4conda/share/psi4
    Memory:     500.0 MiB
    Threads:    5
    Addons:     adcc, a̶m̶b̶i̶t̶, b̶s̶e̶, c̶c̶t̶3̶, c̶f̶o̶u̶r̶, c̶h̶e̶m̶p̶s̶2̶, c̶p̶p̶e̶, ddx, dftd3, dftd4,
                dkh, ecpint, einsums, f̶o̶r̶t̶e̶, g̶a̶u̶x̶c̶, gcp, g̶d̶m̶a̶, geometric,
                g̶p̶u̶_̶d̶f̶c̶c̶, i̶n̶t̶e̶g̶r̶a̶t̶o̶r̶x̶x̶, i̶p̶i̶, libefp, m̶d̶i̶, m̶p̶2̶d̶,
                m̶r̶c̶c̶, ooo, o̶p̶e̶n̶f̶e̶r̶m̶i̶o̶n̶p̶s̶i̶4̶, pcmsolver, p̶s̶i̶4̶f̶o̶c̶k̶c̶i̶,
                p̶s̶i̶x̶a̶s̶, r̶e̶s̶p̶, s̶i̶m̶i̶n̶t̶, s̶n̶s̶m̶p̶2̶, v̶2̶r̶d̶m̶_̶c̶a̶s̶s̶c̶f̶

  ==> Input File <==

--------------------------------------------------------------------------
memory 8 Gb

molecule { 
0 2
O           0.000000           0.000000           0.000000
N           0.000000           0.000000           1.414900
}

set { 
basis              cc-pvtz
reference          uks
maxiter            500
DAMPING_PERCENTAGE 1
E_CONVERGENCE      1.0E-8
D_CONVERGENCE      1.0E-8
DIIS_MAX_VECS      400
MBIS_MAXITER       8000
}

E, wfn = energy('b3lyp', return_wfn=True)
properties('b3lyp','MBIS_CHARGES', wfn=wfn)
wfn.to_file('last_wfn')
--------------------------------------------------------------------------

  Memory set to   7.451 GiB by Python driver.

Scratch directory: /tmp/
   => Libint2 <=

    Primary   basis highest AM E, G, H:  6, 6, 3
    Auxiliary basis highest AM E, G, H:  7, 7, 4
    Onebody   basis highest AM E, G, H:  -, -, -
    Solid Harmonics ordering:            Gaussian

*** tstart() called on cics-quant-001
*** at Tue Dec 23 13:44:40 2025

   => Loading Basis Set <=

    Name: CC-PVTZ
    Role: ORBITAL
    Keyword: BASIS
    atoms 1 entry O          line   262 file /home/jrodriguesro/psi4conda/share/psi4/basis/cc-pvtz.gbs 
    atoms 2 entry N          line   224 file /home/jrodriguesro/psi4conda/share/psi4/basis/cc-pvtz.gbs 


         ---------------------------------------------------------
                                   SCF
               by Justin Turney, Rob Parrish, Andy Simmonett
                          and Daniel G. A. Smith
                              UKS Reference
                        5 Threads,   7629 MiB Core
         ---------------------------------------------------------

  ==> Geometry <==

    Molecular point group: c2v
    Full point group: C_inf_v

    Geometry (in Angstrom), charge = 0, multiplicity = 2:

       Center              X                  Y                   Z               Mass       
    ------------   -----------------  -----------------  -----------------  -----------------
         O            0.000000000000     0.000000000000    -0.660475929143    15.994914619570
         N            0.000000000000     0.000000000000     0.754424070857    14.003074004430

  Running in c2v symmetry.

  Rotational constants: A = ************  B =      1.12780  C =      1.12780 [cm^-1]
  Rotational constants: A = ************  B =  33810.57309  C =  33810.57309 [MHz]
  Nuclear repulsion =   20.944182484642024

  Charge       = 0
  Multiplicity = 2
  Electrons    = 15
  Nalpha       = 8
  Nbeta        = 7

  ==> Algorithm <==

  SCF Algorithm Type is DF.
  DIIS enabled.
  MOM disabled.
  Fractional occupation disabled.
  Guess Type is SAD.
  Energy threshold   = 1.00e-08
  Density threshold  = 1.00e-08
  Integral threshold = 1.00e-12

  ==> Primary Basis <==

  Basis Set: CC-PVTZ
    Blend: CC-PVTZ
    Number of shells: 20
    Number of basis functions: 60
    Number of Cartesian functions: 70
    Spherical Harmonics?: true
    Max angular momentum: 3

  ==> DFT Potential <==

   => LibXC <=

    Version 7.0.0
    S. Lehtola, C. Steigemann, M. J.T. Oliveira, and M. A.L. Marques.,  SoftwareX 7, 1–5 (2018) (10.1016/j.softx.2017.11.002)

   => Composite Functional: B3LYP <= 

    B3LYP Hyb-GGA Exchange-Correlation Functional

    P. J. Stephens, F. J. Devlin, C. F. Chabalowski, and M. J. Frisch.,  J. Phys. Chem. 98, 11623 (1994) (10.1021/j100096a001)

    Deriv               =              1
    GGA                 =           TRUE
    Meta                =          FALSE

    Exchange Hybrid     =           TRUE
    MP2 Hybrid          =          FALSE

   => Exchange Functionals <=

    0.0800   Slater exchange
    0.7200         Becke 88

   => Exact (HF) Exchange <=

    0.2000               HF 

   => Correlation Functionals <=

    0.1900   Vosko, Wilk & Nusair (VWN5_RPA)
    0.8100   Lee, Yang & Parr

   => LibXC Density Thresholds  <==

    XC_HYB_GGA_XC_B3LYP:  1.00E-15 

   => Molecular Quadrature <=

    Radial Scheme          =       TREUTLER
    Pruning Scheme         =           NONE
    Nuclear Scheme         =       TREUTLER

    Blocking Scheme        =         OCTREE
    BS radius alpha        =              1
    Pruning alpha          =              1
    Radial Points          =             75
    Spherical Points       =            302
    Total Points           =          42744
    Total Blocks           =            383
    Max Points             =            253
    Max Functions          =             60
    Weights Tolerance      =       1.00E-15

   => Loading Basis Set <=

    Name: (CC-PVTZ AUX)
    Role: JKFIT
    Keyword: DF_BASIS_SCF
    atoms 1 entry O          line   229 file /home/jrodriguesro/psi4conda/share/psi4/basis/cc-pvtz-jkfit.gbs 
    atoms 2 entry N          line   177 file /home/jrodriguesro/psi4conda/share/psi4/basis/cc-pvtz-jkfit.gbs 

  ==> Integral Setup <==

  DFHelper Memory: AOs need 0.005 GiB; user supplied 5.517 GiB. 
  SCF_SUBTYPE=INCORE selected. In-core MEM_DF algorithm will be used.
  Using in-core AOs.

  ==> MemDFJK: Density-Fitted J/K Matrices <==

    J tasked:                   Yes
    K tasked:                   Yes
    wK tasked:                   No
    OpenMP threads:               5
    Memory [MiB]:              5649
    Algorithm:                 Core
    Schwarz Cutoff:           1E-12
    Mask sparsity (%):       0.0000
    Fitting Condition:        1E-10

   => Auxiliary Basis Set <=

  Basis Set: (CC-PVTZ AUX)
    Blend: CC-PVTZ-JKFIT
    Number of shells: 50
    Number of basis functions: 158
    Number of Cartesian functions: 192
    Spherical Harmonics?: true
    Max angular momentum: 4

  Cached 100.0% of DFT collocation blocks in 0.070 [GiB].

  Minimum eigenvalue in the overlap matrix is 7.2077491733E-03.
  Reciprocal condition number of the overlap matrix is 2.0004979768E-03.
    Using symmetric orthogonalization.

  ==> Pre-Iterations <==

  SCF Guess: Superposition of Atomic Densities via on-the-fly atomic UHF (no occupation information).

   -------------------------
    Irrep   Nso     Nmo    
   -------------------------
     A1        26      26 
     A2         6       6 
     B1        14      14 
     B2        14      14 
   -------------------------
    Total      60      60
   -------------------------

  ==> Iterations <==

                           Total Energy        Delta E     RMS |[F,P]|

   @DF-UKS iter SAD:  -129.52828481742245   -1.29528e+02   0.00000e+00 
   @DF-UKS iter   1:  -129.58597137174053   -5.76866e-02   2.23747e-02 DIIS/ADIIS
   @DF-UKS iter   2:  -129.65258240539379   -6.66110e-02   2.41534e-02 DIIS/ADIIS/DAMP=1%
   @DF-UKS iter   3:  -129.55906541729570    9.35170e-02   2.84556e-02 DIIS/ADIIS/DAMP=1%
   @DF-UKS iter   4:  -129.84227538036163   -2.83210e-01   5.95873e-03 DIIS/ADIIS/DAMP=1%
   @DF-UKS iter   5:  -129.86181056190514   -1.95352e-02   1.66752e-03 DIIS/ADIIS/DAMP=1%
   @DF-UKS iter   6:  -129.86172678635450    8.37756e-05   1.49660e-04 DIIS/ADIIS/DAMP=1%
   @DF-UKS iter   7:  -129.86212119869606   -3.94412e-04   8.64066e-05 DIIS/DAMP=1%
   @DF-UKS iter   8:  -129.86214598462263   -2.47859e-05   7.33459e-05 DIIS/DAMP=1%
   @DF-UKS iter   9:  -129.86223337194031   -8.73873e-05   6.59456e-05 DIIS/DAMP=1%
   @DF-UKS iter  10:  -129.86234190162224   -1.08530e-04   6.78966e-05 DIIS/DAMP=1%
   @DF-UKS iter  11:  -129.86236270920926   -2.08076e-05   6.39242e-05 DIIS/DAMP=1%
   @DF-UKS iter  12:  -129.86240603119916   -4.33220e-05   1.92871e-05 DIIS/DAMP=1%
   @DF-UKS iter  13:  -129.86240281660767    3.21459e-06   1.85143e-06 DIIS/DAMP=1%
   @DF-UKS iter  14:  -129.86240343711825   -6.20511e-07   3.79510e-07 DIIS/DAMP=1%
   @DF-UKS iter  15:  -129.86240384477375   -4.07656e-07   6.92485e-07 DIIS/DAMP=1%
   @DF-UKS iter  16:  -129.86240367081302    1.73961e-07   9.76753e-08 DIIS/DAMP=1%
   @DF-UKS iter  17:  -129.86240366777383    3.03919e-09   1.22948e-08 DIIS/DAMP=1%
   @DF-UKS iter  18:  -129.86240367581919   -8.04536e-09   2.32496e-09 DIIS/DAMP=1%
  Energy and wave function converged.


  ==> Post-Iterations <==

   Electrons on quadrature grid:
      Nalpha   =    7.9999997334 ; deviation = -2.666e-07
      Nbeta    =    6.9999996463 ; deviation = -3.537e-07
      Ntotal   =   14.9999993796 ; deviation = -6.204e-07 

   @Spin Contamination Metric:   5.044235062E-02
   @S^2 Expected:                7.500000000E-01
   @S^2 Observed:                8.004423506E-01
   @S   Expected:                5.000000000E-01
   @S   Observed:                5.000000000E-01

    Orbital Energies [Eh]
    ---------------------

    Alpha Occupied:                                                       

       1A1   -19.269412     2A1   -14.512831     3A1    -1.085480  
       4A1    -0.745403     1B1    -0.466391     5A1    -0.465845  
       1B2    -0.429926     2B1    -0.297991  

    Alpha Virtual:                                                        

       2B2    -0.189593     6A1     0.065137     7A1     0.394932  
       3B1     0.416556     3B2     0.423117     8A1     0.473974  
       9A1     0.565886     4B1     0.597179     4B2     0.606069  
       1A2     0.938807    10A1     0.940233     5B2     1.006845  
       5B1     1.008848    11A1     1.140760     2A2     1.472276  
      12A1     1.473553    13A1     1.505817     6B1     1.847065  
       6B2     1.848260    14A1     2.035290     7B1     2.740006  
       7B2     2.754187    15A1     3.012970     8B1     3.438338  
       8B2     3.449913    16A1     3.722549     3A2     3.750807  
      17A1     3.752343     9B1     3.778010     9B2     3.778367  
      10B1     3.956745    10B2     3.957904    18A1     4.268793  
       4A2     4.300818    19A1     4.304944    11B1     4.535957  
      11B2     4.542884    20A1     4.710649    12B1     5.059400  
      12B2     5.059622     5A2     5.198105    21A1     5.199366  
      22A1     5.311880    13B1     5.729259    13B2     5.730498  
       6A2     6.137337    23A1     6.140578    24A1     6.273513  
      14B1     6.556241    14B2     6.562637    25A1     7.367674  
      26A1     8.874053  

    Beta Occupied:                                                        

       1A1   -19.266633     2A1   -14.490967     3A1    -1.070394  
       4A1    -0.697219     5A1    -0.449743     1B2    -0.433221  
       1B1    -0.394664  

    Beta Virtual:                                                         

       2B2    -0.167092     2B1    -0.127012     6A1     0.084057  
       7A1     0.401676     3B2     0.440284     3B1     0.461025  
       8A1     0.491672     9A1     0.571582     4B2     0.597654  
       4B1     0.617343    10A1     0.979122     1A2     0.979125  
       5B2     1.013852     5B1     1.036936    11A1     1.144974  
       2A2     1.480839    12A1     1.481043    13A1     1.523262  
       6B2     1.846138     6B1     1.870405    14A1     2.041454  
       7B2     2.787274     7B1     2.821670    15A1     3.026669  
       8B2     3.440463     8B1     3.473714    16A1     3.742311  
       3A2     3.789580    17A1     3.793216     9B2     3.842141  
       9B1     3.842246    10B2     3.963721    10B1     3.994639  
      18A1     4.279260    19A1     4.390175     4A2     4.390415  
      11B2     4.565374    11B1     4.598540    20A1     4.747173  
      12B2     5.064929    12B1     5.064944    21A1     5.203142  
       5A2     5.204133    22A1     5.326165    13B2     5.721612  
      13B1     5.751599    23A1     6.148292     6A2     6.149067  
      24A1     6.278424    14B2     6.548463    14B1     6.581027  
      25A1     7.376819    26A1     8.885300  

    Final Occupation by Irrep:
             A1    A2    B1    B2 
    DOCC [     5,    0,    1,    1 ]
    SOCC [     0,    0,    1,    0 ]
    NA   [     5,    0,    2,    1 ]
    NB   [     5,    0,    1,    1 ]

  @DF-UKS Final Energy:  -129.86240367581919

   => Energetics <=

    Nuclear Repulsion Energy =             20.9441824846420239
    One-Electron Energy =                -218.7111090293079485
    Two-Electron Energy =                  80.1729208107100675
    DFT Exchange-Correlation Energy =     -12.2683979418633289
    Empirical Dispersion Energy =           0.0000000000000000
    VV10 Nonlocal Energy =                  0.0000000000000000
    Total Energy =                       -129.8624036758191949

  UHF NO Occupations:
  HONO-2 :    1 B1 1.9989516
  HONO-1 :    1 B2 1.9765444
  HONO-0 :    2 B1 1.0000000
  LUNO+0 :    2 B2 0.0234556
  LUNO+1 :    3 B1 0.0010484
  LUNO+2 :    6 A1 0.0007330
  LUNO+3 :    7 A1 0.0001895


Computation Completed


Properties will be evaluated at   0.000000,   0.000000,   0.000000 [a0]

Properties computed using the SCF density matrix


 Multipole Moments:

 ------------------------------------------------------------------------------------
     Multipole            Electronic (a.u.)      Nuclear  (a.u.)        Total (a.u.)
 ------------------------------------------------------------------------------------

 L = 1.  Multiply by 2.5417464519 to convert [e a0] to [Debye]
 Dipole X            :          0.0000000            0.0000000            0.0000000
 Dipole Y            :          0.0000000            0.0000000            0.0000000
 Dipole Z            :          0.2140393           -0.0053648            0.2086745
 Magnitude           :                                                    0.2086745

 ------------------------------------------------------------------------------------

*** tstop() called on cics-quant-001 at Tue Dec 23 13:44:41 2025
Module time:
	user time   =       1.94 seconds =       0.03 minutes
	system time =       0.08 seconds =       0.00 minutes
	total time  =          1 seconds =       0.02 minutes
Total time:
	user time   =       1.94 seconds =       0.03 minutes
	system time =       0.08 seconds =       0.00 minutes
	total time  =          1 seconds =       0.02 minutes

*** tstart() called on cics-quant-001
*** at Tue Dec 23 13:44:41 2025

   => Libint2 <=

    Primary   basis highest AM E, G, H:  6, 6, 3
    Auxiliary basis highest AM E, G, H:  7, 7, 4
    Onebody   basis highest AM E, G, H:  -, -, -
    Solid Harmonics ordering:            Gaussian
   => Loading Basis Set <=

    Name: CC-PVTZ
    Role: ORBITAL
    Keyword: BASIS
    atoms 1 entry O          line   262 file /home/jrodriguesro/psi4conda/share/psi4/basis/cc-pvtz.gbs 
    atoms 2 entry N          line   224 file /home/jrodriguesro/psi4conda/share/psi4/basis/cc-pvtz.gbs 


         ---------------------------------------------------------
                                   SCF
               by Justin Turney, Rob Parrish, Andy Simmonett
                          and Daniel G. A. Smith
                              UKS Reference
                        5 Threads,   7629 MiB Core
         ---------------------------------------------------------

  ==> Geometry <==

    Molecular point group: c2v
    Full point group: C_inf_v

    Geometry (in Angstrom), charge = 0, multiplicity = 2:

       Center              X                  Y                   Z               Mass       
    ------------   -----------------  -----------------  -----------------  -----------------
         O            0.000000000000     0.000000000000    -0.660475929143    15.994914619570
         N            0.000000000000     0.000000000000     0.754424070857    14.003074004430

  Running in c2v symmetry.

  Rotational constants: A = ************  B =      1.12780  C =      1.12780 [cm^-1]
  Rotational constants: A = ************  B =  33810.57309  C =  33810.57309 [MHz]
  Nuclear repulsion =   20.944182484642024

  Charge       = 0
  Multiplicity = 2
  Electrons    = 15
  Nalpha       = 8
  Nbeta        = 7

  ==> Algorithm <==

  SCF Algorithm Type is DF.
  DIIS enabled.
  MOM disabled.
  Fractional occupation disabled.
  Guess Type is SAD.
  Energy threshold   = 1.00e-08
  Density threshold  = 1.00e-08
  Integral threshold = 1.00e-12

  ==> Primary Basis <==

  Basis Set: CC-PVTZ
    Blend: CC-PVTZ
    Number of shells: 20
    Number of basis functions: 60
    Number of Cartesian functions: 70
    Spherical Harmonics?: true
    Max angular momentum: 3

  ==> DFT Potential <==

   => LibXC <=

    Version 7.0.0
    S. Lehtola, C. Steigemann, M. J.T. Oliveira, and M. A.L. Marques.,  SoftwareX 7, 1–5 (2018) (10.1016/j.softx.2017.11.002)

   => Composite Functional: B3LYP <= 

    B3LYP Hyb-GGA Exchange-Correlation Functional

    P. J. Stephens, F. J. Devlin, C. F. Chabalowski, and M. J. Frisch.,  J. Phys. Chem. 98, 11623 (1994) (10.1021/j100096a001)

    Deriv               =              1
    GGA                 =           TRUE
    Meta                =          FALSE

    Exchange Hybrid     =           TRUE
    MP2 Hybrid          =          FALSE

   => Exchange Functionals <=

    0.0800   Slater exchange
    0.7200         Becke 88

   => Exact (HF) Exchange <=

    0.2000               HF 

   => Correlation Functionals <=

    0.1900   Vosko, Wilk & Nusair (VWN5_RPA)
    0.8100   Lee, Yang & Parr

   => LibXC Density Thresholds  <==

    XC_HYB_GGA_XC_B3LYP:  1.00E-15 

   => Molecular Quadrature <=

    Radial Scheme          =       TREUTLER
    Pruning Scheme         =           NONE
    Nuclear Scheme         =       TREUTLER

    Blocking Scheme        =         OCTREE
    BS radius alpha        =              1
    Pruning alpha          =              1
    Radial Points          =             75
    Spherical Points       =            302
    Total Points           =          42744
    Total Blocks           =            383
    Max Points             =            253
    Max Functions          =             60
    Weights Tolerance      =       1.00E-15

   => Loading Basis Set <=

    Name: (CC-PVTZ AUX)
    Role: JKFIT
    Keyword: DF_BASIS_SCF
    atoms 1 entry O          line   229 file /home/jrodriguesro/psi4conda/share/psi4/basis/cc-pvtz-jkfit.gbs 
    atoms 2 entry N          line   177 file /home/jrodriguesro/psi4conda/share/psi4/basis/cc-pvtz-jkfit.gbs 

  ==> Integral Setup <==

  DFHelper Memory: AOs need 0.005 GiB; user supplied 5.517 GiB. 
  SCF_SUBTYPE=INCORE selected. In-core MEM_DF algorithm will be used.
  Using in-core AOs.

  ==> MemDFJK: Density-Fitted J/K Matrices <==

    J tasked:                   Yes
    K tasked:                   Yes
    wK tasked:                   No
    OpenMP threads:               5
    Memory [MiB]:              5649
    Algorithm:                 Core
    Schwarz Cutoff:           1E-12
    Mask sparsity (%):       0.0000
    Fitting Condition:        1E-10

   => Auxiliary Basis Set <=

  Basis Set: (CC-PVTZ AUX)
    Blend: CC-PVTZ-JKFIT
    Number of shells: 50
    Number of basis functions: 158
    Number of Cartesian functions: 192
    Spherical Harmonics?: true
    Max angular momentum: 4

  Cached 100.0% of DFT collocation blocks in 0.070 [GiB].

  Minimum eigenvalue in the overlap matrix is 7.2077491733E-03.
  Reciprocal condition number of the overlap matrix is 2.0004979768E-03.
    Using symmetric orthogonalization.

  ==> Pre-Iterations <==

  SCF Guess: Superposition of Atomic Densities via on-the-fly atomic UHF (no occupation information).

   -------------------------
    Irrep   Nso     Nmo    
   -------------------------
     A1        26      26 
     A2         6       6 
     B1        14      14 
     B2        14      14 
   -------------------------
    Total      60      60
   -------------------------

  ==> Iterations <==

                           Total Energy        Delta E     RMS |[F,P]|

   @DF-UKS iter SAD:  -129.52828481742236   -1.29528e+02   0.00000e+00 
   @DF-UKS iter   1:  -129.58597137174058   -5.76866e-02   2.23747e-02 DIIS/ADIIS
   @DF-UKS iter   2:  -129.65258240539387   -6.66110e-02   2.41534e-02 DIIS/ADIIS/DAMP=1%
   @DF-UKS iter   3:  -129.55906541729578    9.35170e-02   2.84556e-02 DIIS/ADIIS/DAMP=1%
   @DF-UKS iter   4:  -129.84227538036163   -2.83210e-01   5.95873e-03 DIIS/ADIIS/DAMP=1%
   @DF-UKS iter   5:  -129.86181056190512   -1.95352e-02   1.66752e-03 DIIS/ADIIS/DAMP=1%
   @DF-UKS iter   6:  -129.86172678635447    8.37756e-05   1.49660e-04 DIIS/ADIIS/DAMP=1%
   @DF-UKS iter   7:  -129.86212119869603   -3.94412e-04   8.64066e-05 DIIS/DAMP=1%
   @DF-UKS iter   8:  -129.86214598462266   -2.47859e-05   7.33459e-05 DIIS/DAMP=1%
   @DF-UKS iter   9:  -129.86223337194033   -8.73873e-05   6.59456e-05 DIIS/DAMP=1%
   @DF-UKS iter  10:  -129.86234190162230   -1.08530e-04   6.78966e-05 DIIS/DAMP=1%
   @DF-UKS iter  11:  -129.86236270920926   -2.08076e-05   6.39242e-05 DIIS/DAMP=1%
   @DF-UKS iter  12:  -129.86240603119921   -4.33220e-05   1.92871e-05 DIIS/DAMP=1%
   @DF-UKS iter  13:  -129.86240281660761    3.21459e-06   1.85143e-06 DIIS/DAMP=1%
   @DF-UKS iter  14:  -129.86240343711842   -6.20511e-07   3.79510e-07 DIIS/DAMP=1%
   @DF-UKS iter  15:  -129.86240384477378   -4.07655e-07   6.92485e-07 DIIS/DAMP=1%
   @DF-UKS iter  16:  -129.86240367081294    1.73961e-07   9.76753e-08 DIIS/DAMP=1%
   @DF-UKS iter  17:  -129.86240366777389    3.03905e-09   1.22948e-08 DIIS/DAMP=1%
   @DF-UKS iter  18:  -129.86240367581922   -8.04533e-09   2.32496e-09 DIIS/DAMP=1%
  Energy and wave function converged.


  ==> Post-Iterations <==

   Electrons on quadrature grid:
      Nalpha   =    7.9999997334 ; deviation = -2.666e-07
      Nbeta    =    6.9999996463 ; deviation = -3.537e-07
      Ntotal   =   14.9999993796 ; deviation = -6.204e-07 

   @Spin Contamination Metric:   5.044235061E-02
   @S^2 Expected:                7.500000000E-01
   @S^2 Observed:                8.004423506E-01
   @S   Expected:                5.000000000E-01
   @S   Observed:                5.000000000E-01

    Orbital Energies [Eh]
    ---------------------

    Alpha Occupied:                                                       

       1A1   -19.269412     2A1   -14.512831     3A1    -1.085480  
       4A1    -0.745403     1B1    -0.466391     5A1    -0.465845  
       1B2    -0.429926     2B1    -0.297991  

    Alpha Virtual:                                                        

       2B2    -0.189593     6A1     0.065137     7A1     0.394932  
       3B1     0.416556     3B2     0.423117     8A1     0.473974  
       9A1     0.565886     4B1     0.597179     4B2     0.606069  
       1A2     0.938807    10A1     0.940233     5B2     1.006845  
       5B1     1.008848    11A1     1.140760     2A2     1.472276  
      12A1     1.473553    13A1     1.505817     6B1     1.847065  
       6B2     1.848260    14A1     2.035290     7B1     2.740006  
       7B2     2.754187    15A1     3.012970     8B1     3.438338  
       8B2     3.449913    16A1     3.722549     3A2     3.750807  
      17A1     3.752343     9B1     3.778010     9B2     3.778367  
      10B1     3.956745    10B2     3.957904    18A1     4.268793  
       4A2     4.300818    19A1     4.304944    11B1     4.535957  
      11B2     4.542884    20A1     4.710649    12B1     5.059400  
      12B2     5.059622     5A2     5.198105    21A1     5.199366  
      22A1     5.311880    13B1     5.729259    13B2     5.730498  
       6A2     6.137337    23A1     6.140578    24A1     6.273513  
      14B1     6.556241    14B2     6.562637    25A1     7.367674  
      26A1     8.874053  

    Beta Occupied:                                                        

       1A1   -19.266633     2A1   -14.490967     3A1    -1.070394  
       4A1    -0.697219     5A1    -0.449743     1B2    -0.433221  
       1B1    -0.394664  

    Beta Virtual:                                                         

       2B2    -0.167092     2B1    -0.127012     6A1     0.084057  
       7A1     0.401676     3B2     0.440284     3B1     0.461025  
       8A1     0.491672     9A1     0.571582     4B2     0.597654  
       4B1     0.617343    10A1     0.979122     1A2     0.979125  
       5B2     1.013852     5B1     1.036936    11A1     1.144974  
       2A2     1.480839    12A1     1.481043    13A1     1.523262  
       6B2     1.846138     6B1     1.870405    14A1     2.041454  
       7B2     2.787274     7B1     2.821670    15A1     3.026669  
       8B2     3.440463     8B1     3.473714    16A1     3.742311  
       3A2     3.789580    17A1     3.793216     9B2     3.842141  
       9B1     3.842246    10B2     3.963721    10B1     3.994639  
      18A1     4.279260    19A1     4.390175     4A2     4.390415  
      11B2     4.565374    11B1     4.598540    20A1     4.747173  
      12B2     5.064929    12B1     5.064944    21A1     5.203142  
       5A2     5.204133    22A1     5.326165    13B2     5.721612  
      13B1     5.751599    23A1     6.148292     6A2     6.149067  
      24A1     6.278424    14B2     6.548463    14B1     6.581027  
      25A1     7.376819    26A1     8.885300  

    Final Occupation by Irrep:
             A1    A2    B1    B2 
    DOCC [     5,    0,    1,    1 ]
    SOCC [     0,    0,    1,    0 ]
    NA   [     5,    0,    2,    1 ]
    NB   [     5,    0,    1,    1 ]

  @DF-UKS Final Energy:  -129.86240367581922

   => Energetics <=

    Nuclear Repulsion Energy =             20.9441824846420239
    One-Electron Energy =                -218.7111090293080053
    Two-Electron Energy =                  80.1729208107100959
    DFT Exchange-Correlation Energy =     -12.2683979418633307
    Empirical Dispersion Energy =           0.0000000000000000
    VV10 Nonlocal Energy =                  0.0000000000000000
    Total Energy =                       -129.8624036758192233

  UHF NO Occupations:
  HONO-2 :    1 B1 1.9989516
  HONO-1 :    1 B2 1.9765444
  HONO-0 :    2 B1 1.0000000
  LUNO+0 :    2 B2 0.0234556
  LUNO+1 :    3 B1 0.0010484
  LUNO+2 :    6 A1 0.0007330
  LUNO+3 :    7 A1 0.0001895


Computation Completed


Properties will be evaluated at   0.000000,   0.000000,   0.000000 [a0]

Properties computed using the B3LYP density matrix


 Multipole Moments:

 ------------------------------------------------------------------------------------
     Multipole            Electronic (a.u.)      Nuclear  (a.u.)        Total (a.u.)
 ------------------------------------------------------------------------------------

 L = 1.  Multiply by 2.5417464519 to convert [e a0] to [Debye]
 Dipole X            :          0.0000000            0.0000000            0.0000000
 Dipole Y            :          0.0000000            0.0000000            0.0000000
 Dipole Z            :          0.2140393           -0.0053648            0.2086745
 Magnitude           :                                                    0.2086745

 L = 2.  Multiply by 1.3450342976 to convert [e a0^2] to [Debye ang]
 Quadrupole XX       :         -8.2030879            0.0000000           -8.2030879
 Quadrupole XY       :          0.0000000            0.0000000            0.0000000
 Quadrupole XZ       :          0.0000000            0.0000000            0.0000000
 Quadrupole YY       :         -7.4536154            0.0000000           -7.4536154
 Quadrupole YZ       :          0.0000000            0.0000000            0.0000000
 Quadrupole ZZ       :        -34.7690449           26.6898435           -8.0792015
 Traceless XX        :          8.6054948           -8.8966145           -0.2911197
 Traceless YY        :          9.3549674           -8.8966145            0.4583529
 Traceless ZZ        :        -17.9604622           17.7932290           -0.1672332

 ------------------------------------------------------------------------------------
  ==> Computing MBIS Charges <==

  Electron Count from Grid (Expected Number): 15.00000 (15.00000)
  Difference: -0.00000

  MBIS Charges: (a.u.)
   Center  Symbol  Z      Pop.       Charge
      1       O    8    8.123959   -0.123959
      2       N    7    6.876041    0.123959

  MBIS Dipoles: [e a0]
   Center  Symbol  Z        X           Y           Z
      1       O    8   -0.000000   -0.000000   -0.029481
      2       N    7    0.000000   -0.000000   -0.093284

  MBIS Quadrupoles: [e a0^2]
   Center  Symbol  Z      XX        XY        XZ        YY        YZ        ZZ
      1       O    8   -4.0524    0.0000   -0.0000   -3.7600   -0.0000   -3.8786
      2       N    7   -4.1506    0.0000    0.0000   -3.6936    0.0000   -4.0670

  MBIS Octupoles: [e a0^3]
   Center  Symbol  Z      XXX       XXY       XXZ       XYY       XYZ       XZZ       YYY       YYZ       YZZ       ZZZ
      1       O    8   -0.0000   -0.0000    0.0055   -0.0000    0.0000    0.0000   -0.0000   -0.0664    0.0000   -0.2907
      2       N    7   -0.0000   -0.0000   -0.0605   -0.0000   -0.0000    0.0000   -0.0000    0.0848    0.0000    0.2248

  MBIS Radial Moments:
   Center  Symbol  Z      [a0^2]      [a0^3]      [a0^4]      
      1       O    8   11.691085   22.125152   50.128734
      2       N    7   11.911273   25.036003   62.731221

  MBIS Valence Widths: [a0]
   Center  Symbol  Z     Width
      1       O    8    0.389186
      2       N    7    0.439041


  MBIS Valence Charges: (a.u.)
   Center  Symbol  Z     Charge
      1       O    8   -6.494549
      2       N    7   -5.228423

*** tstop() called on cics-quant-001 at Tue Dec 23 13:44:42 2025
Module time:
	user time   =       2.11 seconds =       0.04 minutes
	system time =       0.07 seconds =       0.00 minutes
	total time  =          1 seconds =       0.02 minutes
Total time:
	user time   =       4.06 seconds =       0.07 minutes
	system time =       0.15 seconds =       0.00 minutes
	total time  =          2 seconds =       0.03 minutes

    Psi4 stopped on: Tuesday, 23 December 2025 01:44PM
    Psi4 wall time for execution: 0:00:01.38

*** Psi4 exiting successfully. Buy a developer a beer!
