
    -----------------------------------------------------------------------
          Psi4: An Open-Source Ab Initio Electronic Structure Package
                               Psi4 1.10 release

                         Git: Rev {} zzzzzzz 


    D. G. A. Smith, L. A. Burns, A. C. Simmonett, R. M. Parrish,
    M. C. Schieber, R. Galvelis, P. Kraus, H. Kruse, R. Di Remigio,
    A. Alenaizan, A. M. James, S. Lehtola, J. P. Misiewicz, M. Scheurer,
    R. A. Shaw, J. B. Schriber, Y. Xie, Z. L. Glick, D. A. Sirianni,
    J. S. O'Brien, J. M. Waldrop, A. Kumar, E. G. Hohenstein,
    B. P. Pritchard, B. R. Brooks, H. F. Schaefer III, A. Yu. Sokolov,
    K. Patkowski, A. E. DePrince III, U. Bozkaya, R. A. King,
    F. A. Evangelista, J. M. Turney, T. D. Crawford, C. D. Sherrill,
    J. Chem. Phys. 152(18) 184108 (2020). https://doi.org/10.1063/5.0006002

                            Additional Code Authors
    E. T. Seidl, C. L. Janssen, E. F. Valeev, M. L. Leininger,
    J. F. Gonthier, R. M. Richard, H. R. McAlexander, M. Saitow, X. Wang,
    P. Verma, M. H. Lechner, A. Jiang, S. Behnle, A. G. Heide,
    M. F. Herbst, D. L. Poole, T. Győri, E. C. Mitchell, J. P. Pederson,
    and A. M. Wallace

             Previous Authors, Complete List of Code Contributors,
                       and Citations for Specific Modules
    https://github.com/psi4/psi4/blob/master/codemeta.json
    https://github.com/psi4/psi4/graphs/contributors
    https://psicode.org/psi4manual/master/introduction.html#citing-psifour

    -----------------------------------------------------------------------


    Psi4 started on: Tuesday, 23 December 2025 01:41PM

    Process ID: 519806
    Host:       cics-quant-001
    PSIDATADIR: /home/jrodriguesro/psi4conda/share/psi4
    Memory:     500.0 MiB
    Threads:    5
    Addons:     adcc, a̶m̶b̶i̶t̶, b̶s̶e̶, c̶c̶t̶3̶, c̶f̶o̶u̶r̶, c̶h̶e̶m̶p̶s̶2̶, c̶p̶p̶e̶, ddx, dftd3, dftd4,
                dkh, ecpint, einsums, f̶o̶r̶t̶e̶, g̶a̶u̶x̶c̶, gcp, g̶d̶m̶a̶, geometric,
                g̶p̶u̶_̶d̶f̶c̶c̶, i̶n̶t̶e̶g̶r̶a̶t̶o̶r̶x̶x̶, i̶p̶i̶, libefp, m̶d̶i̶, m̶p̶2̶d̶,
                m̶r̶c̶c̶, ooo, o̶p̶e̶n̶f̶e̶r̶m̶i̶o̶n̶p̶s̶i̶4̶, pcmsolver, p̶s̶i̶4̶f̶o̶c̶k̶c̶i̶,
                p̶s̶i̶x̶a̶s̶, r̶e̶s̶p̶, s̶i̶m̶i̶n̶t̶, s̶n̶s̶m̶p̶2̶, v̶2̶r̶d̶m̶_̶c̶a̶s̶s̶c̶f̶

  ==> Input File <==

--------------------------------------------------------------------------
memory 8 Gb

molecule { 
0 2
O           0.000000           0.000000           0.000000
H           0.000000           0.000000           1.591193
}

set { 
basis              cc-pvtz
reference          uks
maxiter            500
DAMPING_PERCENTAGE 1
E_CONVERGENCE      1.0E-8
D_CONVERGENCE      1.0E-8
DIIS_MAX_VECS      400
MBIS_MAXITER       8000
guess              read
}

E, wfn = energy('b3lyp', restart_file='last_wfn', return_wfn=True)
properties('b3lyp','MBIS_CHARGES', wfn=wfn)
wfn.to_file('last_wfn')
--------------------------------------------------------------------------

  Memory set to   7.451 GiB by Python driver.

Scratch directory: /tmp/
 Found user provided orbital data. Setting orbital guess to READ 
 Copying restart file <last_wfn.npy> to </tmp/scan_HO_38.default.519806.180.npy> for internal processing
   => Libint2 <=

    Primary   basis highest AM E, G, H:  6, 6, 3
    Auxiliary basis highest AM E, G, H:  7, 7, 4
    Onebody   basis highest AM E, G, H:  -, -, -
    Solid Harmonics ordering:            Gaussian

*** tstart() called on cics-quant-001
*** at Tue Dec 23 13:41:19 2025

   => Loading Basis Set <=

    Name: CC-PVTZ
    Role: ORBITAL
    Keyword: BASIS
    atoms 1 entry O          line   262 file /home/jrodriguesro/psi4conda/share/psi4/basis/cc-pvtz.gbs 
    atoms 2 entry H          line    23 file /home/jrodriguesro/psi4conda/share/psi4/basis/cc-pvtz.gbs 


         ---------------------------------------------------------
                                   SCF
               by Justin Turney, Rob Parrish, Andy Simmonett
                          and Daniel G. A. Smith
                              UKS Reference
                        5 Threads,   7629 MiB Core
         ---------------------------------------------------------

  ==> Geometry <==

    Molecular point group: c2v
    Full point group: C_inf_v

    Geometry (in Angstrom), charge = 0, multiplicity = 2:

       Center              X                  Y                   Z               Mass       
    ------------   -----------------  -----------------  -----------------  -----------------
         O            0.000000000000     0.000000000000    -0.094316808311    15.994914619570
         H            0.000000000000     0.000000000000     1.496876191689     1.007825032230

  Running in c2v symmetry.

  Rotational constants: A = ************  B =      7.02268  C =      7.02268 [cm^-1]
  Rotational constants: A = ************  B = 210534.52161  C = 210534.52161 [MHz]
  Nuclear repulsion =    2.660530611534867

  Charge       = 0
  Multiplicity = 2
  Electrons    = 9
  Nalpha       = 5
  Nbeta        = 4

  ==> Algorithm <==

  SCF Algorithm Type is DF.
  DIIS enabled.
  MOM disabled.
  Fractional occupation disabled.
  Guess Type is READ.
  Energy threshold   = 1.00e-08
  Density threshold  = 1.00e-08
  Integral threshold = 1.00e-12

  ==> Primary Basis <==

  Basis Set: CC-PVTZ
    Blend: CC-PVTZ
    Number of shells: 16
    Number of basis functions: 44
    Number of Cartesian functions: 50
    Spherical Harmonics?: true
    Max angular momentum: 3

  ==> DFT Potential <==

   => LibXC <=

    Version 7.0.0
    S. Lehtola, C. Steigemann, M. J.T. Oliveira, and M. A.L. Marques.,  SoftwareX 7, 1–5 (2018) (10.1016/j.softx.2017.11.002)

   => Composite Functional: B3LYP <= 

    B3LYP Hyb-GGA Exchange-Correlation Functional

    P. J. Stephens, F. J. Devlin, C. F. Chabalowski, and M. J. Frisch.,  J. Phys. Chem. 98, 11623 (1994) (10.1021/j100096a001)

    Deriv               =              1
    GGA                 =           TRUE
    Meta                =          FALSE

    Exchange Hybrid     =           TRUE
    MP2 Hybrid          =          FALSE

   => Exchange Functionals <=

    0.0800   Slater exchange
    0.7200         Becke 88

   => Exact (HF) Exchange <=

    0.2000               HF 

   => Correlation Functionals <=

    0.1900   Vosko, Wilk & Nusair (VWN5_RPA)
    0.8100   Lee, Yang & Parr

   => LibXC Density Thresholds  <==

    XC_HYB_GGA_XC_B3LYP:  1.00E-15 

   => Molecular Quadrature <=

    Radial Scheme          =       TREUTLER
    Pruning Scheme         =           NONE
    Nuclear Scheme         =       TREUTLER

    Blocking Scheme        =         OCTREE
    BS radius alpha        =              1
    Pruning alpha          =              1
    Radial Points          =             75
    Spherical Points       =            302
    Total Points           =          44194
    Total Blocks           =            389
    Max Points             =            256
    Max Functions          =             44
    Weights Tolerance      =       1.00E-15

   => Loading Basis Set <=

    Name: (CC-PVTZ AUX)
    Role: JKFIT
    Keyword: DF_BASIS_SCF
    atoms 1 entry O          line   229 file /home/jrodriguesro/psi4conda/share/psi4/basis/cc-pvtz-jkfit.gbs 
    atoms 2 entry H          line    51 file /home/jrodriguesro/psi4conda/share/psi4/basis/cc-pvtz-jkfit.gbs 

   => Loading Basis Set <=

    Name: CC-PVTZ
    Role: ORBITAL
    Keyword: BASIS
    atoms 1 entry O          line   262 file /home/jrodriguesro/psi4conda/share/psi4/basis/cc-pvtz.gbs 
    atoms 2 entry H          line    23 file /home/jrodriguesro/psi4conda/share/psi4/basis/cc-pvtz.gbs 

  Reading orbitals from file /tmp/scan_HO_38.default.519806.180.npy, no projection.

  ==> Integral Setup <==

  DFHelper Memory: AOs need 0.002 GiB; user supplied 5.534 GiB. 
  SCF_SUBTYPE=INCORE selected. In-core MEM_DF algorithm will be used.
  Using in-core AOs.

  ==> MemDFJK: Density-Fitted J/K Matrices <==

    J tasked:                   Yes
    K tasked:                   Yes
    wK tasked:                   No
    OpenMP threads:               5
    Memory [MiB]:              5666
    Algorithm:                 Core
    Schwarz Cutoff:           1E-12
    Mask sparsity (%):       0.0000
    Fitting Condition:        1E-10

   => Auxiliary Basis Set <=

  Basis Set: (CC-PVTZ AUX)
    Blend: CC-PVTZ-JKFIT
    Number of shells: 35
    Number of basis functions: 109
    Number of Cartesian functions: 131
    Spherical Harmonics?: true
    Max angular momentum: 4

  Cached 100.0% of DFT collocation blocks in 0.054 [GiB].

  Minimum eigenvalue in the overlap matrix is 2.7500310922E-02.
  Reciprocal condition number of the overlap matrix is 8.6189587134E-03.
    Using symmetric orthogonalization.

  ==> Pre-Iterations <==

  SCF Guess: Orbitals guess was supplied from a previous computation.

   -------------------------------------------------------
    Irrep   Nso     Nmo     Nalpha   Nbeta   Ndocc  Nsocc
   -------------------------------------------------------
     A1        20      20       3       3       3       0
     A2         4       4       0       0       0       0
     B1        10      10       1       0       0       1
     B2        10      10       1       1       1       0
   -------------------------------------------------------
    Total      44      44       5       4       4       1
   -------------------------------------------------------

  ==> Iterations <==

                           Total Energy        Delta E     RMS |[F,P]|

   @DF-UKS iter   0:   -75.65200433915787   -7.56520e+01   7.74201e-04 
   @DF-UKS iter   1:   -75.65843205041270   -6.42771e-03   3.06689e-04 DIIS/ADIIS
   @DF-UKS iter   2:   -75.65845859505656   -2.65446e-05   2.24909e-04 DIIS/ADIIS/DAMP=1%
   @DF-UKS iter   3:   -75.65868210436217   -2.23509e-04   1.83580e-04 DIIS/ADIIS/DAMP=1%
   @DF-UKS iter   4:   -75.65838479002049    2.97314e-04   5.61615e-05 DIIS/DAMP=1%
   @DF-UKS iter   5:   -75.65849440758042   -1.09618e-04   2.31887e-05 DIIS/DAMP=1%
   @DF-UKS iter   6:   -75.65851479708863   -2.03895e-05   3.76825e-06 DIIS/DAMP=1%
   @DF-UKS iter   7:   -75.65850836245629    6.43463e-06   4.41964e-07 DIIS/DAMP=1%
   @DF-UKS iter   8:   -75.65850607318367    2.28927e-06   6.01900e-08 DIIS/DAMP=1%
   @DF-UKS iter   9:   -75.65850631884288   -2.45659e-07   1.34232e-08 DIIS/DAMP=1%
   @DF-UKS iter  10:   -75.65850629703868    2.18042e-08   3.30893e-09 DIIS/DAMP=1%
   @DF-UKS iter  11:   -75.65850630307405   -6.03536e-09   4.38648e-10 DIIS/DAMP=1%
  Energy and wave function converged.


  ==> Post-Iterations <==

   Electrons on quadrature grid:
      Nalpha   =    4.9999999275 ; deviation = -7.246e-08
      Nbeta    =    3.9999999448 ; deviation = -5.521e-08
      Ntotal   =    8.9999998723 ; deviation = -1.277e-07 

   @Spin Contamination Metric:   1.222505322E-01
   @S^2 Expected:                7.500000000E-01
   @S^2 Observed:                8.722505322E-01
   @S   Expected:                5.000000000E-01
   @S   Observed:                5.000000000E-01

    Orbital Energies [Eh]
    ---------------------

    Alpha Occupied:                                                       

       1A1   -19.226038     2A1    -0.960494     1B1    -0.412211  
       3A1    -0.408687     1B2    -0.337933  

    Alpha Virtual:                                                        

       4A1    -0.115295     5A1     0.253312     2B1     0.493302  
       2B2     0.518365     6A1     0.583450     3B1     0.673593  
       3B2     0.689923     7A1     0.726367     8A1     1.031161  
       1A2     1.439039     9A1     1.439645     4B1     1.472502  
       4B2     1.511073    10A1     1.812213    11A1     2.379863  
      12A1     3.110295     2A2     3.172869    13A1     3.172882  
       5B1     3.230481     5B2     3.238712     6B1     3.514657  
       6B2     3.575557     7B1     3.617297     7B2     3.621498  
      14A1     3.725302    15A1     4.310055    16A1     5.072133  
       3A2     5.072985     8B1     5.073240     8B2     5.074951  
       9B1     5.146268     9B2     5.195181    17A1     5.430277  
      18A1     6.108545     4A2     6.109465    10B1     6.184537  
      10B2     6.244851    19A1     6.669645    20A1     7.426486  

    Beta Occupied:                                                        

       1A1   -19.191963     2A1    -0.858456     3A1    -0.378312  
       1B2    -0.304683  

    Beta Virtual:                                                         

       1B1    -0.153766     4A1    -0.116572     5A1     0.227502  
       2B2     0.509361     2B1     0.522681     6A1     0.611562  
       3B2     0.679794     3B1     0.692731     7A1     0.730470  
       8A1     1.054628     1A2     1.493285     9A1     1.499561  
       4B2     1.528405     4B1     1.537818    10A1     1.819451  
      11A1     2.321032    12A1     3.117989     2A2     3.119386  
      13A1     3.119463     5B1     3.196981     5B2     3.197161  
       6B1     3.544462     6B2     3.545257     7B2     3.605768  
       7B1     3.639375    14A1     3.696251    15A1     4.310894  
       3A2     5.134692    16A1     5.140683     8B2     5.147448  
       8B1     5.150460     9B2     5.222454     9B1     5.228869  
      17A1     5.481689     4A2     6.206214    18A1     6.221443  
      10B2     6.287508    10B1     6.316058    19A1     6.733766  
      20A1     7.492214  

    Final Occupation by Irrep:
             A1    A2    B1    B2 
    DOCC [     3,    0,    0,    1 ]
    SOCC [     0,    0,    1,    0 ]
    NA   [     3,    0,    1,    1 ]
    NB   [     3,    0,    0,    1 ]

  @DF-UKS Final Energy:   -75.65850630307405

   => Energetics <=

    Nuclear Repulsion Energy =              2.6605306115348673
    One-Electron Energy =                -109.4745887771281048
    Two-Electron Energy =                  38.2244399489840134
    DFT Exchange-Correlation Energy =      -7.0688880864648294
    Empirical Dispersion Energy =           0.0000000000000000
    VV10 Nonlocal Energy =                  0.0000000000000000
    Total Energy =                        -75.6585063030740486

  UHF NO Occupations:
  HONO-2 :    2 A1 1.9994313
  HONO-1 :    3 A1 1.9377697
  HONO-0 :    1 B1 1.0000000
  LUNO+0 :    4 A1 0.0622303
  LUNO+1 :    5 A1 0.0005687
  LUNO+2 :    2 B2 0.0002620
  LUNO+3 :    6 A1 0.0000007


Computation Completed


Properties will be evaluated at   0.000000,   0.000000,   0.000000 [a0]

Properties computed using the SCF density matrix


 Multipole Moments:

 ------------------------------------------------------------------------------------
     Multipole            Electronic (a.u.)      Nuclear  (a.u.)        Total (a.u.)
 ------------------------------------------------------------------------------------

 L = 1.  Multiply by 2.5417464519 to convert [e a0] to [Debye]
 Dipole X            :          0.0000000            0.0000000            0.0000000
 Dipole Y            :          0.0000000            0.0000000            0.0000000
 Dipole Z            :         -0.7275494            1.4028226            0.6752731
 Magnitude           :                                                    0.6752731

 ------------------------------------------------------------------------------------

*** tstop() called on cics-quant-001 at Tue Dec 23 13:41:20 2025
Module time:
	user time   =       0.89 seconds =       0.01 minutes
	system time =       0.05 seconds =       0.00 minutes
	total time  =          1 seconds =       0.02 minutes
Total time:
	user time   =       0.89 seconds =       0.01 minutes
	system time =       0.05 seconds =       0.00 minutes
	total time  =          1 seconds =       0.02 minutes

*** tstart() called on cics-quant-001
*** at Tue Dec 23 13:41:20 2025

   => Libint2 <=

    Primary   basis highest AM E, G, H:  6, 6, 3
    Auxiliary basis highest AM E, G, H:  7, 7, 4
    Onebody   basis highest AM E, G, H:  -, -, -
    Solid Harmonics ordering:            Gaussian
   => Loading Basis Set <=

    Name: CC-PVTZ
    Role: ORBITAL
    Keyword: BASIS
    atoms 1 entry O          line   262 file /home/jrodriguesro/psi4conda/share/psi4/basis/cc-pvtz.gbs 
    atoms 2 entry H          line    23 file /home/jrodriguesro/psi4conda/share/psi4/basis/cc-pvtz.gbs 


         ---------------------------------------------------------
                                   SCF
               by Justin Turney, Rob Parrish, Andy Simmonett
                          and Daniel G. A. Smith
                              UKS Reference
                        5 Threads,   7629 MiB Core
         ---------------------------------------------------------

  ==> Geometry <==

    Molecular point group: c2v
    Full point group: C_inf_v

    Geometry (in Angstrom), charge = 0, multiplicity = 2:

       Center              X                  Y                   Z               Mass       
    ------------   -----------------  -----------------  -----------------  -----------------
         O            0.000000000000     0.000000000000    -0.094316808311    15.994914619570
         H            0.000000000000     0.000000000000     1.496876191689     1.007825032230

  Running in c2v symmetry.

  Rotational constants: A = ************  B =      7.02268  C =      7.02268 [cm^-1]
  Rotational constants: A = ************  B = 210534.52161  C = 210534.52161 [MHz]
  Nuclear repulsion =    2.660530611534867

  Charge       = 0
  Multiplicity = 2
  Electrons    = 9
  Nalpha       = 5
  Nbeta        = 4

  ==> Algorithm <==

  SCF Algorithm Type is DF.
  DIIS enabled.
  MOM disabled.
  Fractional occupation disabled.
  Guess Type is READ.
  Energy threshold   = 1.00e-08
  Density threshold  = 1.00e-08
  Integral threshold = 1.00e-12

  ==> Primary Basis <==

  Basis Set: CC-PVTZ
    Blend: CC-PVTZ
    Number of shells: 16
    Number of basis functions: 44
    Number of Cartesian functions: 50
    Spherical Harmonics?: true
    Max angular momentum: 3

  ==> DFT Potential <==

   => LibXC <=

    Version 7.0.0
    S. Lehtola, C. Steigemann, M. J.T. Oliveira, and M. A.L. Marques.,  SoftwareX 7, 1–5 (2018) (10.1016/j.softx.2017.11.002)

   => Composite Functional: B3LYP <= 

    B3LYP Hyb-GGA Exchange-Correlation Functional

    P. J. Stephens, F. J. Devlin, C. F. Chabalowski, and M. J. Frisch.,  J. Phys. Chem. 98, 11623 (1994) (10.1021/j100096a001)

    Deriv               =              1
    GGA                 =           TRUE
    Meta                =          FALSE

    Exchange Hybrid     =           TRUE
    MP2 Hybrid          =          FALSE

   => Exchange Functionals <=

    0.0800   Slater exchange
    0.7200         Becke 88

   => Exact (HF) Exchange <=

    0.2000               HF 

   => Correlation Functionals <=

    0.1900   Vosko, Wilk & Nusair (VWN5_RPA)
    0.8100   Lee, Yang & Parr

   => LibXC Density Thresholds  <==

    XC_HYB_GGA_XC_B3LYP:  1.00E-15 

   => Molecular Quadrature <=

    Radial Scheme          =       TREUTLER
    Pruning Scheme         =           NONE
    Nuclear Scheme         =       TREUTLER

    Blocking Scheme        =         OCTREE
    BS radius alpha        =              1
    Pruning alpha          =              1
    Radial Points          =             75
    Spherical Points       =            302
    Total Points           =          44194
    Total Blocks           =            389
    Max Points             =            256
    Max Functions          =             44
    Weights Tolerance      =       1.00E-15

   => Loading Basis Set <=

    Name: (CC-PVTZ AUX)
    Role: JKFIT
    Keyword: DF_BASIS_SCF
    atoms 1 entry O          line   229 file /home/jrodriguesro/psi4conda/share/psi4/basis/cc-pvtz-jkfit.gbs 
    atoms 2 entry H          line    51 file /home/jrodriguesro/psi4conda/share/psi4/basis/cc-pvtz-jkfit.gbs 

   => Loading Basis Set <=

    Name: CC-PVTZ
    Role: ORBITAL
    Keyword: BASIS
    atoms 1 entry O          line   262 file /home/jrodriguesro/psi4conda/share/psi4/basis/cc-pvtz.gbs 
    atoms 2 entry H          line    23 file /home/jrodriguesro/psi4conda/share/psi4/basis/cc-pvtz.gbs 

  Reading orbitals from file /tmp/scan_HO_38.default.519806.180.npy, no projection.

  ==> Integral Setup <==

  DFHelper Memory: AOs need 0.002 GiB; user supplied 5.534 GiB. 
  SCF_SUBTYPE=INCORE selected. In-core MEM_DF algorithm will be used.
  Using in-core AOs.

  ==> MemDFJK: Density-Fitted J/K Matrices <==

    J tasked:                   Yes
    K tasked:                   Yes
    wK tasked:                   No
    OpenMP threads:               5
    Memory [MiB]:              5666
    Algorithm:                 Core
    Schwarz Cutoff:           1E-12
    Mask sparsity (%):       0.0000
    Fitting Condition:        1E-10

   => Auxiliary Basis Set <=

  Basis Set: (CC-PVTZ AUX)
    Blend: CC-PVTZ-JKFIT
    Number of shells: 35
    Number of basis functions: 109
    Number of Cartesian functions: 131
    Spherical Harmonics?: true
    Max angular momentum: 4

  Cached 100.0% of DFT collocation blocks in 0.054 [GiB].

  Minimum eigenvalue in the overlap matrix is 2.7500310922E-02.
  Reciprocal condition number of the overlap matrix is 8.6189587134E-03.
    Using symmetric orthogonalization.

  ==> Pre-Iterations <==

  SCF Guess: Orbitals guess was supplied from a previous computation.

   -------------------------------------------------------
    Irrep   Nso     Nmo     Nalpha   Nbeta   Ndocc  Nsocc
   -------------------------------------------------------
     A1        20      20       3       3       3       0
     A2         4       4       0       0       0       0
     B1        10      10       1       0       0       1
     B2        10      10       1       1       1       0
   -------------------------------------------------------
    Total      44      44       5       4       4       1
   -------------------------------------------------------

  ==> Iterations <==

                           Total Energy        Delta E     RMS |[F,P]|

   @DF-UKS iter   0:   -75.65850630090728   -7.56585e+01   3.27151e-11 
   @DF-UKS iter   1:   -75.65850630090725    2.84217e-14   5.53784e-11 DIIS
  Energy and wave function converged.


  ==> Post-Iterations <==

   Electrons on quadrature grid:
      Nalpha   =    4.9999999275 ; deviation = -7.246e-08
      Nbeta    =    3.9999999448 ; deviation = -5.521e-08
      Ntotal   =    8.9999998723 ; deviation = -1.277e-07 

   @Spin Contamination Metric:   1.222505343E-01
   @S^2 Expected:                7.500000000E-01
   @S^2 Observed:                8.722505343E-01
   @S   Expected:                5.000000000E-01
   @S   Observed:                5.000000000E-01

    Orbital Energies [Eh]
    ---------------------

    Alpha Occupied:                                                       

       1A1   -19.226038     2A1    -0.960494     1B1    -0.412211  
       3A1    -0.408687     1B2    -0.337933  

    Alpha Virtual:                                                        

       4A1    -0.115295     5A1     0.253312     2B1     0.493302  
       2B2     0.518365     6A1     0.583450     3B1     0.673593  
       3B2     0.689923     7A1     0.726367     8A1     1.031161  
       1A2     1.439039     9A1     1.439645     4B1     1.472502  
       4B2     1.511073    10A1     1.812213    11A1     2.379863  
      12A1     3.110295     2A2     3.172869    13A1     3.172882  
       5B1     3.230481     5B2     3.238712     6B1     3.514657  
       6B2     3.575557     7B1     3.617297     7B2     3.621498  
      14A1     3.725302    15A1     4.310055    16A1     5.072133  
       3A2     5.072985     8B1     5.073240     8B2     5.074951  
       9B1     5.146268     9B2     5.195181    17A1     5.430277  
      18A1     6.108545     4A2     6.109465    10B1     6.184537  
      10B2     6.244851    19A1     6.669645    20A1     7.426486  

    Beta Occupied:                                                        

       1A1   -19.191963     2A1    -0.858456     3A1    -0.378312  
       1B2    -0.304683  

    Beta Virtual:                                                         

       1B1    -0.153766     4A1    -0.116572     5A1     0.227502  
       2B2     0.509361     2B1     0.522681     6A1     0.611562  
       3B2     0.679794     3B1     0.692731     7A1     0.730470  
       8A1     1.054628     1A2     1.493285     9A1     1.499561  
       4B2     1.528405     4B1     1.537818    10A1     1.819451  
      11A1     2.321032    12A1     3.117989     2A2     3.119386  
      13A1     3.119463     5B1     3.196981     5B2     3.197161  
       6B1     3.544462     6B2     3.545257     7B2     3.605768  
       7B1     3.639375    14A1     3.696251    15A1     4.310894  
       3A2     5.134692    16A1     5.140683     8B2     5.147448  
       8B1     5.150460     9B2     5.222454     9B1     5.228869  
      17A1     5.481689     4A2     6.206214    18A1     6.221443  
      10B2     6.287508    10B1     6.316058    19A1     6.733766  
      20A1     7.492214  

    Final Occupation by Irrep:
             A1    A2    B1    B2 
    DOCC [     3,    0,    0,    1 ]
    SOCC [     0,    0,    1,    0 ]
    NA   [     3,    0,    1,    1 ]
    NB   [     3,    0,    0,    1 ]

  @DF-UKS Final Energy:   -75.65850630090725

   => Energetics <=

    Nuclear Repulsion Energy =              2.6605306115348673
    One-Electron Energy =                -109.4745888231700519
    Two-Electron Energy =                  38.2244399922080760
    DFT Exchange-Correlation Energy =      -7.0688880814801340
    Empirical Dispersion Energy =           0.0000000000000000
    VV10 Nonlocal Energy =                  0.0000000000000000
    Total Energy =                        -75.6585063009072485

  UHF NO Occupations:
  HONO-2 :    2 A1 1.9994313
  HONO-1 :    3 A1 1.9377697
  HONO-0 :    1 B1 1.0000000
  LUNO+0 :    4 A1 0.0622303
  LUNO+1 :    5 A1 0.0005687
  LUNO+2 :    2 B2 0.0002620
  LUNO+3 :    6 A1 0.0000007


Computation Completed


Properties will be evaluated at   0.000000,   0.000000,   0.000000 [a0]

Properties computed using the B3LYP density matrix


 Multipole Moments:

 ------------------------------------------------------------------------------------
     Multipole            Electronic (a.u.)      Nuclear  (a.u.)        Total (a.u.)
 ------------------------------------------------------------------------------------

 L = 1.  Multiply by 2.5417464519 to convert [e a0] to [Debye]
 Dipole X            :          0.0000000            0.0000000            0.0000000
 Dipole Y            :          0.0000000            0.0000000            0.0000000
 Dipole Z            :         -0.7275494            1.4028226            0.6752731
 Magnitude           :                                                    0.6752731

 L = 2.  Multiply by 1.3450342976 to convert [e a0^2] to [Debye ang]
 Quadrupole XX       :         -4.3703049            0.0000000           -4.3703049
 Quadrupole XY       :          0.0000000            0.0000000            0.0000000
 Quadrupole XZ       :          0.0000000            0.0000000            0.0000000
 Quadrupole YY       :         -5.2673995            0.0000000           -5.2673995
 Quadrupole YZ       :          0.0000000            0.0000000            0.0000000
 Quadrupole ZZ       :        -10.6280354            8.2556006           -2.3724348
 Traceless XX        :          2.3849417           -2.7518669           -0.3669251
 Traceless YY        :          1.4878471           -2.7518669           -1.2640198
 Traceless ZZ        :         -3.8727888            5.5037337            1.6309449

 ------------------------------------------------------------------------------------
  ==> Computing MBIS Charges <==

  Electron Count from Grid (Expected Number):  9.00000 ( 9.00000)
  Difference: -0.00000

  MBIS Charges: (a.u.)
   Center  Symbol  Z      Pop.       Charge
      1       O    8    8.242202   -0.242202
      2       H    1    0.757798    0.242202

  MBIS Dipoles: [e a0]
   Center  Symbol  Z        X           Y           Z
      1       O    8    0.000000    0.000000   -0.129488
      2       H    1   -0.000000    0.000000    0.076479

  MBIS Quadrupoles: [e a0^2]
   Center  Symbol  Z      XX        XY        XZ        YY        YZ        ZZ
      1       O    8   -3.7157    0.0000    0.0000   -4.5778    0.0000   -4.1426
      2       H    1   -0.6546   -0.0000   -0.0000   -0.6896    0.0000   -0.6390

  MBIS Octupoles: [e a0^3]
   Center  Symbol  Z      XXX       XXY       XXZ       XYY       XYZ       XZZ       YYY       YYZ       YZZ       ZZZ
      1       O    8    0.0000   -0.0000   -0.1868   -0.0000    0.0000    0.0000   -0.0000   -0.1595   -0.0000   -0.6969
      2       H    1   -0.0000    0.0000    0.0337    0.0000   -0.0000   -0.0000    0.0000    0.0797    0.0000    0.1226

  MBIS Radial Moments:
   Center  Symbol  Z      [a0^2]      [a0^3]      [a0^4]      
      1       O    8   12.435991   24.194518   56.275864
      2       H    1    1.983254    4.579016   12.606341

  MBIS Valence Widths: [a0]
   Center  Symbol  Z     Width
      1       O    8    0.397635
      2       H    1    0.469275


  MBIS Valence Charges: (a.u.)
   Center  Symbol  Z     Charge
      1       O    8   -6.590045
      2       H    1   -0.757798

*** tstop() called on cics-quant-001 at Tue Dec 23 13:41:20 2025
Module time:
	user time   =       0.35 seconds =       0.01 minutes
	system time =       0.03 seconds =       0.00 minutes
	total time  =          0 seconds =       0.00 minutes
Total time:
	user time   =       1.26 seconds =       0.02 minutes
	system time =       0.08 seconds =       0.00 minutes
	total time  =          1 seconds =       0.02 minutes

    Psi4 stopped on: Tuesday, 23 December 2025 01:41PM
    Psi4 wall time for execution: 0:00:00.58

*** Psi4 exiting successfully. Buy a developer a beer!
