
    -----------------------------------------------------------------------
          Psi4: An Open-Source Ab Initio Electronic Structure Package
                               Psi4 1.9.1 release

                         Git: Rev {} zzzzzzz 


    D. G. A. Smith, L. A. Burns, A. C. Simmonett, R. M. Parrish,
    M. C. Schieber, R. Galvelis, P. Kraus, H. Kruse, R. Di Remigio,
    A. Alenaizan, A. M. James, S. Lehtola, J. P. Misiewicz, M. Scheurer,
    R. A. Shaw, J. B. Schriber, Y. Xie, Z. L. Glick, D. A. Sirianni,
    J. S. O'Brien, J. M. Waldrop, A. Kumar, E. G. Hohenstein,
    B. P. Pritchard, B. R. Brooks, H. F. Schaefer III, A. Yu. Sokolov,
    K. Patkowski, A. E. DePrince III, U. Bozkaya, R. A. King,
    F. A. Evangelista, J. M. Turney, T. D. Crawford, C. D. Sherrill,
    J. Chem. Phys. 152(18) 184108 (2020). https://doi.org/10.1063/5.0006002

                            Additional Code Authors
    E. T. Seidl, C. L. Janssen, E. F. Valeev, M. L. Leininger,
    J. F. Gonthier, R. M. Richard, H. R. McAlexander, M. Saitow, X. Wang,
    P. Verma, M. H. Lechner, A. Jiang, S. Behnle, A. G. Heide,
    M. F. Herbst, and D. L. Poole

             Previous Authors, Complete List of Code Contributors,
                       and Citations for Specific Modules
    https://github.com/psi4/psi4/blob/master/codemeta.json
    https://github.com/psi4/psi4/graphs/contributors
    http://psicode.org/psi4manual/master/introduction.html#citing-psifour

    -----------------------------------------------------------------------


    Psi4 started on: Tuesday, 26 August 2025 09:08PM

    Process ID: 60433
    Host:       Mac.lan
    PSIDATADIR: /Users/joseantoniorodriguesromero/anaconda3/share/psi4
    Memory:     500.0 MiB
    Threads:    1
    
  ==> Input File <==

--------------------------------------------------------------------------
molecule { 
0 3
O           0.000000           0.000000           0.000000
O           0.000000           0.000000           0.935131
}

set { 
basis              cc-pvtz
reference          uks
maxiter            500
DAMPING_PERCENTAGE 1
E_CONVERGENCE      1.0E-8
D_CONVERGENCE      1.0E-8
DIIS_MAX_VECS      400
MBIS_MAXITER       8000
guess              read
}

E, wfn = energy('b3lyp', restart_file='last_wfn', return_wfn=True)
properties('b3lyp','MBIS_CHARGES', wfn=wfn)
wfn.to_file('last_wfn')
--------------------------------------------------------------------------

Scratch directory: /tmp/
 Found user provided orbital data. Setting orbital guess to READ 
 Copying restart file <last_wfn.npy> to </tmp/scan_OO_10.default.60433.180.npy> for internal processing
   => Libint2 <=

    Primary   basis highest AM E, G, H:  6, 6, 3
    Auxiliary basis highest AM E, G, H:  7, 7, 4
    Onebody   basis highest AM E, G, H:  -, -, -
    Solid Harmonics ordering:            Gaussian

*** tstart() called on Mac.lan
*** at Tue Aug 26 21:08:32 2025

   => Loading Basis Set <=

    Name: CC-PVTZ
    Role: ORBITAL
    Keyword: BASIS
    atoms 1-2 entry O          line   262 file /Users/joseantoniorodriguesromero/anaconda3/share/psi4/basis/cc-pvtz.gbs 


         ---------------------------------------------------------
                                   SCF
               by Justin Turney, Rob Parrish, Andy Simmonett
                          and Daniel G. A. Smith
                              UKS Reference
                        1 Threads,    500 MiB Core
         ---------------------------------------------------------

  ==> Geometry <==

    Molecular point group: d2h
    Full point group: D_inf_h

    Geometry (in Angstrom), charge = 0, multiplicity = 3:

       Center              X                  Y                   Z               Mass       
    ------------   -----------------  -----------------  -----------------  -----------------
         O            0.000000000000     0.000000000000    -0.467565500000    15.994914619570
         O            0.000000000000     0.000000000000     0.467565500000    15.994914619570

  Running in d2h symmetry.

  Rotational constants: A = ************  B =      2.41046  C =      2.41046 [cm^-1]
  Rotational constants: A = ************  B =  72263.72762  C =  72263.72762 [MHz]
  Nuclear repulsion =   36.216681387826945

  Charge       = 0
  Multiplicity = 3
  Electrons    = 16
  Nalpha       = 9
  Nbeta        = 7

  ==> Algorithm <==

  SCF Algorithm Type is DF.
  DIIS enabled.
  MOM disabled.
  Fractional occupation disabled.
  Guess Type is READ.
  Energy threshold   = 1.00e-08
  Density threshold  = 1.00e-08
  Integral threshold = 1.00e-12

  ==> Primary Basis <==

  Basis Set: CC-PVTZ
    Blend: CC-PVTZ
    Number of shells: 20
    Number of basis functions: 60
    Number of Cartesian functions: 70
    Spherical Harmonics?: true
    Max angular momentum: 3

  ==> DFT Potential <==

   => LibXC <=

    Version 6.2.2
    S. Lehtola, C. Steigemann, M. J.T. Oliveira, and M. A.L. Marques.,  SoftwareX 7, 1–5 (2018) (10.1016/j.softx.2017.11.002)

   => Composite Functional: B3LYP <= 

    B3LYP Hyb-GGA Exchange-Correlation Functional

    P. J. Stephens, F. J. Devlin, C. F. Chabalowski, and M. J. Frisch.,  J. Phys. Chem. 98, 11623 (1994) (10.1021/j100096a001)

    Deriv               =              1
    GGA                 =           TRUE
    Meta                =          FALSE

    Exchange Hybrid     =           TRUE
    MP2 Hybrid          =          FALSE

   => Exchange Functionals <=

    0.0800   Slater exchange
    0.7200         Becke 88

   => Exact (HF) Exchange <=

    0.2000               HF 

   => Correlation Functionals <=

    0.1900   Vosko, Wilk & Nusair (VWN5_RPA)
    0.8100   Lee, Yang & Parr

   => LibXC Density Thresholds  <==

    XC_HYB_GGA_XC_B3LYP:  1.00E-15 

   => Molecular Quadrature <=

    Radial Scheme          =       TREUTLER
    Pruning Scheme         =           NONE
    Nuclear Scheme         =       TREUTLER

    Blocking Scheme        =         OCTREE
    BS radius alpha        =              1
    Pruning alpha          =              1
    Radial Points          =             75
    Spherical Points       =            302
    Total Points           =          42368
    Total Blocks           =            378
    Max Points             =            255
    Max Functions          =             60
    Weights Tolerance      =       1.00E-15

   => Loading Basis Set <=

    Name: (CC-PVTZ AUX)
    Role: JKFIT
    Keyword: DF_BASIS_SCF
    atoms 1-2 entry O          line   229 file /Users/joseantoniorodriguesromero/anaconda3/share/psi4/basis/cc-pvtz-jkfit.gbs 

   => Loading Basis Set <=

    Name: CC-PVTZ
    Role: ORBITAL
    Keyword: BASIS
    atoms 1-2 entry O          line   262 file /Users/joseantoniorodriguesromero/anaconda3/share/psi4/basis/cc-pvtz.gbs 

  Reading orbitals from file /tmp/scan_OO_10.default.60433.180.npy, no projection.

  ==> Integral Setup <==

  DFHelper Memory: AOs need 0.005 GiB; user supplied 0.296 GiB. 
  Using in-core AOs.

  ==> MemDFJK: Density-Fitted J/K Matrices <==

    J tasked:                   Yes
    K tasked:                   Yes
    wK tasked:                   No
    OpenMP threads:               1
    Memory [MiB]:               302
    Algorithm:                 Core
    Schwarz Cutoff:           1E-12
    Mask sparsity (%):       0.0000
    Fitting Condition:        1E-10

   => Auxiliary Basis Set <=

  Basis Set: (CC-PVTZ AUX)
    Blend: CC-PVTZ-JKFIT
    Number of shells: 50
    Number of basis functions: 158
    Number of Cartesian functions: 192
    Spherical Harmonics?: true
    Max angular momentum: 4

  Cached 100.0% of DFT collocation blocks in 0.070 [GiB].

  Minimum eigenvalue in the overlap matrix is 2.4791064647E-03.
  Reciprocal condition number of the overlap matrix is 6.6256462813E-04.
    Using symmetric orthogonalization.

  ==> Pre-Iterations <==

  SCF Guess: Orbitals guess was supplied from a previous computation.

   -------------------------------------------------------
    Irrep   Nso     Nmo     Nalpha   Nbeta   Ndocc  Nsocc
   -------------------------------------------------------
     Ag        13      13       3       3       3       0
     B1g        3       3       0       0       0       0
     B2g        7       7       1       0       0       1
     B3g        7       7       1       0       0       1
     Au         3       3       0       0       0       0
     B1u       13      13       2       2       2       0
     B2u        7       7       1       1       1       0
     B3u        7       7       1       1       1       0
   -------------------------------------------------------
    Total      60      60       9       7       7       2
   -------------------------------------------------------

  ==> Iterations <==

                           Total Energy        Delta E     RMS |[F,P]|

   @DF-UKS iter   0:  -150.20391250280687   -1.50204e+02   1.19798e-02 
   @DF-UKS iter   1:  -150.16705292456354    3.68596e-02   1.03227e-03 ADIIS/DIIS
   @DF-UKS iter   2:  -150.16717283376659   -1.19909e-04   4.08350e-04 ADIIS/DIIS/DAMP=1%
   @DF-UKS iter   3:  -150.16695327463074    2.19559e-04   8.20452e-05 DIIS/DAMP=1%
   @DF-UKS iter   4:  -150.16725898039235   -3.05706e-04   9.90735e-06 DIIS/DAMP=1%
   @DF-UKS iter   5:  -150.16719066928871    6.83111e-05   1.16659e-06 DIIS/DAMP=1%
   @DF-UKS iter   6:  -150.16719458051170   -3.91122e-06   1.05642e-07 DIIS/DAMP=1%
   @DF-UKS iter   7:  -150.16719509925514   -5.18743e-07   6.32268e-09 DIIS/DAMP=1%
   @DF-UKS iter   8:  -150.16719511579129   -1.65361e-08   6.70663e-10 DIIS/DAMP=1%
   @DF-UKS iter   9:  -150.16719511871867   -2.92738e-09   7.69603e-11 DIIS/DAMP=1%
  Energy and wave function converged.


  ==> Post-Iterations <==

   Electrons on quadrature grid:
      Nalpha   =    8.9999997521 ; deviation = -2.479e-07
      Nbeta    =    6.9999999180 ; deviation = -8.195e-08
      Ntotal   =   15.9999996701 ; deviation = -3.299e-07 

   @Spin Contamination Metric:   4.483469936E-03
   @S^2 Expected:                2.000000000E+00
   @S^2 Observed:                2.004483470E+00
   @S   Expected:                1.000000000E+00
   @S   Observed:                1.000000000E+00

    Orbital Energies [Eh]
    ---------------------

    Alpha Occupied:                                                       

       1Ag   -19.253038     1B1u  -19.250520     2Ag    -1.581302  
       2B1u   -0.754725     1B2u   -0.699080     1B3u   -0.699080  
       3Ag    -0.600991     1B3g   -0.185665     1B2g   -0.185665  

    Alpha Virtual:                                                        

       3B1u    0.338808     2B2u    0.454996     2B3u    0.454996  
       4Ag     0.504907     2B2g    0.631212     2B3g    0.631212  
       5Ag     0.649542     4B1u    0.907549     1B1g    1.134683  
       6Ag     1.134683     5B1u    1.169259     3B2u    1.490666  
       3B3u    1.490666     6B1u    1.721763     1Au     1.721763  
       7Ag     2.169708     3B3g    2.262280     3B2g    2.262280  
       7B1u    2.506988     4B2u    3.402299     4B3u    3.402299  
       8Ag     3.779940     4B3g    3.916854     4B2g    3.916854  
       8B1u    4.386505     2B1g    4.540256     9Ag     4.540256  
       5B2u    4.662603     5B3u    4.662603     6B2u    4.832391  
       6B3u    4.832391     5B3g    5.335060     5B2g    5.335060  
      10Ag     5.386236     3B1g    5.985379    11Ag     5.985383  
       6B3g    6.035488     6B2g    6.035488     9B1u    6.158716  
       2Au     6.168862    10B1u    6.168866    11B1u    6.482216  
       3Au     6.482216    12Ag     6.692679     7B2u    6.796384  
       7B3u    6.796384    12B1u    7.744367     7B3g    8.565800  
       7B2g    8.565800    13Ag     8.761801    13B1u   22.486891  

    Beta Occupied:                                                        

       1Ag   -19.224045     1B1u  -19.221277     2Ag    -1.539652  
       2B1u   -0.668747     1B2u   -0.606481     1B3u   -0.606481  
       3Ag    -0.551857  

    Beta Virtual:                                                         

       1B2g    0.007117     1B3g    0.007117     3B1u    0.353447  
       2B2u    0.481952     2B3u    0.481952     4Ag     0.512254  
       5Ag     0.675058     2B2g    0.680420     2B3g    0.680420  
       4B1u    0.950176     1B1g    1.173724     6Ag     1.173724  
       5B1u    1.206188     3B2u    1.529691     3B3u    1.529691  
       6B1u    1.787961     1Au     1.787961     7Ag     2.192658  
       3B3g    2.303082     3B2g    2.303082     7B1u    2.535771  
       4B2u    3.473450     4B3u    3.473450     8Ag     3.803947  
       4B3g    3.989150     4B2g    3.989150     8B1u    4.431916  
       9Ag     4.573919     2B1g    4.573919     5B2u    4.724538  
       5B3u    4.724538     6B2u    4.868839     6B3u    4.868839  
       5B3g    5.410339     5B2g    5.410339    10Ag     5.414779  
       6B3g    6.083847     6B2g    6.083847     3B1g    6.088496  
      11Ag     6.088500     9B1u    6.196543     2Au     6.275145  
      10B1u    6.275149    11B1u    6.533421     3Au     6.533422  
      12Ag     6.740480     7B2u    6.843747     7B3u    6.843747  
      12B1u    7.778219     7B3g    8.612468     7B2g    8.612468  
      13Ag     8.797844    13B1u   22.526643  

    Final Occupation by Irrep:
             Ag   B1g   B2g   B3g    Au   B1u   B2u   B3u 
    DOCC [     3,    0,    0,    0,    0,    2,    1,    1 ]
    SOCC [     0,    0,    1,    1,    0,    0,    0,    0 ]
    NA   [     3,    0,    1,    1,    0,    2,    1,    1 ]
    NB   [     3,    0,    0,    0,    0,    2,    1,    1 ]

  @DF-UKS Final Energy:  -150.16719511871867

   => Energetics <=

    Nuclear Repulsion Energy =             36.2166813878269451
    One-Electron Energy =                -277.0555583832043567
    Two-Electron Energy =                 104.7295771112138425
    DFT Exchange-Correlation Energy =     -14.0578952345550992
    Empirical Dispersion Energy =           0.0000000000000000
    VV10 Nonlocal Energy =                  0.0000000000000000
    Total Energy =                       -150.1671951187186664

  UHF NO Occupations:
  HONO-2 :    1B2u 1.9992920
  HONO-1 :    1B2g 1.0000000
  HONO-0 :    1B3g 1.0000000
  LUNO+0 :    2B2u 0.0007080
  LUNO+1 :    2B3u 0.0007080
  LUNO+2 :    3B1u 0.0005827
  LUNO+3 :    4 Ag 0.0002288


Computation Completed


Properties will be evaluated at   0.000000,   0.000000,   0.000000 [a0]

Properties computed using the SCF density matrix


 Multipole Moments:

 ------------------------------------------------------------------------------------
     Multipole            Electronic (a.u.)      Nuclear  (a.u.)        Total (a.u.)
 ------------------------------------------------------------------------------------

 L = 1.  Multiply by 2.5417464519 to convert [e a0] to [Debye]
 Dipole X            :          0.0000000            0.0000000            0.0000000
 Dipole Y            :          0.0000000            0.0000000            0.0000000
 Dipole Z            :          0.0000000            0.0000000            0.0000000
 Magnitude           :                                                    0.0000000

 ------------------------------------------------------------------------------------

*** tstop() called on Mac.lan at Tue Aug 26 21:08:33 2025
Module time:
	user time   =      11.35 seconds =       0.19 minutes
	system time =       1.89 seconds =       0.03 minutes
	total time  =          1 seconds =       0.02 minutes
Total time:
	user time   =      11.35 seconds =       0.19 minutes
	system time =       1.89 seconds =       0.03 minutes
	total time  =          1 seconds =       0.02 minutes

*** tstart() called on Mac.lan
*** at Tue Aug 26 21:08:33 2025

   => Libint2 <=

    Primary   basis highest AM E, G, H:  6, 6, 3
    Auxiliary basis highest AM E, G, H:  7, 7, 4
    Onebody   basis highest AM E, G, H:  -, -, -
    Solid Harmonics ordering:            Gaussian
   => Loading Basis Set <=

    Name: CC-PVTZ
    Role: ORBITAL
    Keyword: BASIS
    atoms 1-2 entry O          line   262 file /Users/joseantoniorodriguesromero/anaconda3/share/psi4/basis/cc-pvtz.gbs 


         ---------------------------------------------------------
                                   SCF
               by Justin Turney, Rob Parrish, Andy Simmonett
                          and Daniel G. A. Smith
                              UKS Reference
                        1 Threads,    500 MiB Core
         ---------------------------------------------------------

  ==> Geometry <==

    Molecular point group: d2h
    Full point group: D_inf_h

    Geometry (in Angstrom), charge = 0, multiplicity = 3:

       Center              X                  Y                   Z               Mass       
    ------------   -----------------  -----------------  -----------------  -----------------
         O            0.000000000000     0.000000000000    -0.467565500000    15.994914619570
         O            0.000000000000     0.000000000000     0.467565500000    15.994914619570

  Running in d2h symmetry.

  Rotational constants: A = ************  B =      2.41046  C =      2.41046 [cm^-1]
  Rotational constants: A = ************  B =  72263.72762  C =  72263.72762 [MHz]
  Nuclear repulsion =   36.216681387826945

  Charge       = 0
  Multiplicity = 3
  Electrons    = 16
  Nalpha       = 9
  Nbeta        = 7

  ==> Algorithm <==

  SCF Algorithm Type is DF.
  DIIS enabled.
  MOM disabled.
  Fractional occupation disabled.
  Guess Type is READ.
  Energy threshold   = 1.00e-08
  Density threshold  = 1.00e-08
  Integral threshold = 1.00e-12

  ==> Primary Basis <==

  Basis Set: CC-PVTZ
    Blend: CC-PVTZ
    Number of shells: 20
    Number of basis functions: 60
    Number of Cartesian functions: 70
    Spherical Harmonics?: true
    Max angular momentum: 3

  ==> DFT Potential <==

   => LibXC <=

    Version 6.2.2
    S. Lehtola, C. Steigemann, M. J.T. Oliveira, and M. A.L. Marques.,  SoftwareX 7, 1–5 (2018) (10.1016/j.softx.2017.11.002)

   => Composite Functional: B3LYP <= 

    B3LYP Hyb-GGA Exchange-Correlation Functional

    P. J. Stephens, F. J. Devlin, C. F. Chabalowski, and M. J. Frisch.,  J. Phys. Chem. 98, 11623 (1994) (10.1021/j100096a001)

    Deriv               =              1
    GGA                 =           TRUE
    Meta                =          FALSE

    Exchange Hybrid     =           TRUE
    MP2 Hybrid          =          FALSE

   => Exchange Functionals <=

    0.0800   Slater exchange
    0.7200         Becke 88

   => Exact (HF) Exchange <=

    0.2000               HF 

   => Correlation Functionals <=

    0.1900   Vosko, Wilk & Nusair (VWN5_RPA)
    0.8100   Lee, Yang & Parr

   => LibXC Density Thresholds  <==

    XC_HYB_GGA_XC_B3LYP:  1.00E-15 

   => Molecular Quadrature <=

    Radial Scheme          =       TREUTLER
    Pruning Scheme         =           NONE
    Nuclear Scheme         =       TREUTLER

    Blocking Scheme        =         OCTREE
    BS radius alpha        =              1
    Pruning alpha          =              1
    Radial Points          =             75
    Spherical Points       =            302
    Total Points           =          42368
    Total Blocks           =            378
    Max Points             =            255
    Max Functions          =             60
    Weights Tolerance      =       1.00E-15

   => Loading Basis Set <=

    Name: (CC-PVTZ AUX)
    Role: JKFIT
    Keyword: DF_BASIS_SCF
    atoms 1-2 entry O          line   229 file /Users/joseantoniorodriguesromero/anaconda3/share/psi4/basis/cc-pvtz-jkfit.gbs 

   => Loading Basis Set <=

    Name: CC-PVTZ
    Role: ORBITAL
    Keyword: BASIS
    atoms 1-2 entry O          line   262 file /Users/joseantoniorodriguesromero/anaconda3/share/psi4/basis/cc-pvtz.gbs 

  Reading orbitals from file /tmp/scan_OO_10.default.60433.180.npy, no projection.

  ==> Integral Setup <==

  DFHelper Memory: AOs need 0.005 GiB; user supplied 0.296 GiB. 
  Using in-core AOs.

  ==> MemDFJK: Density-Fitted J/K Matrices <==

    J tasked:                   Yes
    K tasked:                   Yes
    wK tasked:                   No
    OpenMP threads:               1
    Memory [MiB]:               302
    Algorithm:                 Core
    Schwarz Cutoff:           1E-12
    Mask sparsity (%):       0.0000
    Fitting Condition:        1E-10

   => Auxiliary Basis Set <=

  Basis Set: (CC-PVTZ AUX)
    Blend: CC-PVTZ-JKFIT
    Number of shells: 50
    Number of basis functions: 158
    Number of Cartesian functions: 192
    Spherical Harmonics?: true
    Max angular momentum: 4

  Cached 100.0% of DFT collocation blocks in 0.070 [GiB].

  Minimum eigenvalue in the overlap matrix is 2.4791064647E-03.
  Reciprocal condition number of the overlap matrix is 6.6256462813E-04.
    Using symmetric orthogonalization.

  ==> Pre-Iterations <==

  SCF Guess: Orbitals guess was supplied from a previous computation.

   -------------------------------------------------------
    Irrep   Nso     Nmo     Nalpha   Nbeta   Ndocc  Nsocc
   -------------------------------------------------------
     Ag        13      13       3       3       3       0
     B1g        3       3       0       0       0       0
     B2g        7       7       1       0       0       1
     B3g        7       7       1       0       0       1
     Au         3       3       0       0       0       0
     B1u       13      13       2       2       2       0
     B2u        7       7       1       1       1       0
     B3u        7       7       1       1       1       0
   -------------------------------------------------------
    Total      60      60       9       7       7       2
   -------------------------------------------------------

  ==> Iterations <==

                           Total Energy        Delta E     RMS |[F,P]|

   @DF-UKS iter   0:  -150.16719511829268   -1.50167e+02   8.65390e-12 
   @DF-UKS iter   1:  -150.16719511829277   -8.52651e-14   7.66509e-12 DIIS
  Energy and wave function converged.


  ==> Post-Iterations <==

   Electrons on quadrature grid:
      Nalpha   =    8.9999997521 ; deviation = -2.479e-07
      Nbeta    =    6.9999999180 ; deviation = -8.195e-08
      Ntotal   =   15.9999996701 ; deviation = -3.299e-07 

   @Spin Contamination Metric:   4.483469936E-03
   @S^2 Expected:                2.000000000E+00
   @S^2 Observed:                2.004483470E+00
   @S   Expected:                1.000000000E+00
   @S   Observed:                1.000000000E+00

    Orbital Energies [Eh]
    ---------------------

    Alpha Occupied:                                                       

       1Ag   -19.253038     1B1u  -19.250520     2Ag    -1.581302  
       2B1u   -0.754725     1B2u   -0.699080     1B3u   -0.699080  
       3Ag    -0.600991     1B3g   -0.185665     1B2g   -0.185665  

    Alpha Virtual:                                                        

       3B1u    0.338808     2B2u    0.454996     2B3u    0.454996  
       4Ag     0.504907     2B2g    0.631212     2B3g    0.631212  
       5Ag     0.649542     4B1u    0.907549     1B1g    1.134683  
       6Ag     1.134683     5B1u    1.169259     3B2u    1.490666  
       3B3u    1.490666     6B1u    1.721763     1Au     1.721763  
       7Ag     2.169708     3B3g    2.262280     3B2g    2.262280  
       7B1u    2.506988     4B2u    3.402299     4B3u    3.402299  
       8Ag     3.779940     4B3g    3.916854     4B2g    3.916854  
       8B1u    4.386505     2B1g    4.540256     9Ag     4.540256  
       5B2u    4.662603     5B3u    4.662603     6B2u    4.832391  
       6B3u    4.832391     5B3g    5.335060     5B2g    5.335060  
      10Ag     5.386236     3B1g    5.985379    11Ag     5.985383  
       6B3g    6.035488     6B2g    6.035488     9B1u    6.158716  
       2Au     6.168862    10B1u    6.168866    11B1u    6.482216  
       3Au     6.482216    12Ag     6.692679     7B2u    6.796384  
       7B3u    6.796384    12B1u    7.744367     7B3g    8.565800  
       7B2g    8.565800    13Ag     8.761801    13B1u   22.486891  

    Beta Occupied:                                                        

       1Ag   -19.224045     1B1u  -19.221277     2Ag    -1.539652  
       2B1u   -0.668747     1B2u   -0.606481     1B3u   -0.606481  
       3Ag    -0.551857  

    Beta Virtual:                                                         

       1B2g    0.007117     1B3g    0.007117     3B1u    0.353447  
       2B2u    0.481952     2B3u    0.481952     4Ag     0.512254  
       5Ag     0.675058     2B2g    0.680420     2B3g    0.680420  
       4B1u    0.950176     1B1g    1.173724     6Ag     1.173724  
       5B1u    1.206188     3B2u    1.529691     3B3u    1.529691  
       6B1u    1.787961     1Au     1.787961     7Ag     2.192658  
       3B3g    2.303082     3B2g    2.303082     7B1u    2.535771  
       4B2u    3.473450     4B3u    3.473450     8Ag     3.803947  
       4B3g    3.989150     4B2g    3.989150     8B1u    4.431916  
       9Ag     4.573919     2B1g    4.573919     5B2u    4.724538  
       5B3u    4.724538     6B2u    4.868839     6B3u    4.868839  
       5B3g    5.410339     5B2g    5.410339    10Ag     5.414779  
       6B3g    6.083847     6B2g    6.083847     3B1g    6.088496  
      11Ag     6.088500     9B1u    6.196543     2Au     6.275145  
      10B1u    6.275149    11B1u    6.533421     3Au     6.533422  
      12Ag     6.740480     7B2u    6.843747     7B3u    6.843747  
      12B1u    7.778219     7B3g    8.612468     7B2g    8.612468  
      13Ag     8.797844    13B1u   22.526643  

    Final Occupation by Irrep:
             Ag   B1g   B2g   B3g    Au   B1u   B2u   B3u 
    DOCC [     3,    0,    0,    0,    0,    2,    1,    1 ]
    SOCC [     0,    0,    1,    1,    0,    0,    0,    0 ]
    NA   [     3,    0,    1,    1,    0,    2,    1,    1 ]
    NB   [     3,    0,    0,    0,    0,    2,    1,    1 ]

  @DF-UKS Final Energy:  -150.16719511829277

   => Energetics <=

    Nuclear Repulsion Energy =             36.2166813878269451
    One-Electron Energy =                -277.0555583917674767
    Two-Electron Energy =                 104.7295771211234410
    DFT Exchange-Correlation Energy =     -14.0578952354756730
    Empirical Dispersion Energy =           0.0000000000000000
    VV10 Nonlocal Energy =                  0.0000000000000000
    Total Energy =                       -150.1671951182927671

  UHF NO Occupations:
  HONO-2 :    1B2u 1.9992920
  HONO-1 :    1B2g 1.0000000
  HONO-0 :    1B3g 1.0000000
  LUNO+0 :    2B2u 0.0007080
  LUNO+1 :    2B3u 0.0007080
  LUNO+2 :    3B1u 0.0005827
  LUNO+3 :    4 Ag 0.0002288


Computation Completed


Properties will be evaluated at   0.000000,   0.000000,   0.000000 [a0]

Properties computed using the B3LYP density matrix


 Multipole Moments:

 ------------------------------------------------------------------------------------
     Multipole            Electronic (a.u.)      Nuclear  (a.u.)        Total (a.u.)
 ------------------------------------------------------------------------------------

 L = 1.  Multiply by 2.5417464519 to convert [e a0] to [Debye]
 Dipole X            :          0.0000000            0.0000000            0.0000000
 Dipole Y            :          0.0000000            0.0000000            0.0000000
 Dipole Z            :          0.0000000            0.0000000            0.0000000
 Magnitude           :                                                    0.0000000

 L = 2.  Multiply by 1.3450342976 to convert [e a0^2] to [Debye ang]
 Quadrupole XX       :         -6.9574923            0.0000000           -6.9574923
 Quadrupole XY       :          0.0000000            0.0000000            0.0000000
 Quadrupole XZ       :          0.0000000            0.0000000            0.0000000
 Quadrupole YY       :         -6.9574923            0.0000000           -6.9574923
 Quadrupole YZ       :          0.0000000            0.0000000            0.0000000
 Quadrupole ZZ       :        -20.5739102           12.4911561           -8.0827541
 Traceless XX        :          4.5388060           -4.1637187            0.3750873
 Traceless YY        :          4.5388060           -4.1637187            0.3750873
 Traceless ZZ        :         -9.0776119            8.3274374           -0.7501745

 ------------------------------------------------------------------------------------
  ==> Computing MBIS Charges <==

  Electron Count from Grid (Expected Number): 16.00000 (16.00000)
  Difference: -0.00000

  MBIS Charges: (a.u.)
   Center  Symbol  Z      Pop.       Charge
      1       O    8    8.000000    0.000000
      2       O    8    8.000000    0.000000

  MBIS Dipoles: [e a0]
   Center  Symbol  Z        X           Y           Z
      1       O    8    0.000000   -0.000000    0.199542
      2       O    8   -0.000000    0.000000   -0.199542

  MBIS Quadrupoles: [e a0^2]
   Center  Symbol  Z      XX        XY        XZ        YY        YZ        ZZ
      1       O    8   -3.4787    0.0000   -0.0000   -3.4787   -0.0000   -3.6888
      2       O    8   -3.4787    0.0000    0.0000   -3.4787   -0.0000   -3.6888

  MBIS Octupoles: [e a0^3]
   Center  Symbol  Z      XXX       XXY       XXZ       XYY       XYZ       XZZ       YYY       YYZ       YZZ       ZZZ
      1       O    8   -0.0000   -0.0000    0.2990   -0.0000    0.0000   -0.0000    0.0000    0.2990   -0.0000    0.1445
      2       O    8   -0.0000   -0.0000   -0.2990   -0.0000    0.0000   -0.0000    0.0000   -0.2990   -0.0000   -0.1445

  MBIS Radial Moments:
   Center  Symbol  Z      [a0^2]      [a0^3]      [a0^4]      
      1       O    8   10.646250   19.528340   43.173353
      2       O    8   10.646250   19.528340   43.173353

  MBIS Valence Widths: [a0]
   Center  Symbol  Z     Width
      1       O    8    0.373339
      2       O    8    0.373339

*** tstop() called on Mac.lan at Tue Aug 26 21:08:34 2025
Module time:
	user time   =       3.98 seconds =       0.07 minutes
	system time =       1.65 seconds =       0.03 minutes
	total time  =          1 seconds =       0.02 minutes
Total time:
	user time   =      15.36 seconds =       0.26 minutes
	system time =       3.71 seconds =       0.06 minutes
	total time  =          2 seconds =       0.03 minutes

    Psi4 stopped on: Tuesday, 26 August 2025 09:08PM
    Psi4 wall time for execution: 0:00:01.85

*** Psi4 exiting successfully. Buy a developer a beer!
