
    -----------------------------------------------------------------------
          Psi4: An Open-Source Ab Initio Electronic Structure Package
                               Psi4 1.9.1 release

                         Git: Rev {} zzzzzzz 


    D. G. A. Smith, L. A. Burns, A. C. Simmonett, R. M. Parrish,
    M. C. Schieber, R. Galvelis, P. Kraus, H. Kruse, R. Di Remigio,
    A. Alenaizan, A. M. James, S. Lehtola, J. P. Misiewicz, M. Scheurer,
    R. A. Shaw, J. B. Schriber, Y. Xie, Z. L. Glick, D. A. Sirianni,
    J. S. O'Brien, J. M. Waldrop, A. Kumar, E. G. Hohenstein,
    B. P. Pritchard, B. R. Brooks, H. F. Schaefer III, A. Yu. Sokolov,
    K. Patkowski, A. E. DePrince III, U. Bozkaya, R. A. King,
    F. A. Evangelista, J. M. Turney, T. D. Crawford, C. D. Sherrill,
    J. Chem. Phys. 152(18) 184108 (2020). https://doi.org/10.1063/5.0006002

                            Additional Code Authors
    E. T. Seidl, C. L. Janssen, E. F. Valeev, M. L. Leininger,
    J. F. Gonthier, R. M. Richard, H. R. McAlexander, M. Saitow, X. Wang,
    P. Verma, M. H. Lechner, A. Jiang, S. Behnle, A. G. Heide,
    M. F. Herbst, and D. L. Poole

             Previous Authors, Complete List of Code Contributors,
                       and Citations for Specific Modules
    https://github.com/psi4/psi4/blob/master/codemeta.json
    https://github.com/psi4/psi4/graphs/contributors
    http://psicode.org/psi4manual/master/introduction.html#citing-psifour

    -----------------------------------------------------------------------


    Psi4 started on: Tuesday, 26 August 2025 10:15PM

    Process ID: 61080
    Host:       Mac.lan
    PSIDATADIR: /Users/joseantoniorodriguesromero/anaconda3/share/psi4
    Memory:     500.0 MiB
    Threads:    1
    
  ==> Input File <==

--------------------------------------------------------------------------
molecule { 
0 2
N           0.000000           0.000000           0.000000
C           0.000000           0.000000           0.652582
}

set { 
basis              cc-pvtz
reference          uks
maxiter            500
DAMPING_PERCENTAGE 1
E_CONVERGENCE      1.0E-8
D_CONVERGENCE      1.0E-8
DIIS_MAX_VECS      400
MBIS_MAXITER       8000
guess              read
}

E, wfn = energy('b3lyp', restart_file='last_wfn', return_wfn=True)
properties('b3lyp','MBIS_CHARGES', wfn=wfn)
wfn.to_file('last_wfn')
--------------------------------------------------------------------------

Scratch directory: /tmp/
 Found user provided orbital data. Setting orbital guess to READ 
 Copying restart file <last_wfn.npy> to </tmp/scan_CN_3.default.61080.180.npy> for internal processing
   => Libint2 <=

    Primary   basis highest AM E, G, H:  6, 6, 3
    Auxiliary basis highest AM E, G, H:  7, 7, 4
    Onebody   basis highest AM E, G, H:  -, -, -
    Solid Harmonics ordering:            Gaussian

*** tstart() called on Mac.lan
*** at Tue Aug 26 22:15:21 2025

   => Loading Basis Set <=

    Name: CC-PVTZ
    Role: ORBITAL
    Keyword: BASIS
    atoms 1 entry N          line   224 file /Users/joseantoniorodriguesromero/anaconda3/share/psi4/basis/cc-pvtz.gbs 
    atoms 2 entry C          line   186 file /Users/joseantoniorodriguesromero/anaconda3/share/psi4/basis/cc-pvtz.gbs 


         ---------------------------------------------------------
                                   SCF
               by Justin Turney, Rob Parrish, Andy Simmonett
                          and Daniel G. A. Smith
                              UKS Reference
                        1 Threads,    500 MiB Core
         ---------------------------------------------------------

  ==> Geometry <==

    Molecular point group: c2v
    Full point group: C_inf_v

    Geometry (in Angstrom), charge = 0, multiplicity = 2:

       Center              X                  Y                   Z               Mass       
    ------------   -----------------  -----------------  -----------------  -----------------
         N            0.000000000000     0.000000000000    -0.301156086341    14.003074004430
         C            0.000000000000     0.000000000000     0.351425913659    12.000000000000

  Running in c2v symmetry.

  Rotational constants: A = ************  B =      6.12557  C =      6.12557 [cm^-1]
  Rotational constants: A = ************  B = 183639.91374  C = 183639.91374 [MHz]
  Nuclear repulsion =   34.057701328170253

  Charge       = 0
  Multiplicity = 2
  Electrons    = 13
  Nalpha       = 7
  Nbeta        = 6

  ==> Algorithm <==

  SCF Algorithm Type is DF.
  DIIS enabled.
  MOM disabled.
  Fractional occupation disabled.
  Guess Type is READ.
  Energy threshold   = 1.00e-08
  Density threshold  = 1.00e-08
  Integral threshold = 1.00e-12

  ==> Primary Basis <==

  Basis Set: CC-PVTZ
    Blend: CC-PVTZ
    Number of shells: 20
    Number of basis functions: 60
    Number of Cartesian functions: 70
    Spherical Harmonics?: true
    Max angular momentum: 3

  ==> DFT Potential <==

   => LibXC <=

    Version 6.2.2
    S. Lehtola, C. Steigemann, M. J.T. Oliveira, and M. A.L. Marques.,  SoftwareX 7, 1–5 (2018) (10.1016/j.softx.2017.11.002)

   => Composite Functional: B3LYP <= 

    B3LYP Hyb-GGA Exchange-Correlation Functional

    P. J. Stephens, F. J. Devlin, C. F. Chabalowski, and M. J. Frisch.,  J. Phys. Chem. 98, 11623 (1994) (10.1021/j100096a001)

    Deriv               =              1
    GGA                 =           TRUE
    Meta                =          FALSE

    Exchange Hybrid     =           TRUE
    MP2 Hybrid          =          FALSE

   => Exchange Functionals <=

    0.0800   Slater exchange
    0.7200         Becke 88

   => Exact (HF) Exchange <=

    0.2000               HF 

   => Correlation Functionals <=

    0.1900   Vosko, Wilk & Nusair (VWN5_RPA)
    0.8100   Lee, Yang & Parr

   => LibXC Density Thresholds  <==

    XC_HYB_GGA_XC_B3LYP:  1.00E-15 

   => Molecular Quadrature <=

    Radial Scheme          =       TREUTLER
    Pruning Scheme         =           NONE
    Nuclear Scheme         =       TREUTLER

    Blocking Scheme        =         OCTREE
    BS radius alpha        =              1
    Pruning alpha          =              1
    Radial Points          =             75
    Spherical Points       =            302
    Total Points           =          43119
    Total Blocks           =            390
    Max Points             =            256
    Max Functions          =             60
    Weights Tolerance      =       1.00E-15

   => Loading Basis Set <=

    Name: (CC-PVTZ AUX)
    Role: JKFIT
    Keyword: DF_BASIS_SCF
    atoms 1 entry N          line   177 file /Users/joseantoniorodriguesromero/anaconda3/share/psi4/basis/cc-pvtz-jkfit.gbs 
    atoms 2 entry C          line   125 file /Users/joseantoniorodriguesromero/anaconda3/share/psi4/basis/cc-pvtz-jkfit.gbs 

   => Loading Basis Set <=

    Name: CC-PVTZ
    Role: ORBITAL
    Keyword: BASIS
    atoms 1 entry N          line   224 file /Users/joseantoniorodriguesromero/anaconda3/share/psi4/basis/cc-pvtz.gbs 
    atoms 2 entry C          line   186 file /Users/joseantoniorodriguesromero/anaconda3/share/psi4/basis/cc-pvtz.gbs 

  Reading orbitals from file /tmp/scan_CN_3.default.61080.180.npy, no projection.

  ==> Integral Setup <==

  DFHelper Memory: AOs need 0.005 GiB; user supplied 0.294 GiB. 
  Using in-core AOs.

  ==> MemDFJK: Density-Fitted J/K Matrices <==

    J tasked:                   Yes
    K tasked:                   Yes
    wK tasked:                   No
    OpenMP threads:               1
    Memory [MiB]:               300
    Algorithm:                 Core
    Schwarz Cutoff:           1E-12
    Mask sparsity (%):       0.0000
    Fitting Condition:        1E-10

   => Auxiliary Basis Set <=

  Basis Set: (CC-PVTZ AUX)
    Blend: CC-PVTZ-JKFIT
    Number of shells: 50
    Number of basis functions: 158
    Number of Cartesian functions: 192
    Spherical Harmonics?: true
    Max angular momentum: 4

  Cached 100.0% of DFT collocation blocks in 0.072 [GiB].

  Minimum eigenvalue in the overlap matrix is 1.4076406065E-03.
  Reciprocal condition number of the overlap matrix is 3.1977038723E-04.
    Using symmetric orthogonalization.

  ==> Pre-Iterations <==

  SCF Guess: Orbitals guess was supplied from a previous computation.

   -------------------------------------------------------
    Irrep   Nso     Nmo     Nalpha   Nbeta   Ndocc  Nsocc
   -------------------------------------------------------
     A1        26      26       5       4       4       1
     A2         6       6       0       0       0       0
     B1        14      14       1       1       1       0
     B2        14      14       1       1       1       0
   -------------------------------------------------------
    Total      60      60       7       6       6       1
   -------------------------------------------------------

  ==> Iterations <==

                           Total Energy        Delta E     RMS |[F,P]|

   @DF-UKS iter   0:   -90.79250082177579   -9.07925e+01   1.07978e-02 
   @DF-UKS iter   1:   -90.77713675590758    1.53641e-02   2.62874e-03 DIIS/ADIIS
   @DF-UKS iter   2:   -90.77737584772794   -2.39092e-04   2.38973e-03 DIIS/ADIIS/DAMP=1%
   @DF-UKS iter   3:   -90.77701219931669    3.63648e-04   1.85787e-04 DIIS/ADIIS/DAMP=1%
   @DF-UKS iter   4:   -90.77943375694181   -2.42156e-03   4.53927e-05 DIIS/DAMP=1%
   @DF-UKS iter   5:   -90.77935917679434    7.45801e-05   1.67527e-05 DIIS/DAMP=1%
   @DF-UKS iter   6:   -90.77935122989797    7.94690e-06   8.03018e-06 DIIS/DAMP=1%
   @DF-UKS iter   7:   -90.77935526176714   -4.03187e-06   4.68205e-06 DIIS/DAMP=1%
   @DF-UKS iter   8:   -90.77935558330677   -3.21540e-07   6.50894e-07 DIIS/DAMP=1%
   @DF-UKS iter   9:   -90.77935215492188    3.42838e-06   1.30393e-07 DIIS/DAMP=1%
   @DF-UKS iter  10:   -90.77935246494891   -3.10027e-07   1.88772e-08 DIIS/DAMP=1%
   @DF-UKS iter  11:   -90.77935252152484   -5.65759e-08   1.87243e-09 DIIS/DAMP=1%
   @DF-UKS iter  12:   -90.77935253156477   -1.00399e-08   5.18821e-10 DIIS/DAMP=1%
   @DF-UKS iter  13:   -90.77935252900474    2.56003e-09   5.58145e-11 DIIS/DAMP=1%
  Energy and wave function converged.


  ==> Post-Iterations <==

   Electrons on quadrature grid:
      Nalpha   =    6.9999998912 ; deviation = -1.088e-07
      Nbeta    =    5.9999998912 ; deviation = -1.088e-07
      Ntotal   =   12.9999997824 ; deviation = -2.176e-07 

   @Spin Contamination Metric:   2.103823863E-03
   @S^2 Expected:                7.500000000E-01
   @S^2 Observed:                7.521038239E-01
   @S   Expected:                5.000000000E-01
   @S   Observed:                5.000000000E-01

    Orbital Energies [Eh]
    ---------------------

    Alpha Occupied:                                                       

       1A1   -14.302661     2A1   -10.275760     3A1    -0.918551  
       1B2    -0.602422     1B1    -0.602422     4A1    -0.421158  
       5A1    -0.304647  

    Alpha Virtual:                                                        

       2B2     0.146829     2B1     0.146829     6A1     0.191259  
       7A1     0.228163     3B2     0.314495     3B1     0.314495  
       8A1     0.494237     4B2     0.597776     4B1     0.597776  
       1A2     0.623012     9A1     0.623012    10A1     0.859756  
       5B2     1.080018     5B1     1.080018    11A1     1.187740  
       2A2     1.321405    12A1     1.321406     6B2     1.430010  
       6B1     1.430010    13A1     1.544681     7B2     2.046767  
       7B1     2.046767    14A1     2.247492     8B2     2.608404  
       8B1     2.608404    15A1     2.656827     3A2     2.794544  
      16A1     2.794544     9B2     2.909193     9B1     2.909193  
      17A1     3.023850     4A2     3.055594    18A1     3.055594  
      10B2     3.492125    10B1     3.492125    19A1     3.795218  
      11B2     4.103914    11B1     4.103914    12B2     4.288650  
      12B1     4.288650     5A2     4.554313    20A1     4.554313  
      21A1     4.932785    13B2     5.582134    13B1     5.582134  
       6A2     5.875274    22A1     5.875274    23A1     6.111544  
      14B2     7.045342    14B1     7.045342    24A1     7.101930  
      25A1     8.071377    26A1    20.356037  

    Beta Occupied:                                                        

       1A1   -14.297536     2A1   -10.257664     3A1    -0.905905  
       1B2    -0.588962     1B1    -0.588962     4A1    -0.299541  

    Beta Virtual:                                                         

       5A1    -0.199468     2B2     0.159439     2B1     0.159439  
       6A1     0.198774     7A1     0.273041     3B2     0.328839  
       3B1     0.328839     8A1     0.510479     4B2     0.627227  
       4B1     0.627227     1A2     0.635670     9A1     0.635670  
      10A1     0.903684     5B2     1.101428     5B1     1.101428  
      11A1     1.207639     2A2     1.325001    12A1     1.325001  
       6B2     1.441490     6B1     1.441490    13A1     1.580187  
       7B2     2.070606     7B1     2.070606    14A1     2.285095  
       8B2     2.626635     8B1     2.626635    15A1     2.752537  
       3A2     2.831128    16A1     2.831129     9B2     2.999811  
       9B1     2.999811    17A1     3.089833     4A2     3.097311  
      18A1     3.097312    10B2     3.507880    10B1     3.507880  
      19A1     3.817671    11B2     4.126274    11B1     4.126274  
      12B2     4.293782    12B1     4.293782     5A2     4.556307  
      20A1     4.556307    21A1     4.954114    13B2     5.602257  
      13B1     5.602257     6A2     5.890217    22A1     5.890218  
      23A1     6.127090    14B2     7.068697    14B1     7.068697  
      24A1     7.138132    25A1     8.097048    26A1    20.377937  

    Final Occupation by Irrep:
             A1    A2    B1    B2 
    DOCC [     4,    0,    1,    1 ]
    SOCC [     1,    0,    0,    0 ]
    NA   [     5,    0,    1,    1 ]
    NB   [     4,    0,    1,    1 ]

  @DF-UKS Final Energy:   -90.77935252900474

   => Energetics <=

    Nuclear Repulsion Energy =             34.0577013281702534
    One-Electron Energy =                -187.6809497836226228
    Two-Electron Energy =                  73.4675241442468234
    DFT Exchange-Correlation Energy =     -10.6236282177991903
    Empirical Dispersion Energy =           0.0000000000000000
    VV10 Nonlocal Energy =                  0.0000000000000000
    Total Energy =                        -90.7793525290047398

  UHF NO Occupations:
  HONO-2 :    1 B2 1.9996001
  HONO-1 :    1 B1 1.9996001
  HONO-0 :    5 A1 1.0000000
  LUNO+0 :    2 B2 0.0003999
  LUNO+1 :    2 B1 0.0003999
  LUNO+2 :    6 A1 0.0002245
  LUNO+3 :    7 A1 0.0000273


Computation Completed


Properties will be evaluated at   0.000000,   0.000000,   0.000000 [a0]

Properties computed using the SCF density matrix


 Multipole Moments:

 ------------------------------------------------------------------------------------
     Multipole            Electronic (a.u.)      Nuclear  (a.u.)        Total (a.u.)
 ------------------------------------------------------------------------------------

 L = 1.  Multiply by 2.5417464519 to convert [e a0] to [Debye]
 Dipole X            :          0.0000000            0.0000000            0.0000000
 Dipole Y            :          0.0000000            0.0000000            0.0000000
 Dipole Z            :          0.7989343            0.0008747            0.7998090
 Magnitude           :                                                    0.7998090

 ------------------------------------------------------------------------------------

*** tstop() called on Mac.lan at Tue Aug 26 22:15:24 2025
Module time:
	user time   =      29.33 seconds =       0.49 minutes
	system time =       2.15 seconds =       0.04 minutes
	total time  =          3 seconds =       0.05 minutes
Total time:
	user time   =      29.33 seconds =       0.49 minutes
	system time =       2.15 seconds =       0.04 minutes
	total time  =          3 seconds =       0.05 minutes

*** tstart() called on Mac.lan
*** at Tue Aug 26 22:15:24 2025

   => Libint2 <=

    Primary   basis highest AM E, G, H:  6, 6, 3
    Auxiliary basis highest AM E, G, H:  7, 7, 4
    Onebody   basis highest AM E, G, H:  -, -, -
    Solid Harmonics ordering:            Gaussian
   => Loading Basis Set <=

    Name: CC-PVTZ
    Role: ORBITAL
    Keyword: BASIS
    atoms 1 entry N          line   224 file /Users/joseantoniorodriguesromero/anaconda3/share/psi4/basis/cc-pvtz.gbs 
    atoms 2 entry C          line   186 file /Users/joseantoniorodriguesromero/anaconda3/share/psi4/basis/cc-pvtz.gbs 


         ---------------------------------------------------------
                                   SCF
               by Justin Turney, Rob Parrish, Andy Simmonett
                          and Daniel G. A. Smith
                              UKS Reference
                        1 Threads,    500 MiB Core
         ---------------------------------------------------------

  ==> Geometry <==

    Molecular point group: c2v
    Full point group: C_inf_v

    Geometry (in Angstrom), charge = 0, multiplicity = 2:

       Center              X                  Y                   Z               Mass       
    ------------   -----------------  -----------------  -----------------  -----------------
         N            0.000000000000     0.000000000000    -0.301156086341    14.003074004430
         C            0.000000000000     0.000000000000     0.351425913659    12.000000000000

  Running in c2v symmetry.

  Rotational constants: A = ************  B =      6.12557  C =      6.12557 [cm^-1]
  Rotational constants: A = ************  B = 183639.91374  C = 183639.91374 [MHz]
  Nuclear repulsion =   34.057701328170253

  Charge       = 0
  Multiplicity = 2
  Electrons    = 13
  Nalpha       = 7
  Nbeta        = 6

  ==> Algorithm <==

  SCF Algorithm Type is DF.
  DIIS enabled.
  MOM disabled.
  Fractional occupation disabled.
  Guess Type is READ.
  Energy threshold   = 1.00e-08
  Density threshold  = 1.00e-08
  Integral threshold = 1.00e-12

  ==> Primary Basis <==

  Basis Set: CC-PVTZ
    Blend: CC-PVTZ
    Number of shells: 20
    Number of basis functions: 60
    Number of Cartesian functions: 70
    Spherical Harmonics?: true
    Max angular momentum: 3

  ==> DFT Potential <==

   => LibXC <=

    Version 6.2.2
    S. Lehtola, C. Steigemann, M. J.T. Oliveira, and M. A.L. Marques.,  SoftwareX 7, 1–5 (2018) (10.1016/j.softx.2017.11.002)

   => Composite Functional: B3LYP <= 

    B3LYP Hyb-GGA Exchange-Correlation Functional

    P. J. Stephens, F. J. Devlin, C. F. Chabalowski, and M. J. Frisch.,  J. Phys. Chem. 98, 11623 (1994) (10.1021/j100096a001)

    Deriv               =              1
    GGA                 =           TRUE
    Meta                =          FALSE

    Exchange Hybrid     =           TRUE
    MP2 Hybrid          =          FALSE

   => Exchange Functionals <=

    0.0800   Slater exchange
    0.7200         Becke 88

   => Exact (HF) Exchange <=

    0.2000               HF 

   => Correlation Functionals <=

    0.1900   Vosko, Wilk & Nusair (VWN5_RPA)
    0.8100   Lee, Yang & Parr

   => LibXC Density Thresholds  <==

    XC_HYB_GGA_XC_B3LYP:  1.00E-15 

   => Molecular Quadrature <=

    Radial Scheme          =       TREUTLER
    Pruning Scheme         =           NONE
    Nuclear Scheme         =       TREUTLER

    Blocking Scheme        =         OCTREE
    BS radius alpha        =              1
    Pruning alpha          =              1
    Radial Points          =             75
    Spherical Points       =            302
    Total Points           =          43119
    Total Blocks           =            390
    Max Points             =            256
    Max Functions          =             60
    Weights Tolerance      =       1.00E-15

   => Loading Basis Set <=

    Name: (CC-PVTZ AUX)
    Role: JKFIT
    Keyword: DF_BASIS_SCF
    atoms 1 entry N          line   177 file /Users/joseantoniorodriguesromero/anaconda3/share/psi4/basis/cc-pvtz-jkfit.gbs 
    atoms 2 entry C          line   125 file /Users/joseantoniorodriguesromero/anaconda3/share/psi4/basis/cc-pvtz-jkfit.gbs 

   => Loading Basis Set <=

    Name: CC-PVTZ
    Role: ORBITAL
    Keyword: BASIS
    atoms 1 entry N          line   224 file /Users/joseantoniorodriguesromero/anaconda3/share/psi4/basis/cc-pvtz.gbs 
    atoms 2 entry C          line   186 file /Users/joseantoniorodriguesromero/anaconda3/share/psi4/basis/cc-pvtz.gbs 

  Reading orbitals from file /tmp/scan_CN_3.default.61080.180.npy, no projection.

  ==> Integral Setup <==

  DFHelper Memory: AOs need 0.005 GiB; user supplied 0.294 GiB. 
  Using in-core AOs.

  ==> MemDFJK: Density-Fitted J/K Matrices <==

    J tasked:                   Yes
    K tasked:                   Yes
    wK tasked:                   No
    OpenMP threads:               1
    Memory [MiB]:               300
    Algorithm:                 Core
    Schwarz Cutoff:           1E-12
    Mask sparsity (%):       0.0000
    Fitting Condition:        1E-10

   => Auxiliary Basis Set <=

  Basis Set: (CC-PVTZ AUX)
    Blend: CC-PVTZ-JKFIT
    Number of shells: 50
    Number of basis functions: 158
    Number of Cartesian functions: 192
    Spherical Harmonics?: true
    Max angular momentum: 4

  Cached 100.0% of DFT collocation blocks in 0.072 [GiB].

  Minimum eigenvalue in the overlap matrix is 1.4076406065E-03.
  Reciprocal condition number of the overlap matrix is 3.1977038723E-04.
    Using symmetric orthogonalization.

  ==> Pre-Iterations <==

  SCF Guess: Orbitals guess was supplied from a previous computation.

   -------------------------------------------------------
    Irrep   Nso     Nmo     Nalpha   Nbeta   Ndocc  Nsocc
   -------------------------------------------------------
     A1        26      26       5       4       4       1
     A2         6       6       0       0       0       0
     B1        14      14       1       1       1       0
     B2        14      14       1       1       1       0
   -------------------------------------------------------
    Total      60      60       7       6       6       1
   -------------------------------------------------------

  ==> Iterations <==

                           Total Energy        Delta E     RMS |[F,P]|

   @DF-UKS iter   0:   -90.77935252900787   -9.07794e+01   1.09974e-11 
   @DF-UKS iter   1:   -90.77935252900795   -8.52651e-14   5.66906e-12 DIIS
  Energy and wave function converged.


  ==> Post-Iterations <==

   Electrons on quadrature grid:
      Nalpha   =    6.9999998912 ; deviation = -1.088e-07
      Nbeta    =    5.9999998912 ; deviation = -1.088e-07
      Ntotal   =   12.9999997824 ; deviation = -2.176e-07 

   @Spin Contamination Metric:   2.103823859E-03
   @S^2 Expected:                7.500000000E-01
   @S^2 Observed:                7.521038239E-01
   @S   Expected:                5.000000000E-01
   @S   Observed:                5.000000000E-01

    Orbital Energies [Eh]
    ---------------------

    Alpha Occupied:                                                       

       1A1   -14.302661     2A1   -10.275760     3A1    -0.918551  
       1B2    -0.602422     1B1    -0.602422     4A1    -0.421158  
       5A1    -0.304647  

    Alpha Virtual:                                                        

       2B2     0.146829     2B1     0.146829     6A1     0.191259  
       7A1     0.228163     3B2     0.314495     3B1     0.314495  
       8A1     0.494237     4B2     0.597776     4B1     0.597776  
       1A2     0.623012     9A1     0.623012    10A1     0.859756  
       5B2     1.080018     5B1     1.080018    11A1     1.187740  
       2A2     1.321405    12A1     1.321406     6B2     1.430010  
       6B1     1.430010    13A1     1.544681     7B2     2.046767  
       7B1     2.046767    14A1     2.247492     8B2     2.608404  
       8B1     2.608404    15A1     2.656827     3A2     2.794544  
      16A1     2.794544     9B2     2.909193     9B1     2.909193  
      17A1     3.023850     4A2     3.055594    18A1     3.055594  
      10B2     3.492125    10B1     3.492125    19A1     3.795218  
      11B2     4.103914    11B1     4.103914    12B2     4.288650  
      12B1     4.288650     5A2     4.554313    20A1     4.554313  
      21A1     4.932785    13B2     5.582134    13B1     5.582134  
       6A2     5.875274    22A1     5.875274    23A1     6.111544  
      14B2     7.045342    14B1     7.045342    24A1     7.101930  
      25A1     8.071377    26A1    20.356037  

    Beta Occupied:                                                        

       1A1   -14.297536     2A1   -10.257664     3A1    -0.905905  
       1B2    -0.588962     1B1    -0.588962     4A1    -0.299541  

    Beta Virtual:                                                         

       5A1    -0.199468     2B2     0.159439     2B1     0.159439  
       6A1     0.198774     7A1     0.273041     3B2     0.328839  
       3B1     0.328839     8A1     0.510479     4B2     0.627227  
       4B1     0.627227     1A2     0.635670     9A1     0.635670  
      10A1     0.903684     5B2     1.101428     5B1     1.101428  
      11A1     1.207639     2A2     1.325001    12A1     1.325001  
       6B2     1.441490     6B1     1.441490    13A1     1.580187  
       7B2     2.070606     7B1     2.070606    14A1     2.285095  
       8B2     2.626635     8B1     2.626635    15A1     2.752537  
       3A2     2.831128    16A1     2.831129     9B2     2.999811  
       9B1     2.999811    17A1     3.089833     4A2     3.097311  
      18A1     3.097312    10B2     3.507880    10B1     3.507880  
      19A1     3.817671    11B2     4.126274    11B1     4.126274  
      12B2     4.293782    12B1     4.293782     5A2     4.556307  
      20A1     4.556307    21A1     4.954114    13B2     5.602257  
      13B1     5.602257     6A2     5.890217    22A1     5.890218  
      23A1     6.127090    14B2     7.068697    14B1     7.068697  
      24A1     7.138132    25A1     8.097048    26A1    20.377937  

    Final Occupation by Irrep:
             A1    A2    B1    B2 
    DOCC [     4,    0,    1,    1 ]
    SOCC [     1,    0,    0,    0 ]
    NA   [     5,    0,    1,    1 ]
    NB   [     4,    0,    1,    1 ]

  @DF-UKS Final Energy:   -90.77935252900795

   => Energetics <=

    Nuclear Repulsion Energy =             34.0577013281702534
    One-Electron Energy =                -187.6809497937879030
    Two-Electron Energy =                  73.4675241540663251
    DFT Exchange-Correlation Energy =     -10.6236282174566323
    Empirical Dispersion Energy =           0.0000000000000000
    VV10 Nonlocal Energy =                  0.0000000000000000
    Total Energy =                        -90.7793525290079515

  UHF NO Occupations:
  HONO-2 :    1 B2 1.9996001
  HONO-1 :    1 B1 1.9996001
  HONO-0 :    5 A1 1.0000000
  LUNO+0 :    2 B2 0.0003999
  LUNO+1 :    2 B1 0.0003999
  LUNO+2 :    6 A1 0.0002245
  LUNO+3 :    7 A1 0.0000273


Computation Completed


Properties will be evaluated at   0.000000,   0.000000,   0.000000 [a0]

Properties computed using the B3LYP density matrix


 Multipole Moments:

 ------------------------------------------------------------------------------------
     Multipole            Electronic (a.u.)      Nuclear  (a.u.)        Total (a.u.)
 ------------------------------------------------------------------------------------

 L = 1.  Multiply by 2.5417464519 to convert [e a0] to [Debye]
 Dipole X            :          0.0000000            0.0000000            0.0000000
 Dipole Y            :          0.0000000            0.0000000            0.0000000
 Dipole Z            :          0.7989343            0.0008747            0.7998090
 Magnitude           :                                                    0.7998090

 L = 2.  Multiply by 1.3450342976 to convert [e a0^2] to [Debye ang]
 Quadrupole XX       :         -6.4437250            0.0000000           -6.4437250
 Quadrupole XY       :          0.0000000            0.0000000            0.0000000
 Quadrupole XZ       :          0.0000000            0.0000000            0.0000000
 Quadrupole YY       :         -6.4437250            0.0000000           -6.4437250
 Quadrupole YZ       :          0.0000000            0.0000000            0.0000000
 Quadrupole ZZ       :        -12.4576187            4.9133065           -7.5443122
 Traceless XX        :          2.0046312           -1.6377688            0.3668624
 Traceless YY        :          2.0046312           -1.6377688            0.3668624
 Traceless ZZ        :         -4.0092624            3.2755377           -0.7337248

 ------------------------------------------------------------------------------------
  ==> Computing MBIS Charges <==

  Electron Count from Grid (Expected Number): 13.00000 (13.00000)
  Difference:  0.00000

  MBIS Charges: (a.u.)
   Center  Symbol  Z      Pop.       Charge
      1       N    7    7.636375   -0.636375
      2       C    6    5.363625    0.636375

  MBIS Dipoles: [e a0]
   Center  Symbol  Z        X           Y           Z
      1       N    7   -0.000000    0.000000   -0.000932
      2       C    6   -0.000000    0.000000    0.015962

  MBIS Quadrupoles: [e a0^2]
   Center  Symbol  Z      XX        XY        XZ        YY        YZ        ZZ
      1       N    7   -3.8529    0.0000   -0.0000   -3.8529   -0.0000   -4.6104
      2       C    6   -2.5909    0.0000    0.0000   -2.5909    0.0000   -3.0307

  MBIS Octupoles: [e a0^3]
   Center  Symbol  Z      XXX       XXY       XXZ       XYY       XYZ       XZZ       YYY       YYZ       YZZ       ZZZ
      1       N    7   -0.0000   -0.0000    0.1679   -0.0000   -0.0000    0.0000   -0.0000    0.1679    0.0000    0.9068
      2       C    6   -0.0000   -0.0000   -0.1753   -0.0000    0.0000    0.0000    0.0000   -0.1753    0.0000   -0.7277

  MBIS Radial Moments:
   Center  Symbol  Z      [a0^2]      [a0^3]      [a0^4]      
      1       N    7   12.316155   25.252974   62.803025
      2       C    6    8.212421   17.460192   45.422942

  MBIS Valence Widths: [a0]
   Center  Symbol  Z     Width
      1       N    7    0.411309
      2       C    6    0.425369

*** tstop() called on Mac.lan at Tue Aug 26 22:15:25 2025
Module time:
	user time   =       4.96 seconds =       0.08 minutes
	system time =       2.83 seconds =       0.05 minutes
	total time  =          1 seconds =       0.02 minutes
Total time:
	user time   =      34.37 seconds =       0.57 minutes
	system time =       5.14 seconds =       0.09 minutes
	total time  =          4 seconds =       0.07 minutes

    Psi4 stopped on: Tuesday, 26 August 2025 10:15PM
    Psi4 wall time for execution: 0:00:04.14

*** Psi4 exiting successfully. Buy a developer a beer!
