
    -----------------------------------------------------------------------
          Psi4: An Open-Source Ab Initio Electronic Structure Package
                               Psi4 1.9.1 release

                         Git: Rev {} zzzzzzz 


    D. G. A. Smith, L. A. Burns, A. C. Simmonett, R. M. Parrish,
    M. C. Schieber, R. Galvelis, P. Kraus, H. Kruse, R. Di Remigio,
    A. Alenaizan, A. M. James, S. Lehtola, J. P. Misiewicz, M. Scheurer,
    R. A. Shaw, J. B. Schriber, Y. Xie, Z. L. Glick, D. A. Sirianni,
    J. S. O'Brien, J. M. Waldrop, A. Kumar, E. G. Hohenstein,
    B. P. Pritchard, B. R. Brooks, H. F. Schaefer III, A. Yu. Sokolov,
    K. Patkowski, A. E. DePrince III, U. Bozkaya, R. A. King,
    F. A. Evangelista, J. M. Turney, T. D. Crawford, C. D. Sherrill,
    J. Chem. Phys. 152(18) 184108 (2020). https://doi.org/10.1063/5.0006002

                            Additional Code Authors
    E. T. Seidl, C. L. Janssen, E. F. Valeev, M. L. Leininger,
    J. F. Gonthier, R. M. Richard, H. R. McAlexander, M. Saitow, X. Wang,
    P. Verma, M. H. Lechner, A. Jiang, S. Behnle, A. G. Heide,
    M. F. Herbst, and D. L. Poole

             Previous Authors, Complete List of Code Contributors,
                       and Citations for Specific Modules
    https://github.com/psi4/psi4/blob/master/codemeta.json
    https://github.com/psi4/psi4/graphs/contributors
    http://psicode.org/psi4manual/master/introduction.html#citing-psifour

    -----------------------------------------------------------------------


    Psi4 started on: Tuesday, 26 August 2025 09:46PM

    Process ID: 60674
    Host:       Mac.lan
    PSIDATADIR: /Users/joseantoniorodriguesromero/anaconda3/share/psi4
    Memory:     500.0 MiB
    Threads:    1
    
  ==> Input File <==

--------------------------------------------------------------------------
molecule { 
0 1
N           0.000000           0.000000           0.000000
N           0.000000           0.000000           1.046783
}

set { 
basis              cc-pvtz
reference          uks
maxiter            500
DAMPING_PERCENTAGE 1
E_CONVERGENCE      1.0E-8
D_CONVERGENCE      1.0E-8
DIIS_MAX_VECS      400
MBIS_MAXITER       8000
guess              read
}

E, wfn = energy('b3lyp', restart_file='last_wfn', return_wfn=True)
properties('b3lyp','MBIS_CHARGES', wfn=wfn)
wfn.to_file('last_wfn')
--------------------------------------------------------------------------

Scratch directory: /tmp/
 Found user provided orbital data. Setting orbital guess to READ 
 Copying restart file <last_wfn.npy> to </tmp/scan_NN_16.default.60674.180.npy> for internal processing
   => Libint2 <=

    Primary   basis highest AM E, G, H:  6, 6, 3
    Auxiliary basis highest AM E, G, H:  7, 7, 4
    Onebody   basis highest AM E, G, H:  -, -, -
    Solid Harmonics ordering:            Gaussian

*** tstart() called on Mac.lan
*** at Tue Aug 26 21:46:08 2025

   => Loading Basis Set <=

    Name: CC-PVTZ
    Role: ORBITAL
    Keyword: BASIS
    atoms 1-2 entry N          line   224 file /Users/joseantoniorodriguesromero/anaconda3/share/psi4/basis/cc-pvtz.gbs 


         ---------------------------------------------------------
                                   SCF
               by Justin Turney, Rob Parrish, Andy Simmonett
                          and Daniel G. A. Smith
                              UKS Reference
                        1 Threads,    500 MiB Core
         ---------------------------------------------------------

  ==> Geometry <==

    Molecular point group: d2h
    Full point group: D_inf_h

    Geometry (in Angstrom), charge = 0, multiplicity = 1:

       Center              X                  Y                   Z               Mass       
    ------------   -----------------  -----------------  -----------------  -----------------
         N            0.000000000000     0.000000000000    -0.523391500000    14.003074004430
         N            0.000000000000     0.000000000000     0.523391500000    14.003074004430

  Running in d2h symmetry.

  Rotational constants: A = ************  B =      2.19730  C =      2.19730 [cm^-1]
  Rotational constants: A = ************  B =  65873.46208  C =  65873.46208 [MHz]
  Nuclear repulsion =   24.770829601579315

  Charge       = 0
  Multiplicity = 1
  Electrons    = 14
  Nalpha       = 7
  Nbeta        = 7

  ==> Algorithm <==

  SCF Algorithm Type is DF.
  DIIS enabled.
  MOM disabled.
  Fractional occupation disabled.
  Guess Type is READ.
  Energy threshold   = 1.00e-08
  Density threshold  = 1.00e-08
  Integral threshold = 1.00e-12

  ==> Primary Basis <==

  Basis Set: CC-PVTZ
    Blend: CC-PVTZ
    Number of shells: 20
    Number of basis functions: 60
    Number of Cartesian functions: 70
    Spherical Harmonics?: true
    Max angular momentum: 3

  ==> DFT Potential <==

   => LibXC <=

    Version 6.2.2
    S. Lehtola, C. Steigemann, M. J.T. Oliveira, and M. A.L. Marques.,  SoftwareX 7, 1–5 (2018) (10.1016/j.softx.2017.11.002)

   => Composite Functional: B3LYP <= 

    B3LYP Hyb-GGA Exchange-Correlation Functional

    P. J. Stephens, F. J. Devlin, C. F. Chabalowski, and M. J. Frisch.,  J. Phys. Chem. 98, 11623 (1994) (10.1021/j100096a001)

    Deriv               =              1
    GGA                 =           TRUE
    Meta                =          FALSE

    Exchange Hybrid     =           TRUE
    MP2 Hybrid          =          FALSE

   => Exchange Functionals <=

    0.0800   Slater exchange
    0.7200         Becke 88

   => Exact (HF) Exchange <=

    0.2000               HF 

   => Correlation Functionals <=

    0.1900   Vosko, Wilk & Nusair (VWN5_RPA)
    0.8100   Lee, Yang & Parr

   => LibXC Density Thresholds  <==

    XC_HYB_GGA_XC_B3LYP:  1.00E-15 

   => Molecular Quadrature <=

    Radial Scheme          =       TREUTLER
    Pruning Scheme         =           NONE
    Nuclear Scheme         =       TREUTLER

    Blocking Scheme        =         OCTREE
    BS radius alpha        =              1
    Pruning alpha          =              1
    Radial Points          =             75
    Spherical Points       =            302
    Total Points           =          42424
    Total Blocks           =            378
    Max Points             =            255
    Max Functions          =             60
    Weights Tolerance      =       1.00E-15

   => Loading Basis Set <=

    Name: (CC-PVTZ AUX)
    Role: JKFIT
    Keyword: DF_BASIS_SCF
    atoms 1-2 entry N          line   177 file /Users/joseantoniorodriguesromero/anaconda3/share/psi4/basis/cc-pvtz-jkfit.gbs 

   => Loading Basis Set <=

    Name: CC-PVTZ
    Role: ORBITAL
    Keyword: BASIS
    atoms 1-2 entry N          line   224 file /Users/joseantoniorodriguesromero/anaconda3/share/psi4/basis/cc-pvtz.gbs 

  Reading orbitals from file /tmp/scan_NN_16.default.60674.180.npy, no projection.

  ==> Integral Setup <==

  DFHelper Memory: AOs need 0.005 GiB; user supplied 0.295 GiB. 
  Using in-core AOs.

  ==> MemDFJK: Density-Fitted J/K Matrices <==

    J tasked:                   Yes
    K tasked:                   Yes
    wK tasked:                   No
    OpenMP threads:               1
    Memory [MiB]:               302
    Algorithm:                 Core
    Schwarz Cutoff:           1E-12
    Mask sparsity (%):       0.0000
    Fitting Condition:        1E-10

   => Auxiliary Basis Set <=

  Basis Set: (CC-PVTZ AUX)
    Blend: CC-PVTZ-JKFIT
    Number of shells: 50
    Number of basis functions: 158
    Number of Cartesian functions: 192
    Spherical Harmonics?: true
    Max angular momentum: 4

  Cached 100.0% of DFT collocation blocks in 0.071 [GiB].

  Minimum eigenvalue in the overlap matrix is 1.9380814048E-03.
  Reciprocal condition number of the overlap matrix is 5.0901883339E-04.
    Using symmetric orthogonalization.

  ==> Pre-Iterations <==

  SCF Guess: Orbitals guess was supplied from a previous computation.

   -------------------------------------------------------
    Irrep   Nso     Nmo     Nalpha   Nbeta   Ndocc  Nsocc
   -------------------------------------------------------
     Ag        13      13       3       3       3       0
     B1g        3       3       0       0       0       0
     B2g        7       7       0       0       0       0
     B3g        7       7       0       0       0       0
     Au         3       3       0       0       0       0
     B1u       13      13       2       2       2       0
     B2u        7       7       1       1       1       0
     B3u        7       7       1       1       1       0
   -------------------------------------------------------
    Total      60      60       7       7       7       0
   -------------------------------------------------------

  ==> Iterations <==

                           Total Energy        Delta E     RMS |[F,P]|

   @DF-UKS iter   0:  -109.58182442789405   -1.09582e+02   7.39731e-03 
   @DF-UKS iter   1:  -109.56192352745403    1.99009e-02   8.57302e-04 DIIS/ADIIS
   @DF-UKS iter   2:  -109.56204072256467   -1.17195e-04   6.06110e-04 DIIS/ADIIS/DAMP=1%
   @DF-UKS iter   3:  -109.56250384494328   -4.63122e-04   3.70318e-05 DIIS/DAMP=1%
   @DF-UKS iter   4:  -109.56210405901008    3.99786e-04   1.06996e-05 DIIS/DAMP=1%
   @DF-UKS iter   5:  -109.56212436924341   -2.03102e-05   5.63339e-07 DIIS/DAMP=1%
   @DF-UKS iter   6:  -109.56211770077985    6.66846e-06   3.06429e-08 DIIS/DAMP=1%
   @DF-UKS iter   7:  -109.56211743880905    2.61971e-07   1.85175e-09 DIIS/DAMP=1%
   @DF-UKS iter   8:  -109.56211741874729    2.00618e-08   1.35559e-10 DIIS/DAMP=1%
   @DF-UKS iter   9:  -109.56211741808440    6.62894e-10   5.64970e-12 DIIS/DAMP=1%
  Energy and wave function converged.


  ==> Post-Iterations <==

   Electrons on quadrature grid:
      Nalpha   =    6.9999998097 ; deviation = -1.903e-07
      Nbeta    =    6.9999998097 ; deviation = -1.903e-07
      Ntotal   =   13.9999996194 ; deviation = -3.806e-07 

   @Spin Contamination Metric:   7.105427358E-15
   @S^2 Expected:                0.000000000E+00
   @S^2 Observed:                7.105427358E-15
   @S   Expected:                0.000000000E+00
   @S   Observed:                0.000000000E+00

    Orbital Energies [Eh]
    ---------------------

    Alpha Occupied:                                                       

       1Ag   -14.406796     1B1u  -14.404009     2Ag    -1.158164  
       2B1u   -0.541895     1B3u   -0.486504     1B2u   -0.486504  
       3Ag    -0.436652  

    Alpha Virtual:                                                        

       1B2g   -0.003373     1B3g   -0.003373     3B1u    0.299370  
       2B3u    0.382848     2B2u    0.382848     4Ag     0.404592  
       5Ag     0.489842     2B2g    0.539074     2B3g    0.539074  
       4B1u    0.734266     1B1g    0.830490     6Ag     0.830490  
       5B1u    0.920262     3B3u    1.127352     3B2u    1.127352  
       6B1u    1.284317     1Au     1.284317     7Ag     1.672336  
       3B2g    1.688631     3B3g    1.688631     7B1u    2.020195  
       4B3u    2.733888     4B2u    2.733888     8Ag     2.945034  
       4B3g    3.129182     4B2g    3.129182     8B1u    3.334819  
       2B1g    3.477914     9Ag     3.477914     5B3u    3.572238  
       5B2u    3.572238     6B3u    3.635232     6B2u    3.635232  
      10Ag     4.014920     5B2g    4.117682     5B3g    4.117682  
       3B1g    4.359264    11Ag     4.359266     6B3g    4.424801  
       6B2g    4.424801     2Au     4.491710     9B1u    4.491712  
      10B1u    4.754034    11B1u    5.025718     3Au     5.025719  
      12Ag     5.027267     7B2u    5.069010     7B3u    5.069010  
      12B1u    5.855569     7B3g    6.631405     7B2g    6.631405  
      13Ag     6.829613    13B1u   17.794143  

    Beta Occupied:                                                        

       1Ag   -14.406796     1B1u  -14.404009     2Ag    -1.158164  
       2B1u   -0.541895     1B3u   -0.486504     1B2u   -0.486504  
       3Ag    -0.436652  

    Beta Virtual:                                                         

       1B2g   -0.003373     1B3g   -0.003373     3B1u    0.299370  
       2B3u    0.382848     2B2u    0.382848     4Ag     0.404592  
       5Ag     0.489842     2B2g    0.539074     2B3g    0.539074  
       4B1u    0.734266     1B1g    0.830490     6Ag     0.830490  
       5B1u    0.920262     3B3u    1.127352     3B2u    1.127352  
       6B1u    1.284317     1Au     1.284317     7Ag     1.672336  
       3B2g    1.688631     3B3g    1.688631     7B1u    2.020195  
       4B3u    2.733888     4B2u    2.733888     8Ag     2.945034  
       4B3g    3.129182     4B2g    3.129182     8B1u    3.334819  
       2B1g    3.477914     9Ag     3.477914     5B3u    3.572238  
       5B2u    3.572238     6B3u    3.635232     6B2u    3.635232  
      10Ag     4.014920     5B2g    4.117682     5B3g    4.117682  
       3B1g    4.359264    11Ag     4.359266     6B3g    4.424801  
       6B2g    4.424801     2Au     4.491710     9B1u    4.491712  
      10B1u    4.754034    11B1u    5.025718     3Au     5.025719  
      12Ag     5.027267     7B2u    5.069010     7B3u    5.069010  
      12B1u    5.855569     7B3g    6.631405     7B2g    6.631405  
      13Ag     6.829613    13B1u   17.794143  

    Final Occupation by Irrep:
             Ag   B1g   B2g   B3g    Au   B1u   B2u   B3u 
    DOCC [     3,    0,    0,    0,    0,    2,    1,    1 ]
    SOCC [     0,    0,    0,    0,    0,    0,    0,    0 ]
    NA   [     3,    0,    0,    0,    0,    2,    1,    1 ]
    NB   [     3,    0,    0,    0,    0,    2,    1,    1 ]

  @DF-UKS Final Energy:  -109.56211741808440

   => Energetics <=

    Nuclear Repulsion Energy =             24.7708296015793152
    One-Electron Energy =                -196.8145545816024082
    Two-Electron Energy =                  73.6183095498788305
    DFT Exchange-Correlation Energy =     -11.1367019879401390
    Empirical Dispersion Energy =           0.0000000000000000
    VV10 Nonlocal Energy =                  0.0000000000000000
    Total Energy =                       -109.5621174180843980

  UHF NO Occupations:
  HONO-2 :    1B2u 2.0000000
  HONO-1 :    3 Ag 2.0000000
  HONO-0 :    2B1u 2.0000000
  LUNO+0 :    3B1u 0.0000000
  LUNO+1 :    4 Ag 0.0000000
  LUNO+2 :    4B1u 0.0000000
  LUNO+3 :    5B1u 0.0000000


Computation Completed


Properties will be evaluated at   0.000000,   0.000000,   0.000000 [a0]

Properties computed using the SCF density matrix


 Multipole Moments:

 ------------------------------------------------------------------------------------
     Multipole            Electronic (a.u.)      Nuclear  (a.u.)        Total (a.u.)
 ------------------------------------------------------------------------------------

 L = 1.  Multiply by 2.5417464519 to convert [e a0] to [Debye]
 Dipole X            :          0.0000000            0.0000000            0.0000000
 Dipole Y            :          0.0000000            0.0000000            0.0000000
 Dipole Z            :          0.0000000            0.0000000            0.0000000
 Magnitude           :                                                    0.0000000

 ------------------------------------------------------------------------------------

*** tstop() called on Mac.lan at Tue Aug 26 21:46:09 2025
Module time:
	user time   =      12.55 seconds =       0.21 minutes
	system time =       2.13 seconds =       0.04 minutes
	total time  =          1 seconds =       0.02 minutes
Total time:
	user time   =      12.55 seconds =       0.21 minutes
	system time =       2.13 seconds =       0.04 minutes
	total time  =          1 seconds =       0.02 minutes

*** tstart() called on Mac.lan
*** at Tue Aug 26 21:46:09 2025

   => Libint2 <=

    Primary   basis highest AM E, G, H:  6, 6, 3
    Auxiliary basis highest AM E, G, H:  7, 7, 4
    Onebody   basis highest AM E, G, H:  -, -, -
    Solid Harmonics ordering:            Gaussian
   => Loading Basis Set <=

    Name: CC-PVTZ
    Role: ORBITAL
    Keyword: BASIS
    atoms 1-2 entry N          line   224 file /Users/joseantoniorodriguesromero/anaconda3/share/psi4/basis/cc-pvtz.gbs 


         ---------------------------------------------------------
                                   SCF
               by Justin Turney, Rob Parrish, Andy Simmonett
                          and Daniel G. A. Smith
                              UKS Reference
                        1 Threads,    500 MiB Core
         ---------------------------------------------------------

  ==> Geometry <==

    Molecular point group: d2h
    Full point group: D_inf_h

    Geometry (in Angstrom), charge = 0, multiplicity = 1:

       Center              X                  Y                   Z               Mass       
    ------------   -----------------  -----------------  -----------------  -----------------
         N            0.000000000000     0.000000000000    -0.523391500000    14.003074004430
         N            0.000000000000     0.000000000000     0.523391500000    14.003074004430

  Running in d2h symmetry.

  Rotational constants: A = ************  B =      2.19730  C =      2.19730 [cm^-1]
  Rotational constants: A = ************  B =  65873.46208  C =  65873.46208 [MHz]
  Nuclear repulsion =   24.770829601579315

  Charge       = 0
  Multiplicity = 1
  Electrons    = 14
  Nalpha       = 7
  Nbeta        = 7

  ==> Algorithm <==

  SCF Algorithm Type is DF.
  DIIS enabled.
  MOM disabled.
  Fractional occupation disabled.
  Guess Type is READ.
  Energy threshold   = 1.00e-08
  Density threshold  = 1.00e-08
  Integral threshold = 1.00e-12

  ==> Primary Basis <==

  Basis Set: CC-PVTZ
    Blend: CC-PVTZ
    Number of shells: 20
    Number of basis functions: 60
    Number of Cartesian functions: 70
    Spherical Harmonics?: true
    Max angular momentum: 3

  ==> DFT Potential <==

   => LibXC <=

    Version 6.2.2
    S. Lehtola, C. Steigemann, M. J.T. Oliveira, and M. A.L. Marques.,  SoftwareX 7, 1–5 (2018) (10.1016/j.softx.2017.11.002)

   => Composite Functional: B3LYP <= 

    B3LYP Hyb-GGA Exchange-Correlation Functional

    P. J. Stephens, F. J. Devlin, C. F. Chabalowski, and M. J. Frisch.,  J. Phys. Chem. 98, 11623 (1994) (10.1021/j100096a001)

    Deriv               =              1
    GGA                 =           TRUE
    Meta                =          FALSE

    Exchange Hybrid     =           TRUE
    MP2 Hybrid          =          FALSE

   => Exchange Functionals <=

    0.0800   Slater exchange
    0.7200         Becke 88

   => Exact (HF) Exchange <=

    0.2000               HF 

   => Correlation Functionals <=

    0.1900   Vosko, Wilk & Nusair (VWN5_RPA)
    0.8100   Lee, Yang & Parr

   => LibXC Density Thresholds  <==

    XC_HYB_GGA_XC_B3LYP:  1.00E-15 

   => Molecular Quadrature <=

    Radial Scheme          =       TREUTLER
    Pruning Scheme         =           NONE
    Nuclear Scheme         =       TREUTLER

    Blocking Scheme        =         OCTREE
    BS radius alpha        =              1
    Pruning alpha          =              1
    Radial Points          =             75
    Spherical Points       =            302
    Total Points           =          42424
    Total Blocks           =            378
    Max Points             =            255
    Max Functions          =             60
    Weights Tolerance      =       1.00E-15

   => Loading Basis Set <=

    Name: (CC-PVTZ AUX)
    Role: JKFIT
    Keyword: DF_BASIS_SCF
    atoms 1-2 entry N          line   177 file /Users/joseantoniorodriguesromero/anaconda3/share/psi4/basis/cc-pvtz-jkfit.gbs 

   => Loading Basis Set <=

    Name: CC-PVTZ
    Role: ORBITAL
    Keyword: BASIS
    atoms 1-2 entry N          line   224 file /Users/joseantoniorodriguesromero/anaconda3/share/psi4/basis/cc-pvtz.gbs 

  Reading orbitals from file /tmp/scan_NN_16.default.60674.180.npy, no projection.

  ==> Integral Setup <==

  DFHelper Memory: AOs need 0.005 GiB; user supplied 0.295 GiB. 
  Using in-core AOs.

  ==> MemDFJK: Density-Fitted J/K Matrices <==

    J tasked:                   Yes
    K tasked:                   Yes
    wK tasked:                   No
    OpenMP threads:               1
    Memory [MiB]:               302
    Algorithm:                 Core
    Schwarz Cutoff:           1E-12
    Mask sparsity (%):       0.0000
    Fitting Condition:        1E-10

   => Auxiliary Basis Set <=

  Basis Set: (CC-PVTZ AUX)
    Blend: CC-PVTZ-JKFIT
    Number of shells: 50
    Number of basis functions: 158
    Number of Cartesian functions: 192
    Spherical Harmonics?: true
    Max angular momentum: 4

  Cached 100.0% of DFT collocation blocks in 0.071 [GiB].

  Minimum eigenvalue in the overlap matrix is 1.9380814048E-03.
  Reciprocal condition number of the overlap matrix is 5.0901883339E-04.
    Using symmetric orthogonalization.

  ==> Pre-Iterations <==

  SCF Guess: Orbitals guess was supplied from a previous computation.

   -------------------------------------------------------
    Irrep   Nso     Nmo     Nalpha   Nbeta   Ndocc  Nsocc
   -------------------------------------------------------
     Ag        13      13       3       3       3       0
     B1g        3       3       0       0       0       0
     B2g        7       7       0       0       0       0
     B3g        7       7       0       0       0       0
     Au         3       3       0       0       0       0
     B1u       13      13       2       2       2       0
     B2u        7       7       1       1       1       0
     B3u        7       7       1       1       1       0
   -------------------------------------------------------
    Total      60      60       7       7       7       0
   -------------------------------------------------------

  ==> Iterations <==

                           Total Energy        Delta E     RMS |[F,P]|

   @DF-UKS iter   0:  -109.56211741799868   -1.09562e+02   1.91820e-13 
   @DF-UKS iter   1:  -109.56211741799854    1.42109e-13   1.17179e-13 DIIS
  Energy and wave function converged.


  ==> Post-Iterations <==

   Electrons on quadrature grid:
      Nalpha   =    6.9999998097 ; deviation = -1.903e-07
      Nbeta    =    6.9999998097 ; deviation = -1.903e-07
      Ntotal   =   13.9999996194 ; deviation = -3.806e-07 

   @Spin Contamination Metric:   5.329070518E-15
   @S^2 Expected:                0.000000000E+00
   @S^2 Observed:                5.329070518E-15
   @S   Expected:                0.000000000E+00
   @S   Observed:                0.000000000E+00

    Orbital Energies [Eh]
    ---------------------

    Alpha Occupied:                                                       

       1Ag   -14.406796     1B1u  -14.404009     2Ag    -1.158164  
       2B1u   -0.541895     1B3u   -0.486504     1B2u   -0.486504  
       3Ag    -0.436652  

    Alpha Virtual:                                                        

       1B2g   -0.003373     1B3g   -0.003373     3B1u    0.299370  
       2B3u    0.382848     2B2u    0.382848     4Ag     0.404592  
       5Ag     0.489842     2B2g    0.539074     2B3g    0.539074  
       4B1u    0.734266     1B1g    0.830490     6Ag     0.830490  
       5B1u    0.920262     3B3u    1.127352     3B2u    1.127352  
       6B1u    1.284317     1Au     1.284317     7Ag     1.672336  
       3B2g    1.688631     3B3g    1.688631     7B1u    2.020195  
       4B3u    2.733888     4B2u    2.733888     8Ag     2.945034  
       4B3g    3.129182     4B2g    3.129182     8B1u    3.334819  
       2B1g    3.477914     9Ag     3.477914     5B3u    3.572238  
       5B2u    3.572238     6B3u    3.635232     6B2u    3.635232  
      10Ag     4.014920     5B2g    4.117682     5B3g    4.117682  
       3B1g    4.359264    11Ag     4.359266     6B3g    4.424801  
       6B2g    4.424801     2Au     4.491710     9B1u    4.491712  
      10B1u    4.754034    11B1u    5.025718     3Au     5.025719  
      12Ag     5.027267     7B2u    5.069010     7B3u    5.069010  
      12B1u    5.855569     7B3g    6.631405     7B2g    6.631405  
      13Ag     6.829613    13B1u   17.794143  

    Beta Occupied:                                                        

       1Ag   -14.406796     1B1u  -14.404009     2Ag    -1.158164  
       2B1u   -0.541895     1B3u   -0.486504     1B2u   -0.486504  
       3Ag    -0.436652  

    Beta Virtual:                                                         

       1B2g   -0.003373     1B3g   -0.003373     3B1u    0.299370  
       2B3u    0.382848     2B2u    0.382848     4Ag     0.404592  
       5Ag     0.489842     2B2g    0.539074     2B3g    0.539074  
       4B1u    0.734266     1B1g    0.830490     6Ag     0.830490  
       5B1u    0.920262     3B3u    1.127352     3B2u    1.127352  
       6B1u    1.284317     1Au     1.284317     7Ag     1.672336  
       3B2g    1.688631     3B3g    1.688631     7B1u    2.020195  
       4B3u    2.733888     4B2u    2.733888     8Ag     2.945034  
       4B3g    3.129182     4B2g    3.129182     8B1u    3.334819  
       2B1g    3.477914     9Ag     3.477914     5B3u    3.572238  
       5B2u    3.572238     6B3u    3.635232     6B2u    3.635232  
      10Ag     4.014920     5B2g    4.117682     5B3g    4.117682  
       3B1g    4.359264    11Ag     4.359266     6B3g    4.424801  
       6B2g    4.424801     2Au     4.491710     9B1u    4.491712  
      10B1u    4.754034    11B1u    5.025718     3Au     5.025719  
      12Ag     5.027267     7B2u    5.069010     7B3u    5.069010  
      12B1u    5.855569     7B3g    6.631405     7B2g    6.631405  
      13Ag     6.829613    13B1u   17.794143  

    Final Occupation by Irrep:
             Ag   B1g   B2g   B3g    Au   B1u   B2u   B3u 
    DOCC [     3,    0,    0,    0,    0,    2,    1,    1 ]
    SOCC [     0,    0,    0,    0,    0,    0,    0,    0 ]
    NA   [     3,    0,    0,    0,    0,    2,    1,    1 ]
    NB   [     3,    0,    0,    0,    0,    2,    1,    1 ]

  @DF-UKS Final Energy:  -109.56211741799854

   => Energetics <=

    Nuclear Repulsion Energy =             24.7708296015793152
    One-Electron Energy =                -196.8145545810014596
    Two-Electron Energy =                  73.6183095493069999
    DFT Exchange-Correlation Energy =     -11.1367019878833933
    Empirical Dispersion Energy =           0.0000000000000000
    VV10 Nonlocal Energy =                  0.0000000000000000
    Total Energy =                       -109.5621174179985360

  UHF NO Occupations:
  HONO-2 :    3 Ag 2.0000000
  HONO-1 :    1B2u 2.0000000
  HONO-0 :    2B1u 2.0000000
  LUNO+0 :    3B1u 0.0000000
  LUNO+1 :    2B2u 0.0000000
  LUNO+2 :    4B1u 0.0000000
  LUNO+3 :    4 Ag 0.0000000


Computation Completed


Properties will be evaluated at   0.000000,   0.000000,   0.000000 [a0]

Properties computed using the B3LYP density matrix


 Multipole Moments:

 ------------------------------------------------------------------------------------
     Multipole            Electronic (a.u.)      Nuclear  (a.u.)        Total (a.u.)
 ------------------------------------------------------------------------------------

 L = 1.  Multiply by 2.5417464519 to convert [e a0] to [Debye]
 Dipole X            :          0.0000000            0.0000000            0.0000000
 Dipole Y            :          0.0000000            0.0000000            0.0000000
 Dipole Z            :          0.0000000            0.0000000            0.0000000
 Magnitude           :                                                    0.0000000

 L = 2.  Multiply by 1.3450342976 to convert [e a0^2] to [Debye ang]
 Quadrupole XX       :         -7.4215759            0.0000000           -7.4215759
 Quadrupole XY       :          0.0000000            0.0000000            0.0000000
 Quadrupole XZ       :          0.0000000            0.0000000            0.0000000
 Quadrupole YY       :         -7.4215759            0.0000000           -7.4215759
 Quadrupole YZ       :          0.0000000            0.0000000            0.0000000
 Quadrupole ZZ       :        -22.4064328           13.6955381           -8.7108947
 Traceless XX        :          4.9949523           -4.5651794            0.4297729
 Traceless YY        :          4.9949523           -4.5651794            0.4297729
 Traceless ZZ        :         -9.9899046            9.1303587           -0.8595459

 ------------------------------------------------------------------------------------
  ==> Computing MBIS Charges <==

  Electron Count from Grid (Expected Number): 14.00000 (14.00000)
  Difference: -0.00000

  MBIS Charges: (a.u.)
   Center  Symbol  Z      Pop.       Charge
      1       N    7    7.000000    0.000000
      2       N    7    7.000000    0.000000

  MBIS Dipoles: [e a0]
   Center  Symbol  Z        X           Y           Z
      1       N    7   -0.000000   -0.000000    0.076184
      2       N    7   -0.000000    0.000000   -0.076184

  MBIS Quadrupoles: [e a0^2]
   Center  Symbol  Z      XX        XY        XZ        YY        YZ        ZZ
      1       N    7   -3.7108    0.0000   -0.0000   -3.7108   -0.0000   -4.2047
      2       N    7   -3.7108    0.0000    0.0000   -3.7108    0.0000   -4.2047

  MBIS Octupoles: [e a0^3]
   Center  Symbol  Z      XXX       XXY       XXZ       XYY       XYZ       XZZ       YYY       YYZ       YZZ       ZZZ
      1       N    7   -0.0000   -0.0000    0.0742   -0.0000    0.0000    0.0000   -0.0000    0.0742    0.0000    0.2640
      2       N    7   -0.0000   -0.0000   -0.0742    0.0000   -0.0000   -0.0000    0.0000   -0.0742    0.0000   -0.2640

  MBIS Radial Moments:
   Center  Symbol  Z      [a0^2]      [a0^3]      [a0^4]      
      1       N    7   11.626320   23.835666   58.365159
      2       N    7   11.626320   23.835666   58.365159

  MBIS Valence Widths: [a0]
   Center  Symbol  Z     Width
      1       N    7    0.427479
      2       N    7    0.427479

*** tstop() called on Mac.lan at Tue Aug 26 21:46:10 2025
Module time:
	user time   =       4.09 seconds =       0.07 minutes
	system time =       1.98 seconds =       0.03 minutes
	total time  =          1 seconds =       0.02 minutes
Total time:
	user time   =      16.73 seconds =       0.28 minutes
	system time =       4.27 seconds =       0.07 minutes
	total time  =          2 seconds =       0.03 minutes

    Psi4 stopped on: Tuesday, 26 August 2025 09:46PM
    Psi4 wall time for execution: 0:00:02.06

*** Psi4 exiting successfully. Buy a developer a beer!
