
    -----------------------------------------------------------------------
          Psi4: An Open-Source Ab Initio Electronic Structure Package
                               Psi4 1.10 release

                         Git: Rev {} zzzzzzz 


    D. G. A. Smith, L. A. Burns, A. C. Simmonett, R. M. Parrish,
    M. C. Schieber, R. Galvelis, P. Kraus, H. Kruse, R. Di Remigio,
    A. Alenaizan, A. M. James, S. Lehtola, J. P. Misiewicz, M. Scheurer,
    R. A. Shaw, J. B. Schriber, Y. Xie, Z. L. Glick, D. A. Sirianni,
    J. S. O'Brien, J. M. Waldrop, A. Kumar, E. G. Hohenstein,
    B. P. Pritchard, B. R. Brooks, H. F. Schaefer III, A. Yu. Sokolov,
    K. Patkowski, A. E. DePrince III, U. Bozkaya, R. A. King,
    F. A. Evangelista, J. M. Turney, T. D. Crawford, C. D. Sherrill,
    J. Chem. Phys. 152(18) 184108 (2020). https://doi.org/10.1063/5.0006002

                            Additional Code Authors
    E. T. Seidl, C. L. Janssen, E. F. Valeev, M. L. Leininger,
    J. F. Gonthier, R. M. Richard, H. R. McAlexander, M. Saitow, X. Wang,
    P. Verma, M. H. Lechner, A. Jiang, S. Behnle, A. G. Heide,
    M. F. Herbst, D. L. Poole, T. Győri, E. C. Mitchell, J. P. Pederson,
    and A. M. Wallace

             Previous Authors, Complete List of Code Contributors,
                       and Citations for Specific Modules
    https://github.com/psi4/psi4/blob/master/codemeta.json
    https://github.com/psi4/psi4/graphs/contributors
    https://psicode.org/psi4manual/master/introduction.html#citing-psifour

    -----------------------------------------------------------------------


    Psi4 started on: Tuesday, 23 December 2025 01:44PM

    Process ID: 536942
    Host:       cics-quant-001
    PSIDATADIR: /home/jrodriguesro/psi4conda/share/psi4
    Memory:     500.0 MiB
    Threads:    5
    Addons:     adcc, a̶m̶b̶i̶t̶, b̶s̶e̶, c̶c̶t̶3̶, c̶f̶o̶u̶r̶, c̶h̶e̶m̶p̶s̶2̶, c̶p̶p̶e̶, ddx, dftd3, dftd4,
                dkh, ecpint, einsums, f̶o̶r̶t̶e̶, g̶a̶u̶x̶c̶, gcp, g̶d̶m̶a̶, geometric,
                g̶p̶u̶_̶d̶f̶c̶c̶, i̶n̶t̶e̶g̶r̶a̶t̶o̶r̶x̶x̶, i̶p̶i̶, libefp, m̶d̶i̶, m̶p̶2̶d̶,
                m̶r̶c̶c̶, ooo, o̶p̶e̶n̶f̶e̶r̶m̶i̶o̶n̶p̶s̶i̶4̶, pcmsolver, p̶s̶i̶4̶f̶o̶c̶k̶c̶i̶,
                p̶s̶i̶x̶a̶s̶, r̶e̶s̶p̶, s̶i̶m̶i̶n̶t̶, s̶n̶s̶m̶p̶2̶, v̶2̶r̶d̶m̶_̶c̶a̶s̶s̶c̶f̶

  ==> Input File <==

--------------------------------------------------------------------------
memory 8 Gb

molecule { 
0 2
O           0.000000           0.000000           0.000000
N           0.000000           0.000000           0.888698
}

set { 
basis              cc-pvtz
reference          uks
maxiter            500
DAMPING_PERCENTAGE 1
E_CONVERGENCE      1.0E-8
D_CONVERGENCE      1.0E-8
DIIS_MAX_VECS      400
MBIS_MAXITER       8000
guess              read
}

E, wfn = energy('b3lyp', restart_file='last_wfn', return_wfn=True)
properties('b3lyp','MBIS_CHARGES', wfn=wfn)
wfn.to_file('last_wfn')
--------------------------------------------------------------------------

  Memory set to   7.451 GiB by Python driver.

Scratch directory: /tmp/
 Found user provided orbital data. Setting orbital guess to READ 
 Copying restart file <last_wfn.npy> to </tmp/scan_NO_10.default.536942.180.npy> for internal processing
   => Libint2 <=

    Primary   basis highest AM E, G, H:  6, 6, 3
    Auxiliary basis highest AM E, G, H:  7, 7, 4
    Onebody   basis highest AM E, G, H:  -, -, -
    Solid Harmonics ordering:            Gaussian

*** tstart() called on cics-quant-001
*** at Tue Dec 23 13:44:28 2025

   => Loading Basis Set <=

    Name: CC-PVTZ
    Role: ORBITAL
    Keyword: BASIS
    atoms 1 entry O          line   262 file /home/jrodriguesro/psi4conda/share/psi4/basis/cc-pvtz.gbs 
    atoms 2 entry N          line   224 file /home/jrodriguesro/psi4conda/share/psi4/basis/cc-pvtz.gbs 


         ---------------------------------------------------------
                                   SCF
               by Justin Turney, Rob Parrish, Andy Simmonett
                          and Daniel G. A. Smith
                              UKS Reference
                        5 Threads,   7629 MiB Core
         ---------------------------------------------------------

  ==> Geometry <==

    Molecular point group: c2v
    Full point group: C_inf_v

    Geometry (in Angstrom), charge = 0, multiplicity = 2:

       Center              X                  Y                   Z               Mass       
    ------------   -----------------  -----------------  -----------------  -----------------
         O            0.000000000000     0.000000000000    -0.414844609003    15.994914619570
         N            0.000000000000     0.000000000000     0.473853390997    14.003074004430

  Running in c2v symmetry.

  Rotational constants: A = ************  B =      2.85874  C =      2.85874 [cm^-1]
  Rotational constants: A = ************  B =  85702.92011  C =  85702.92011 [MHz]
  Nuclear repulsion =   33.345325180792585

  Charge       = 0
  Multiplicity = 2
  Electrons    = 15
  Nalpha       = 8
  Nbeta        = 7

  ==> Algorithm <==

  SCF Algorithm Type is DF.
  DIIS enabled.
  MOM disabled.
  Fractional occupation disabled.
  Guess Type is READ.
  Energy threshold   = 1.00e-08
  Density threshold  = 1.00e-08
  Integral threshold = 1.00e-12

  ==> Primary Basis <==

  Basis Set: CC-PVTZ
    Blend: CC-PVTZ
    Number of shells: 20
    Number of basis functions: 60
    Number of Cartesian functions: 70
    Spherical Harmonics?: true
    Max angular momentum: 3

  ==> DFT Potential <==

   => LibXC <=

    Version 7.0.0
    S. Lehtola, C. Steigemann, M. J.T. Oliveira, and M. A.L. Marques.,  SoftwareX 7, 1–5 (2018) (10.1016/j.softx.2017.11.002)

   => Composite Functional: B3LYP <= 

    B3LYP Hyb-GGA Exchange-Correlation Functional

    P. J. Stephens, F. J. Devlin, C. F. Chabalowski, and M. J. Frisch.,  J. Phys. Chem. 98, 11623 (1994) (10.1021/j100096a001)

    Deriv               =              1
    GGA                 =           TRUE
    Meta                =          FALSE

    Exchange Hybrid     =           TRUE
    MP2 Hybrid          =          FALSE

   => Exchange Functionals <=

    0.0800   Slater exchange
    0.7200         Becke 88

   => Exact (HF) Exchange <=

    0.2000               HF 

   => Correlation Functionals <=

    0.1900   Vosko, Wilk & Nusair (VWN5_RPA)
    0.8100   Lee, Yang & Parr

   => LibXC Density Thresholds  <==

    XC_HYB_GGA_XC_B3LYP:  1.00E-15 

   => Molecular Quadrature <=

    Radial Scheme          =       TREUTLER
    Pruning Scheme         =           NONE
    Nuclear Scheme         =       TREUTLER

    Blocking Scheme        =         OCTREE
    BS radius alpha        =              1
    Pruning alpha          =              1
    Radial Points          =             75
    Spherical Points       =            302
    Total Points           =          42670
    Total Blocks           =            382
    Max Points             =            255
    Max Functions          =             60
    Weights Tolerance      =       1.00E-15

   => Loading Basis Set <=

    Name: (CC-PVTZ AUX)
    Role: JKFIT
    Keyword: DF_BASIS_SCF
    atoms 1 entry O          line   229 file /home/jrodriguesro/psi4conda/share/psi4/basis/cc-pvtz-jkfit.gbs 
    atoms 2 entry N          line   177 file /home/jrodriguesro/psi4conda/share/psi4/basis/cc-pvtz-jkfit.gbs 

   => Loading Basis Set <=

    Name: CC-PVTZ
    Role: ORBITAL
    Keyword: BASIS
    atoms 1 entry O          line   262 file /home/jrodriguesro/psi4conda/share/psi4/basis/cc-pvtz.gbs 
    atoms 2 entry N          line   224 file /home/jrodriguesro/psi4conda/share/psi4/basis/cc-pvtz.gbs 

  Reading orbitals from file /tmp/scan_NO_10.default.536942.180.npy, no projection.

  ==> Integral Setup <==

  DFHelper Memory: AOs need 0.005 GiB; user supplied 5.517 GiB. 
  SCF_SUBTYPE=INCORE selected. In-core MEM_DF algorithm will be used.
  Using in-core AOs.

  ==> MemDFJK: Density-Fitted J/K Matrices <==

    J tasked:                   Yes
    K tasked:                   Yes
    wK tasked:                   No
    OpenMP threads:               5
    Memory [MiB]:              5649
    Algorithm:                 Core
    Schwarz Cutoff:           1E-12
    Mask sparsity (%):       0.0000
    Fitting Condition:        1E-10

   => Auxiliary Basis Set <=

  Basis Set: (CC-PVTZ AUX)
    Blend: CC-PVTZ-JKFIT
    Number of shells: 50
    Number of basis functions: 158
    Number of Cartesian functions: 192
    Spherical Harmonics?: true
    Max angular momentum: 4

  Cached 100.0% of DFT collocation blocks in 0.071 [GiB].

  Minimum eigenvalue in the overlap matrix is 1.4560137967E-03.
  Reciprocal condition number of the overlap matrix is 3.4924725068E-04.
    Using symmetric orthogonalization.

  ==> Pre-Iterations <==

  SCF Guess: Orbitals guess was supplied from a previous computation.

   -------------------------------------------------------
    Irrep   Nso     Nmo     Nalpha   Nbeta   Ndocc  Nsocc
   -------------------------------------------------------
     A1        26      26       5       5       5       0
     A2         6       6       0       0       0       0
     B1        14      14       2       1       1       1
     B2        14      14       1       1       1       0
   -------------------------------------------------------
    Total      60      60       8       7       7       1
   -------------------------------------------------------

  ==> Iterations <==

                           Total Energy        Delta E     RMS |[F,P]|

   @DF-UKS iter   0:  -129.70846027109684   -1.29708e+02   8.51496e-03 
   @DF-UKS iter   1:  -129.68267625641323    2.57840e-02   1.19663e-03 ADIIS/DIIS
   @DF-UKS iter   2:  -129.68215647236920    5.19784e-04   1.77766e-03 ADIIS/DIIS/DAMP=1%
   @DF-UKS iter   3:  -129.68347758271798   -1.32111e-03   8.84058e-05 DIIS/DAMP=1%
   @DF-UKS iter   4:  -129.68314015611998    3.37427e-04   2.29101e-05 DIIS/DAMP=1%
   @DF-UKS iter   5:  -129.68323095909565   -9.08030e-05   7.51916e-06 DIIS/DAMP=1%
   @DF-UKS iter   6:  -129.68319822094688    3.27381e-05   9.15820e-07 DIIS/DAMP=1%
   @DF-UKS iter   7:  -129.68320352740989   -5.30646e-06   2.00320e-07 DIIS/DAMP=1%
   @DF-UKS iter   8:  -129.68320378433157   -2.56922e-07   3.98910e-08 DIIS/DAMP=1%
   @DF-UKS iter   9:  -129.68320387559692   -9.12653e-08   1.00237e-08 DIIS/DAMP=1%
   @DF-UKS iter  10:  -129.68320387095827    4.63865e-09   1.97275e-09 DIIS/DAMP=1%
  Energy and wave function converged.


  ==> Post-Iterations <==

   Electrons on quadrature grid:
      Nalpha   =    7.9999997710 ; deviation = -2.290e-07
      Nbeta    =    6.9999998067 ; deviation = -1.933e-07
      Ntotal   =   14.9999995777 ; deviation = -4.223e-07 

   @Spin Contamination Metric:   1.540331622E-03
   @S^2 Expected:                7.500000000E-01
   @S^2 Observed:                7.515403316E-01
   @S   Expected:                5.000000000E-01
   @S   Observed:                5.000000000E-01

    Orbital Energies [Eh]
    ---------------------

    Alpha Occupied:                                                       

       1A1   -19.252863     2A1   -14.390966     3A1    -1.472852  
       1B1    -0.671718     4A1    -0.659815     1B2    -0.652997  
       5A1    -0.499132     2B1    -0.083389  

    Alpha Virtual:                                                        

       2B2     0.021796     6A1     0.238913     3B1     0.378483  
       3B2     0.380791     7A1     0.423786     8A1     0.526797  
       4B1     0.603292     4B2     0.616529     1A2     0.896821  
       9A1     0.898345    10A1     1.046908    11A1     1.202729  
       5B1     1.282373     5B2     1.285876     2A2     1.605052  
      12A1     1.606580    13A1     1.948942     6B1     2.073180  
       6B2     2.077273    14A1     2.486195     7B1     2.737241  
       7B2     2.746831    15A1     3.202489    16A1     3.693590  
       8B1     3.722807     8B2     3.723106     9B1     3.816151  
       9B2     3.823581     3A2     3.884727    17A1     3.886330  
      10B1     4.174382    10B2     4.176880     4A2     4.369564  
      18A1     4.373471    19A1     4.658314    11B2     4.854871  
      11B1     4.855868    12B1     5.136512    12B2     5.136646  
      20A1     5.705919     5A2     6.123867    21A1     6.125844  
       6A2     6.202436    22A1     6.203760    13B1     6.564392  
      13B2     6.564839    23A1     6.808849    24A1     7.418803  
      14B1     8.046203    14B2     8.047494    25A1     9.041347  
      26A1    21.312025  

    Beta Occupied:                                                        

       1A1   -19.242061     2A1   -14.378772     3A1    -1.457407  
       1B2    -0.643787     4A1    -0.630721     1B1    -0.606670  
       5A1    -0.466631  

    Beta Virtual:                                                         

       2B2     0.035246     2B1     0.072073     6A1     0.243548  
       3B2     0.384813     3B1     0.405282     7A1     0.434250  
       8A1     0.538178     4B2     0.622603     4B1     0.642872  
       9A1     0.919378     1A2     0.919718    10A1     1.068023  
      11A1     1.211441     5B2     1.289424     5B1     1.318173  
       2A2     1.633247    12A1     1.633473    13A1     1.960828  
       6B2     2.081578     6B1     2.104449    14A1     2.505122  
       7B2     2.756447     7B1     2.791933    15A1     3.218568  
      16A1     3.708960     8B2     3.756682     8B1     3.756747  
       9B2     3.831559     9B1     3.863606     3A2     3.903956  
      17A1     3.904596    10B2     4.180973    10B1     4.214225  
      18A1     4.419375     4A2     4.420120    19A1     4.675224  
      11B2     4.858702    11B1     4.888282    12B2     5.164128  
      12B1     5.164143    20A1     5.721097     5A2     6.163156  
      21A1     6.163197     6A2     6.225646    22A1     6.226060  
      13B2     6.568658    13B1     6.597762    23A1     6.818910  
      24A1     7.431946    14B2     8.052908    14B1     8.085252  
      25A1     9.061335    26A1    21.327402  

    Final Occupation by Irrep:
             A1    A2    B1    B2 
    DOCC [     5,    0,    1,    1 ]
    SOCC [     0,    0,    1,    0 ]
    NA   [     5,    0,    2,    1 ]
    NB   [     5,    0,    1,    1 ]

  @DF-UKS Final Energy:  -129.68320387095827

   => Energetics <=

    Nuclear Repulsion Energy =             33.3453251807925852
    One-Electron Energy =                -241.8136246494561874
    Two-Electron Energy =                  91.5071755220111669
    DFT Exchange-Correlation Energy =     -12.7220799243058380
    Empirical Dispersion Energy =           0.0000000000000000
    VV10 Nonlocal Energy =                  0.0000000000000000
    Total Energy =                       -129.6832038709582662

  UHF NO Occupations:
  HONO-2 :    5 A1 1.9996787
  HONO-1 :    1 B1 1.9996668
  HONO-0 :    2 B1 1.0000000
  LUNO+0 :    3 B1 0.0003332
  LUNO+1 :    6 A1 0.0003213
  LUNO+2 :    7 A1 0.0000917
  LUNO+3 :    2 B2 0.0000192


Computation Completed


Properties will be evaluated at   0.000000,   0.000000,   0.000000 [a0]

Properties computed using the SCF density matrix


 Multipole Moments:

 ------------------------------------------------------------------------------------
     Multipole            Electronic (a.u.)      Nuclear  (a.u.)        Total (a.u.)
 ------------------------------------------------------------------------------------

 L = 1.  Multiply by 2.5417464519 to convert [e a0] to [Debye]
 Dipole X            :          0.0000000            0.0000000            0.0000000
 Dipole Y            :          0.0000000            0.0000000            0.0000000
 Dipole Z            :         -0.3179827           -0.0033696           -0.3213523
 Magnitude           :                                                    0.3213523

 ------------------------------------------------------------------------------------

*** tstop() called on cics-quant-001 at Tue Dec 23 13:44:28 2025
Module time:
	user time   =       1.20 seconds =       0.02 minutes
	system time =       0.06 seconds =       0.00 minutes
	total time  =          0 seconds =       0.00 minutes
Total time:
	user time   =       1.20 seconds =       0.02 minutes
	system time =       0.06 seconds =       0.00 minutes
	total time  =          0 seconds =       0.00 minutes

*** tstart() called on cics-quant-001
*** at Tue Dec 23 13:44:28 2025

   => Libint2 <=

    Primary   basis highest AM E, G, H:  6, 6, 3
    Auxiliary basis highest AM E, G, H:  7, 7, 4
    Onebody   basis highest AM E, G, H:  -, -, -
    Solid Harmonics ordering:            Gaussian
   => Loading Basis Set <=

    Name: CC-PVTZ
    Role: ORBITAL
    Keyword: BASIS
    atoms 1 entry O          line   262 file /home/jrodriguesro/psi4conda/share/psi4/basis/cc-pvtz.gbs 
    atoms 2 entry N          line   224 file /home/jrodriguesro/psi4conda/share/psi4/basis/cc-pvtz.gbs 


         ---------------------------------------------------------
                                   SCF
               by Justin Turney, Rob Parrish, Andy Simmonett
                          and Daniel G. A. Smith
                              UKS Reference
                        5 Threads,   7629 MiB Core
         ---------------------------------------------------------

  ==> Geometry <==

    Molecular point group: c2v
    Full point group: C_inf_v

    Geometry (in Angstrom), charge = 0, multiplicity = 2:

       Center              X                  Y                   Z               Mass       
    ------------   -----------------  -----------------  -----------------  -----------------
         O            0.000000000000     0.000000000000    -0.414844609003    15.994914619570
         N            0.000000000000     0.000000000000     0.473853390997    14.003074004430

  Running in c2v symmetry.

  Rotational constants: A = ************  B =      2.85874  C =      2.85874 [cm^-1]
  Rotational constants: A = ************  B =  85702.92011  C =  85702.92011 [MHz]
  Nuclear repulsion =   33.345325180792585

  Charge       = 0
  Multiplicity = 2
  Electrons    = 15
  Nalpha       = 8
  Nbeta        = 7

  ==> Algorithm <==

  SCF Algorithm Type is DF.
  DIIS enabled.
  MOM disabled.
  Fractional occupation disabled.
  Guess Type is READ.
  Energy threshold   = 1.00e-08
  Density threshold  = 1.00e-08
  Integral threshold = 1.00e-12

  ==> Primary Basis <==

  Basis Set: CC-PVTZ
    Blend: CC-PVTZ
    Number of shells: 20
    Number of basis functions: 60
    Number of Cartesian functions: 70
    Spherical Harmonics?: true
    Max angular momentum: 3

  ==> DFT Potential <==

   => LibXC <=

    Version 7.0.0
    S. Lehtola, C. Steigemann, M. J.T. Oliveira, and M. A.L. Marques.,  SoftwareX 7, 1–5 (2018) (10.1016/j.softx.2017.11.002)

   => Composite Functional: B3LYP <= 

    B3LYP Hyb-GGA Exchange-Correlation Functional

    P. J. Stephens, F. J. Devlin, C. F. Chabalowski, and M. J. Frisch.,  J. Phys. Chem. 98, 11623 (1994) (10.1021/j100096a001)

    Deriv               =              1
    GGA                 =           TRUE
    Meta                =          FALSE

    Exchange Hybrid     =           TRUE
    MP2 Hybrid          =          FALSE

   => Exchange Functionals <=

    0.0800   Slater exchange
    0.7200         Becke 88

   => Exact (HF) Exchange <=

    0.2000               HF 

   => Correlation Functionals <=

    0.1900   Vosko, Wilk & Nusair (VWN5_RPA)
    0.8100   Lee, Yang & Parr

   => LibXC Density Thresholds  <==

    XC_HYB_GGA_XC_B3LYP:  1.00E-15 

   => Molecular Quadrature <=

    Radial Scheme          =       TREUTLER
    Pruning Scheme         =           NONE
    Nuclear Scheme         =       TREUTLER

    Blocking Scheme        =         OCTREE
    BS radius alpha        =              1
    Pruning alpha          =              1
    Radial Points          =             75
    Spherical Points       =            302
    Total Points           =          42670
    Total Blocks           =            382
    Max Points             =            255
    Max Functions          =             60
    Weights Tolerance      =       1.00E-15

   => Loading Basis Set <=

    Name: (CC-PVTZ AUX)
    Role: JKFIT
    Keyword: DF_BASIS_SCF
    atoms 1 entry O          line   229 file /home/jrodriguesro/psi4conda/share/psi4/basis/cc-pvtz-jkfit.gbs 
    atoms 2 entry N          line   177 file /home/jrodriguesro/psi4conda/share/psi4/basis/cc-pvtz-jkfit.gbs 

   => Loading Basis Set <=

    Name: CC-PVTZ
    Role: ORBITAL
    Keyword: BASIS
    atoms 1 entry O          line   262 file /home/jrodriguesro/psi4conda/share/psi4/basis/cc-pvtz.gbs 
    atoms 2 entry N          line   224 file /home/jrodriguesro/psi4conda/share/psi4/basis/cc-pvtz.gbs 

  Reading orbitals from file /tmp/scan_NO_10.default.536942.180.npy, no projection.

  ==> Integral Setup <==

  DFHelper Memory: AOs need 0.005 GiB; user supplied 5.517 GiB. 
  SCF_SUBTYPE=INCORE selected. In-core MEM_DF algorithm will be used.
  Using in-core AOs.

  ==> MemDFJK: Density-Fitted J/K Matrices <==

    J tasked:                   Yes
    K tasked:                   Yes
    wK tasked:                   No
    OpenMP threads:               5
    Memory [MiB]:              5649
    Algorithm:                 Core
    Schwarz Cutoff:           1E-12
    Mask sparsity (%):       0.0000
    Fitting Condition:        1E-10

   => Auxiliary Basis Set <=

  Basis Set: (CC-PVTZ AUX)
    Blend: CC-PVTZ-JKFIT
    Number of shells: 50
    Number of basis functions: 158
    Number of Cartesian functions: 192
    Spherical Harmonics?: true
    Max angular momentum: 4

  Cached 100.0% of DFT collocation blocks in 0.071 [GiB].

  Minimum eigenvalue in the overlap matrix is 1.4560137967E-03.
  Reciprocal condition number of the overlap matrix is 3.4924725068E-04.
    Using symmetric orthogonalization.

  ==> Pre-Iterations <==

  SCF Guess: Orbitals guess was supplied from a previous computation.

   -------------------------------------------------------
    Irrep   Nso     Nmo     Nalpha   Nbeta   Ndocc  Nsocc
   -------------------------------------------------------
     A1        26      26       5       5       5       0
     A2         6       6       0       0       0       0
     B1        14      14       2       1       1       1
     B2        14      14       1       1       1       0
   -------------------------------------------------------
    Total      60      60       8       7       7       1
   -------------------------------------------------------

  ==> Iterations <==

                           Total Energy        Delta E     RMS |[F,P]|

   @DF-UKS iter   0:  -129.68320386730312   -1.29683e+02   3.45098e-10 
   @DF-UKS iter   1:  -129.68320386730318   -5.68434e-14   5.20484e-10 DIIS
  Energy and wave function converged.


  ==> Post-Iterations <==

   Electrons on quadrature grid:
      Nalpha   =    7.9999997710 ; deviation = -2.290e-07
      Nbeta    =    6.9999998067 ; deviation = -1.933e-07
      Ntotal   =   14.9999995777 ; deviation = -4.223e-07 

   @Spin Contamination Metric:   1.540331550E-03
   @S^2 Expected:                7.500000000E-01
   @S^2 Observed:                7.515403315E-01
   @S   Expected:                5.000000000E-01
   @S   Observed:                5.000000000E-01

    Orbital Energies [Eh]
    ---------------------

    Alpha Occupied:                                                       

       1A1   -19.252863     2A1   -14.390966     3A1    -1.472852  
       1B1    -0.671718     4A1    -0.659815     1B2    -0.652997  
       5A1    -0.499132     2B1    -0.083389  

    Alpha Virtual:                                                        

       2B2     0.021796     6A1     0.238913     3B1     0.378483  
       3B2     0.380791     7A1     0.423786     8A1     0.526797  
       4B1     0.603292     4B2     0.616529     1A2     0.896821  
       9A1     0.898345    10A1     1.046908    11A1     1.202729  
       5B1     1.282373     5B2     1.285876     2A2     1.605052  
      12A1     1.606580    13A1     1.948942     6B1     2.073180  
       6B2     2.077273    14A1     2.486195     7B1     2.737241  
       7B2     2.746831    15A1     3.202489    16A1     3.693590  
       8B1     3.722807     8B2     3.723106     9B1     3.816151  
       9B2     3.823580     3A2     3.884727    17A1     3.886330  
      10B1     4.174382    10B2     4.176880     4A2     4.369564  
      18A1     4.373471    19A1     4.658314    11B2     4.854871  
      11B1     4.855868    12B1     5.136512    12B2     5.136646  
      20A1     5.705919     5A2     6.123867    21A1     6.125844  
       6A2     6.202436    22A1     6.203760    13B1     6.564392  
      13B2     6.564839    23A1     6.808849    24A1     7.418803  
      14B1     8.046203    14B2     8.047494    25A1     9.041347  
      26A1    21.312025  

    Beta Occupied:                                                        

       1A1   -19.242061     2A1   -14.378772     3A1    -1.457407  
       1B2    -0.643787     4A1    -0.630721     1B1    -0.606670  
       5A1    -0.466631  

    Beta Virtual:                                                         

       2B2     0.035246     2B1     0.072073     6A1     0.243548  
       3B2     0.384813     3B1     0.405282     7A1     0.434250  
       8A1     0.538178     4B2     0.622603     4B1     0.642872  
       9A1     0.919378     1A2     0.919718    10A1     1.068023  
      11A1     1.211441     5B2     1.289424     5B1     1.318173  
       2A2     1.633247    12A1     1.633473    13A1     1.960828  
       6B2     2.081578     6B1     2.104449    14A1     2.505122  
       7B2     2.756447     7B1     2.791933    15A1     3.218568  
      16A1     3.708960     8B2     3.756682     8B1     3.756747  
       9B2     3.831559     9B1     3.863606     3A2     3.903956  
      17A1     3.904596    10B2     4.180973    10B1     4.214225  
      18A1     4.419375     4A2     4.420120    19A1     4.675224  
      11B2     4.858702    11B1     4.888282    12B2     5.164128  
      12B1     5.164143    20A1     5.721097     5A2     6.163156  
      21A1     6.163197     6A2     6.225646    22A1     6.226060  
      13B2     6.568658    13B1     6.597762    23A1     6.818910  
      24A1     7.431946    14B2     8.052908    14B1     8.085252  
      25A1     9.061335    26A1    21.327402  

    Final Occupation by Irrep:
             A1    A2    B1    B2 
    DOCC [     5,    0,    1,    1 ]
    SOCC [     0,    0,    1,    0 ]
    NA   [     5,    0,    2,    1 ]
    NB   [     5,    0,    1,    1 ]

  @DF-UKS Final Energy:  -129.68320386730318

   => Energetics <=

    Nuclear Repulsion Energy =             33.3453251807925852
    One-Electron Energy =                -241.8136247538774910
    Two-Electron Energy =                  91.5071756407081409
    DFT Exchange-Correlation Energy =     -12.7220799349264375
    Empirical Dispersion Energy =           0.0000000000000000
    VV10 Nonlocal Energy =                  0.0000000000000000
    Total Energy =                       -129.6832038673031775

  UHF NO Occupations:
  HONO-2 :    5 A1 1.9996787
  HONO-1 :    1 B1 1.9996668
  HONO-0 :    2 B1 1.0000000
  LUNO+0 :    3 B1 0.0003332
  LUNO+1 :    6 A1 0.0003213
  LUNO+2 :    7 A1 0.0000917
  LUNO+3 :    2 B2 0.0000192


Computation Completed


Properties will be evaluated at   0.000000,   0.000000,   0.000000 [a0]

Properties computed using the B3LYP density matrix


 Multipole Moments:

 ------------------------------------------------------------------------------------
     Multipole            Electronic (a.u.)      Nuclear  (a.u.)        Total (a.u.)
 ------------------------------------------------------------------------------------

 L = 1.  Multiply by 2.5417464519 to convert [e a0] to [Debye]
 Dipole X            :          0.0000000            0.0000000            0.0000000
 Dipole Y            :          0.0000000            0.0000000            0.0000000
 Dipole Z            :         -0.3179827           -0.0033696           -0.3213523
 Magnitude           :                                                    0.3213523

 L = 2.  Multiply by 1.3450342976 to convert [e a0^2] to [Debye ang]
 Quadrupole XX       :         -7.6429144            0.0000000           -7.6429144
 Quadrupole XY       :          0.0000000            0.0000000            0.0000000
 Quadrupole XZ       :          0.0000000            0.0000000            0.0000000
 Quadrupole YY       :         -6.6151463            0.0000000           -6.6151463
 Quadrupole YZ       :          0.0000000            0.0000000            0.0000000
 Quadrupole ZZ       :        -19.0424557           10.5293834           -8.5130723
 Traceless XX        :          3.4572578           -3.5097945           -0.0525367
 Traceless YY        :          4.4850258           -3.5097945            0.9752314
 Traceless ZZ        :         -7.9422836            7.0195889           -0.9226947

 ------------------------------------------------------------------------------------
  ==> Computing MBIS Charges <==

  Electron Count from Grid (Expected Number): 15.00000 (15.00000)
  Difference: -0.00000

  MBIS Charges: (a.u.)
   Center  Symbol  Z      Pop.       Charge
      1       O    8    7.879856    0.120144
      2       N    7    7.120143   -0.120143

  MBIS Dipoles: [e a0]
   Center  Symbol  Z        X           Y           Z
      1       O    8   -0.000000    0.000000    0.108662
      2       N    7    0.000000    0.000000   -0.228246

  MBIS Quadrupoles: [e a0^2]
   Center  Symbol  Z      XX        XY        XZ        YY        YZ        ZZ
      1       O    8   -3.3006    0.0000   -0.0000   -3.0141   -0.0000   -3.5260
      2       N    7   -4.3423   -0.0000   -0.0000   -3.6010   -0.0000   -4.3855

  MBIS Octupoles: [e a0^3]
   Center  Symbol  Z      XXX       XXY       XXZ       XYY       XYZ       XZZ       YYY       YYZ       YZZ       ZZZ
      1       O    8    0.0000   -0.0000    0.2160    0.0000   -0.0000   -0.0000   -0.0000    0.1454    0.0000    0.2529
      2       N    7    0.0000   -0.0000   -0.6775    0.0000   -0.0000    0.0000   -0.0000   -0.2335   -0.0000   -0.3109

  MBIS Radial Moments:
   Center  Symbol  Z      [a0^2]      [a0^3]      [a0^4]      
      1       O    8    9.840654   17.428181   37.264001
      2       N    7   12.328842   26.208500   66.812957

  MBIS Valence Widths: [a0]
   Center  Symbol  Z     Width
      1       O    8    0.362054
      2       N    7    0.433719


  MBIS Valence Charges: (a.u.)
   Center  Symbol  Z     Charge
      1       O    8   -6.303809
      2       N    7   -5.477220

*** tstop() called on cics-quant-001 at Tue Dec 23 13:44:28 2025
Module time:
	user time   =       0.48 seconds =       0.01 minutes
	system time =       0.04 seconds =       0.00 minutes
	total time  =          0 seconds =       0.00 minutes
Total time:
	user time   =       1.69 seconds =       0.03 minutes
	system time =       0.10 seconds =       0.00 minutes
	total time  =          0 seconds =       0.00 minutes

    Psi4 stopped on: Tuesday, 23 December 2025 01:44PM
    Psi4 wall time for execution: 0:00:00.69

*** Psi4 exiting successfully. Buy a developer a beer!
