
    -----------------------------------------------------------------------
          Psi4: An Open-Source Ab Initio Electronic Structure Package
                               Psi4 1.10 release

                         Git: Rev {} zzzzzzz 


    D. G. A. Smith, L. A. Burns, A. C. Simmonett, R. M. Parrish,
    M. C. Schieber, R. Galvelis, P. Kraus, H. Kruse, R. Di Remigio,
    A. Alenaizan, A. M. James, S. Lehtola, J. P. Misiewicz, M. Scheurer,
    R. A. Shaw, J. B. Schriber, Y. Xie, Z. L. Glick, D. A. Sirianni,
    J. S. O'Brien, J. M. Waldrop, A. Kumar, E. G. Hohenstein,
    B. P. Pritchard, B. R. Brooks, H. F. Schaefer III, A. Yu. Sokolov,
    K. Patkowski, A. E. DePrince III, U. Bozkaya, R. A. King,
    F. A. Evangelista, J. M. Turney, T. D. Crawford, C. D. Sherrill,
    J. Chem. Phys. 152(18) 184108 (2020). https://doi.org/10.1063/5.0006002

                            Additional Code Authors
    E. T. Seidl, C. L. Janssen, E. F. Valeev, M. L. Leininger,
    J. F. Gonthier, R. M. Richard, H. R. McAlexander, M. Saitow, X. Wang,
    P. Verma, M. H. Lechner, A. Jiang, S. Behnle, A. G. Heide,
    M. F. Herbst, D. L. Poole, T. Győri, E. C. Mitchell, J. P. Pederson,
    and A. M. Wallace

             Previous Authors, Complete List of Code Contributors,
                       and Citations for Specific Modules
    https://github.com/psi4/psi4/blob/master/codemeta.json
    https://github.com/psi4/psi4/graphs/contributors
    https://psicode.org/psi4manual/master/introduction.html#citing-psifour

    -----------------------------------------------------------------------


    Psi4 started on: Tuesday, 23 December 2025 01:40PM

    Process ID: 513738
    Host:       cics-quant-001
    PSIDATADIR: /home/jrodriguesro/psi4conda/share/psi4
    Memory:     500.0 MiB
    Threads:    5
    Addons:     adcc, a̶m̶b̶i̶t̶, b̶s̶e̶, c̶c̶t̶3̶, c̶f̶o̶u̶r̶, c̶h̶e̶m̶p̶s̶2̶, c̶p̶p̶e̶, ddx, dftd3, dftd4,
                dkh, ecpint, einsums, f̶o̶r̶t̶e̶, g̶a̶u̶x̶c̶, gcp, g̶d̶m̶a̶, geometric,
                g̶p̶u̶_̶d̶f̶c̶c̶, i̶n̶t̶e̶g̶r̶a̶t̶o̶r̶x̶x̶, i̶p̶i̶, libefp, m̶d̶i̶, m̶p̶2̶d̶,
                m̶r̶c̶c̶, ooo, o̶p̶e̶n̶f̶e̶r̶m̶i̶o̶n̶p̶s̶i̶4̶, pcmsolver, p̶s̶i̶4̶f̶o̶c̶k̶c̶i̶,
                p̶s̶i̶x̶a̶s̶, r̶e̶s̶p̶, s̶i̶m̶i̶n̶t̶, s̶n̶s̶m̶p̶2̶, v̶2̶r̶d̶m̶_̶c̶a̶s̶s̶c̶f̶

  ==> Input File <==

--------------------------------------------------------------------------
memory 8 Gb

molecule { 
0 2
C           0.000000           0.000000           0.000000
H           0.000000           0.000000           2.075406
}

set { 
basis              cc-pvtz
reference          uks
maxiter            500
DAMPING_PERCENTAGE 1
E_CONVERGENCE      1.0E-8
D_CONVERGENCE      1.0E-8
DIIS_MAX_VECS      400
MBIS_MAXITER       8000
guess              read
}

E, wfn = energy('b3lyp', restart_file='last_wfn', return_wfn=True)
properties('b3lyp','MBIS_CHARGES', wfn=wfn)
wfn.to_file('last_wfn')
--------------------------------------------------------------------------

  Memory set to   7.451 GiB by Python driver.

Scratch directory: /tmp/
 Found user provided orbital data. Setting orbital guess to READ 
 Copying restart file <last_wfn.npy> to </tmp/scan_HC_45.default.513738.180.npy> for internal processing
   => Libint2 <=

    Primary   basis highest AM E, G, H:  6, 6, 3
    Auxiliary basis highest AM E, G, H:  7, 7, 4
    Onebody   basis highest AM E, G, H:  -, -, -
    Solid Harmonics ordering:            Gaussian

*** tstart() called on cics-quant-001
*** at Tue Dec 23 13:40:23 2025

   => Loading Basis Set <=

    Name: CC-PVTZ
    Role: ORBITAL
    Keyword: BASIS
    atoms 1 entry C          line   186 file /home/jrodriguesro/psi4conda/share/psi4/basis/cc-pvtz.gbs 
    atoms 2 entry H          line    23 file /home/jrodriguesro/psi4conda/share/psi4/basis/cc-pvtz.gbs 


         ---------------------------------------------------------
                                   SCF
               by Justin Turney, Rob Parrish, Andy Simmonett
                          and Daniel G. A. Smith
                              UKS Reference
                        5 Threads,   7629 MiB Core
         ---------------------------------------------------------

  ==> Geometry <==

    Molecular point group: c2v
    Full point group: C_inf_v

    Geometry (in Angstrom), charge = 0, multiplicity = 2:

       Center              X                  Y                   Z               Mass       
    ------------   -----------------  -----------------  -----------------  -----------------
         C            0.000000000000     0.000000000000    -0.160799066228    12.000000000000
         H            0.000000000000     0.000000000000     1.914606933772     1.007825032230

  Running in c2v symmetry.

  Rotational constants: A = ************  B =      4.20948  C =      4.20948 [cm^-1]
  Rotational constants: A = ************  B = 126197.09649  C = 126197.09649 [MHz]
  Nuclear repulsion =    1.529851635785962

  Charge       = 0
  Multiplicity = 2
  Electrons    = 7
  Nalpha       = 4
  Nbeta        = 3

  ==> Algorithm <==

  SCF Algorithm Type is DF.
  DIIS enabled.
  MOM disabled.
  Fractional occupation disabled.
  Guess Type is READ.
  Energy threshold   = 1.00e-08
  Density threshold  = 1.00e-08
  Integral threshold = 1.00e-12

  ==> Primary Basis <==

  Basis Set: CC-PVTZ
    Blend: CC-PVTZ
    Number of shells: 16
    Number of basis functions: 44
    Number of Cartesian functions: 50
    Spherical Harmonics?: true
    Max angular momentum: 3

  ==> DFT Potential <==

   => LibXC <=

    Version 7.0.0
    S. Lehtola, C. Steigemann, M. J.T. Oliveira, and M. A.L. Marques.,  SoftwareX 7, 1–5 (2018) (10.1016/j.softx.2017.11.002)

   => Composite Functional: B3LYP <= 

    B3LYP Hyb-GGA Exchange-Correlation Functional

    P. J. Stephens, F. J. Devlin, C. F. Chabalowski, and M. J. Frisch.,  J. Phys. Chem. 98, 11623 (1994) (10.1021/j100096a001)

    Deriv               =              1
    GGA                 =           TRUE
    Meta                =          FALSE

    Exchange Hybrid     =           TRUE
    MP2 Hybrid          =          FALSE

   => Exchange Functionals <=

    0.0800   Slater exchange
    0.7200         Becke 88

   => Exact (HF) Exchange <=

    0.2000               HF 

   => Correlation Functionals <=

    0.1900   Vosko, Wilk & Nusair (VWN5_RPA)
    0.8100   Lee, Yang & Parr

   => LibXC Density Thresholds  <==

    XC_HYB_GGA_XC_B3LYP:  1.00E-15 

   => Molecular Quadrature <=

    Radial Scheme          =       TREUTLER
    Pruning Scheme         =           NONE
    Nuclear Scheme         =       TREUTLER

    Blocking Scheme        =         OCTREE
    BS radius alpha        =              1
    Pruning alpha          =              1
    Radial Points          =             75
    Spherical Points       =            302
    Total Points           =          43918
    Total Blocks           =            385
    Max Points             =            253
    Max Functions          =             44
    Weights Tolerance      =       1.00E-15

   => Loading Basis Set <=

    Name: (CC-PVTZ AUX)
    Role: JKFIT
    Keyword: DF_BASIS_SCF
    atoms 1 entry C          line   125 file /home/jrodriguesro/psi4conda/share/psi4/basis/cc-pvtz-jkfit.gbs 
    atoms 2 entry H          line    51 file /home/jrodriguesro/psi4conda/share/psi4/basis/cc-pvtz-jkfit.gbs 

   => Loading Basis Set <=

    Name: CC-PVTZ
    Role: ORBITAL
    Keyword: BASIS
    atoms 1 entry C          line   186 file /home/jrodriguesro/psi4conda/share/psi4/basis/cc-pvtz.gbs 
    atoms 2 entry H          line    23 file /home/jrodriguesro/psi4conda/share/psi4/basis/cc-pvtz.gbs 

  Reading orbitals from file /tmp/scan_HC_45.default.513738.180.npy, no projection.

  ==> Integral Setup <==

  DFHelper Memory: AOs need 0.002 GiB; user supplied 5.533 GiB. 
  SCF_SUBTYPE=INCORE selected. In-core MEM_DF algorithm will be used.
  Using in-core AOs.

  ==> MemDFJK: Density-Fitted J/K Matrices <==

    J tasked:                   Yes
    K tasked:                   Yes
    wK tasked:                   No
    OpenMP threads:               5
    Memory [MiB]:              5666
    Algorithm:                 Core
    Schwarz Cutoff:           1E-12
    Mask sparsity (%):       0.0000
    Fitting Condition:        1E-10

   => Auxiliary Basis Set <=

  Basis Set: (CC-PVTZ AUX)
    Blend: CC-PVTZ-JKFIT
    Number of shells: 35
    Number of basis functions: 109
    Number of Cartesian functions: 131
    Spherical Harmonics?: true
    Max angular momentum: 4

  Cached 100.0% of DFT collocation blocks in 0.055 [GiB].

  Minimum eigenvalue in the overlap matrix is 3.2400848028E-02.
  Reciprocal condition number of the overlap matrix is 1.0568841668E-02.
    Using symmetric orthogonalization.

  ==> Pre-Iterations <==

  SCF Guess: Orbitals guess was supplied from a previous computation.

   -------------------------------------------------------
    Irrep   Nso     Nmo     Nalpha   Nbeta   Ndocc  Nsocc
   -------------------------------------------------------
     A1        20      20       3       3       3       0
     A2         4       4       0       0       0       0
     B1        10      10       1       0       0       1
     B2        10      10       0       0       0       0
   -------------------------------------------------------
    Total      44      44       4       3       3       1
   -------------------------------------------------------

  ==> Iterations <==

                           Total Energy        Delta E     RMS |[F,P]|

   @DF-UKS iter   0:   -38.38648119384431   -3.83865e+01   4.09315e-04 
   @DF-UKS iter   1:   -38.38963391575263   -3.15272e-03   1.81050e-04 DIIS/ADIIS
   @DF-UKS iter   2:   -38.38965169327498   -1.77775e-05   1.77207e-04 DIIS/ADIIS/DAMP=1%
   @DF-UKS iter   3:   -38.38976336404966   -1.11671e-04   6.48233e-05 DIIS/DAMP=1%
   @DF-UKS iter   4:   -38.38964364689554    1.19717e-04   3.97828e-05 DIIS/DAMP=1%
   @DF-UKS iter   5:   -38.38968412698373   -4.04801e-05   3.45804e-06 DIIS/DAMP=1%
   @DF-UKS iter   6:   -38.38968855608427   -4.42910e-06   1.13703e-06 DIIS/DAMP=1%
   @DF-UKS iter   7:   -38.38968884752132   -2.91437e-07   1.41210e-07 DIIS/DAMP=1%
   @DF-UKS iter   8:   -38.38968820108020    6.46441e-07   2.90478e-08 DIIS/DAMP=1%
   @DF-UKS iter   9:   -38.38968822800088   -2.69207e-08   6.94677e-09 DIIS/DAMP=1%
   @DF-UKS iter  10:   -38.38968822205237    5.94851e-09   9.00339e-10 DIIS/DAMP=1%
  Energy and wave function converged.


  ==> Post-Iterations <==

   Electrons on quadrature grid:
      Nalpha   =    3.9999999855 ; deviation = -1.445e-08
      Nbeta    =    2.9999999963 ; deviation = -3.742e-09
      Ntotal   =    6.9999999818 ; deviation = -1.820e-08 

   @Spin Contamination Metric:   3.668147451E-01
   @S^2 Expected:                7.500000000E-01
   @S^2 Observed:                1.116814745E+00
   @S   Expected:                5.000000000E-01
   @S   Observed:                5.000000000E-01

    Orbital Energies [Eh]
    ---------------------

    Alpha Occupied:                                                       

       1A1   -10.340732     2A1    -0.599712     3A1    -0.287398  
       1B1    -0.282394  

    Alpha Virtual:                                                        

       1B2    -0.167111     4A1    -0.087176     2B1     0.277667  
       5A1     0.277715     2B2     0.295762     6A1     0.314103  
       7A1     0.410274     3B1     0.556979     3B2     0.558802  
       8A1     0.643579     1A2     0.645066     9A1     0.653167  
       4B1     0.795310     4B2     0.796543    10A1     1.133244  
       5B1     1.883892    11A1     1.901072     5B2     1.911070  
      12A1     2.319305     6B1     2.610388     6B2     2.610877  
       2A2     2.621600     7B1     2.621963     7B2     2.626111  
      13A1     2.626262    14A1     2.664559     8B1     2.853153  
       8B2     2.866908     3A2     2.867620    15A1     2.879258  
      16A1     2.982427     4A2     3.248539    17A1     3.248631  
       9B2     3.338212     9B1     3.338272    18A1     3.541221  
      10B2     3.709784    10B1     3.710505    19A1     3.847424  
      20A1     4.171534  

    Beta Occupied:                                                        

       1A1   -10.317078     2A1    -0.513991     3A1    -0.295840  

    Beta Virtual:                                                         

       1B2    -0.143233     1B1    -0.094937     4A1    -0.077772  
       5A1     0.248179     2B2     0.304277     2B1     0.332361  
       6A1     0.336560     7A1     0.440461     3B2     0.546054  
       3B1     0.557310     8A1     0.645503     1A2     0.689751  
       9A1     0.693249     4B2     0.787162     4B1     0.807269  
      10A1     1.128376     5B2     1.926872    11A1     1.941374  
       5B1     1.971491    12A1     2.244322     6B2     2.642147  
      13A1     2.666799     6B1     2.667846     7B2     2.681435  
       2A2     2.683966     7B1     2.691197    14A1     2.709119  
       8B2     2.906168    15A1     2.940052     3A2     2.944860  
       8B1     2.945348    16A1     3.031099     4A2     3.173308  
      17A1     3.173340     9B2     3.279269     9B1     3.287221  
      18A1     3.496917    10B2     3.613272    10B1     3.616136  
      19A1     3.888096    20A1     4.106160  

    Final Occupation by Irrep:
             A1    A2    B1    B2 
    DOCC [     3,    0,    0,    0 ]
    SOCC [     0,    0,    1,    0 ]
    NA   [     3,    0,    1,    0 ]
    NB   [     3,    0,    0,    0 ]

  @DF-UKS Final Energy:   -38.38968822205237

   => Energetics <=

    Nuclear Repulsion Energy =              1.5298516357859619
    One-Electron Energy =                 -53.9945313644713991
    Two-Electron Energy =                  18.5132747665730122
    DFT Exchange-Correlation Energy =      -4.4382832599399400
    Empirical Dispersion Energy =           0.0000000000000000
    VV10 Nonlocal Energy =                  0.0000000000000000
    Total Energy =                        -38.3896882220523707

  UHF NO Occupations:
  HONO-2 :    2 A1 1.9988860
  HONO-1 :    3 A1 1.7971286
  HONO-0 :    1 B1 1.0000000
  LUNO+0 :    4 A1 0.2028714
  LUNO+1 :    5 A1 0.0011140
  LUNO+2 :    6 A1 0.0000010
  LUNO+3 :    7 A1 0.0000000


Computation Completed


Properties will be evaluated at   0.000000,   0.000000,   0.000000 [a0]

Properties computed using the SCF density matrix


 Multipole Moments:

 ------------------------------------------------------------------------------------
     Multipole            Electronic (a.u.)      Nuclear  (a.u.)        Total (a.u.)
 ------------------------------------------------------------------------------------

 L = 1.  Multiply by 2.5417464519 to convert [e a0] to [Debye]
 Dipole X            :          0.0000000            0.0000000            0.0000000
 Dipole Y            :          0.0000000            0.0000000            0.0000000
 Dipole Z            :         -1.9177647            1.7948856           -0.1228792
 Magnitude           :                                                    0.1228792

 ------------------------------------------------------------------------------------

*** tstop() called on cics-quant-001 at Tue Dec 23 13:40:23 2025
Module time:
	user time   =       0.80 seconds =       0.01 minutes
	system time =       0.04 seconds =       0.00 minutes
	total time  =          0 seconds =       0.00 minutes
Total time:
	user time   =       0.80 seconds =       0.01 minutes
	system time =       0.04 seconds =       0.00 minutes
	total time  =          0 seconds =       0.00 minutes

*** tstart() called on cics-quant-001
*** at Tue Dec 23 13:40:23 2025

   => Libint2 <=

    Primary   basis highest AM E, G, H:  6, 6, 3
    Auxiliary basis highest AM E, G, H:  7, 7, 4
    Onebody   basis highest AM E, G, H:  -, -, -
    Solid Harmonics ordering:            Gaussian
   => Loading Basis Set <=

    Name: CC-PVTZ
    Role: ORBITAL
    Keyword: BASIS
    atoms 1 entry C          line   186 file /home/jrodriguesro/psi4conda/share/psi4/basis/cc-pvtz.gbs 
    atoms 2 entry H          line    23 file /home/jrodriguesro/psi4conda/share/psi4/basis/cc-pvtz.gbs 


         ---------------------------------------------------------
                                   SCF
               by Justin Turney, Rob Parrish, Andy Simmonett
                          and Daniel G. A. Smith
                              UKS Reference
                        5 Threads,   7629 MiB Core
         ---------------------------------------------------------

  ==> Geometry <==

    Molecular point group: c2v
    Full point group: C_inf_v

    Geometry (in Angstrom), charge = 0, multiplicity = 2:

       Center              X                  Y                   Z               Mass       
    ------------   -----------------  -----------------  -----------------  -----------------
         C            0.000000000000     0.000000000000    -0.160799066228    12.000000000000
         H            0.000000000000     0.000000000000     1.914606933772     1.007825032230

  Running in c2v symmetry.

  Rotational constants: A = ************  B =      4.20948  C =      4.20948 [cm^-1]
  Rotational constants: A = ************  B = 126197.09649  C = 126197.09649 [MHz]
  Nuclear repulsion =    1.529851635785962

  Charge       = 0
  Multiplicity = 2
  Electrons    = 7
  Nalpha       = 4
  Nbeta        = 3

  ==> Algorithm <==

  SCF Algorithm Type is DF.
  DIIS enabled.
  MOM disabled.
  Fractional occupation disabled.
  Guess Type is READ.
  Energy threshold   = 1.00e-08
  Density threshold  = 1.00e-08
  Integral threshold = 1.00e-12

  ==> Primary Basis <==

  Basis Set: CC-PVTZ
    Blend: CC-PVTZ
    Number of shells: 16
    Number of basis functions: 44
    Number of Cartesian functions: 50
    Spherical Harmonics?: true
    Max angular momentum: 3

  ==> DFT Potential <==

   => LibXC <=

    Version 7.0.0
    S. Lehtola, C. Steigemann, M. J.T. Oliveira, and M. A.L. Marques.,  SoftwareX 7, 1–5 (2018) (10.1016/j.softx.2017.11.002)

   => Composite Functional: B3LYP <= 

    B3LYP Hyb-GGA Exchange-Correlation Functional

    P. J. Stephens, F. J. Devlin, C. F. Chabalowski, and M. J. Frisch.,  J. Phys. Chem. 98, 11623 (1994) (10.1021/j100096a001)

    Deriv               =              1
    GGA                 =           TRUE
    Meta                =          FALSE

    Exchange Hybrid     =           TRUE
    MP2 Hybrid          =          FALSE

   => Exchange Functionals <=

    0.0800   Slater exchange
    0.7200         Becke 88

   => Exact (HF) Exchange <=

    0.2000               HF 

   => Correlation Functionals <=

    0.1900   Vosko, Wilk & Nusair (VWN5_RPA)
    0.8100   Lee, Yang & Parr

   => LibXC Density Thresholds  <==

    XC_HYB_GGA_XC_B3LYP:  1.00E-15 

   => Molecular Quadrature <=

    Radial Scheme          =       TREUTLER
    Pruning Scheme         =           NONE
    Nuclear Scheme         =       TREUTLER

    Blocking Scheme        =         OCTREE
    BS radius alpha        =              1
    Pruning alpha          =              1
    Radial Points          =             75
    Spherical Points       =            302
    Total Points           =          43918
    Total Blocks           =            385
    Max Points             =            253
    Max Functions          =             44
    Weights Tolerance      =       1.00E-15

   => Loading Basis Set <=

    Name: (CC-PVTZ AUX)
    Role: JKFIT
    Keyword: DF_BASIS_SCF
    atoms 1 entry C          line   125 file /home/jrodriguesro/psi4conda/share/psi4/basis/cc-pvtz-jkfit.gbs 
    atoms 2 entry H          line    51 file /home/jrodriguesro/psi4conda/share/psi4/basis/cc-pvtz-jkfit.gbs 

   => Loading Basis Set <=

    Name: CC-PVTZ
    Role: ORBITAL
    Keyword: BASIS
    atoms 1 entry C          line   186 file /home/jrodriguesro/psi4conda/share/psi4/basis/cc-pvtz.gbs 
    atoms 2 entry H          line    23 file /home/jrodriguesro/psi4conda/share/psi4/basis/cc-pvtz.gbs 

  Reading orbitals from file /tmp/scan_HC_45.default.513738.180.npy, no projection.

  ==> Integral Setup <==

  DFHelper Memory: AOs need 0.002 GiB; user supplied 5.533 GiB. 
  SCF_SUBTYPE=INCORE selected. In-core MEM_DF algorithm will be used.
  Using in-core AOs.

  ==> MemDFJK: Density-Fitted J/K Matrices <==

    J tasked:                   Yes
    K tasked:                   Yes
    wK tasked:                   No
    OpenMP threads:               5
    Memory [MiB]:              5666
    Algorithm:                 Core
    Schwarz Cutoff:           1E-12
    Mask sparsity (%):       0.0000
    Fitting Condition:        1E-10

   => Auxiliary Basis Set <=

  Basis Set: (CC-PVTZ AUX)
    Blend: CC-PVTZ-JKFIT
    Number of shells: 35
    Number of basis functions: 109
    Number of Cartesian functions: 131
    Spherical Harmonics?: true
    Max angular momentum: 4

  Cached 100.0% of DFT collocation blocks in 0.055 [GiB].

  Minimum eigenvalue in the overlap matrix is 3.2400848028E-02.
  Reciprocal condition number of the overlap matrix is 1.0568841668E-02.
    Using symmetric orthogonalization.

  ==> Pre-Iterations <==

  SCF Guess: Orbitals guess was supplied from a previous computation.

   -------------------------------------------------------
    Irrep   Nso     Nmo     Nalpha   Nbeta   Ndocc  Nsocc
   -------------------------------------------------------
     A1        20      20       3       3       3       0
     A2         4       4       0       0       0       0
     B1        10      10       1       0       0       1
     B2        10      10       0       0       0       0
   -------------------------------------------------------
    Total      44      44       4       3       3       1
   -------------------------------------------------------

  ==> Iterations <==

                           Total Energy        Delta E     RMS |[F,P]|

   @DF-UKS iter   0:   -38.38968822356775   -3.83897e+01   7.99664e-11 
   @DF-UKS iter   1:   -38.38968822356772    2.13163e-14   9.57062e-11 DIIS
  Energy and wave function converged.


  ==> Post-Iterations <==

   Electrons on quadrature grid:
      Nalpha   =    3.9999999855 ; deviation = -1.445e-08
      Nbeta    =    2.9999999963 ; deviation = -3.742e-09
      Ntotal   =    6.9999999818 ; deviation = -1.820e-08 

   @Spin Contamination Metric:   3.668147503E-01
   @S^2 Expected:                7.500000000E-01
   @S^2 Observed:                1.116814750E+00
   @S   Expected:                5.000000000E-01
   @S   Observed:                5.000000000E-01

    Orbital Energies [Eh]
    ---------------------

    Alpha Occupied:                                                       

       1A1   -10.340732     2A1    -0.599712     3A1    -0.287398  
       1B1    -0.282394  

    Alpha Virtual:                                                        

       1B2    -0.167111     4A1    -0.087176     2B1     0.277667  
       5A1     0.277715     2B2     0.295762     6A1     0.314103  
       7A1     0.410274     3B1     0.556979     3B2     0.558802  
       8A1     0.643579     1A2     0.645066     9A1     0.653167  
       4B1     0.795310     4B2     0.796543    10A1     1.133244  
       5B1     1.883892    11A1     1.901072     5B2     1.911070  
      12A1     2.319305     6B1     2.610388     6B2     2.610877  
       2A2     2.621600     7B1     2.621963     7B2     2.626111  
      13A1     2.626262    14A1     2.664559     8B1     2.853153  
       8B2     2.866908     3A2     2.867620    15A1     2.879258  
      16A1     2.982427     4A2     3.248539    17A1     3.248631  
       9B2     3.338212     9B1     3.338272    18A1     3.541221  
      10B2     3.709784    10B1     3.710505    19A1     3.847424  
      20A1     4.171534  

    Beta Occupied:                                                        

       1A1   -10.317078     2A1    -0.513991     3A1    -0.295840  

    Beta Virtual:                                                         

       1B2    -0.143233     1B1    -0.094937     4A1    -0.077772  
       5A1     0.248179     2B2     0.304277     2B1     0.332361  
       6A1     0.336560     7A1     0.440461     3B2     0.546054  
       3B1     0.557310     8A1     0.645503     1A2     0.689751  
       9A1     0.693249     4B2     0.787162     4B1     0.807269  
      10A1     1.128376     5B2     1.926872    11A1     1.941374  
       5B1     1.971491    12A1     2.244322     6B2     2.642147  
      13A1     2.666799     6B1     2.667846     7B2     2.681435  
       2A2     2.683966     7B1     2.691197    14A1     2.709119  
       8B2     2.906168    15A1     2.940052     3A2     2.944860  
       8B1     2.945348    16A1     3.031099     4A2     3.173308  
      17A1     3.173340     9B2     3.279269     9B1     3.287221  
      18A1     3.496917    10B2     3.613272    10B1     3.616136  
      19A1     3.888096    20A1     4.106160  

    Final Occupation by Irrep:
             A1    A2    B1    B2 
    DOCC [     3,    0,    0,    0 ]
    SOCC [     0,    0,    1,    0 ]
    NA   [     3,    0,    1,    0 ]
    NB   [     3,    0,    0,    0 ]

  @DF-UKS Final Energy:   -38.38968822356772

   => Energetics <=

    Nuclear Repulsion Energy =              1.5298516357859619
    One-Electron Energy =                 -53.9945313824272972
    Two-Electron Energy =                  18.5132747633607977
    DFT Exchange-Correlation Energy =      -4.4382832402871859
    Empirical Dispersion Energy =           0.0000000000000000
    VV10 Nonlocal Energy =                  0.0000000000000000
    Total Energy =                        -38.3896882235677239

  UHF NO Occupations:
  HONO-2 :    2 A1 1.9988860
  HONO-1 :    3 A1 1.7971286
  HONO-0 :    1 B1 1.0000000
  LUNO+0 :    4 A1 0.2028714
  LUNO+1 :    5 A1 0.0011140
  LUNO+2 :    6 A1 0.0000010
  LUNO+3 :    7 A1 0.0000000


Computation Completed


Properties will be evaluated at   0.000000,   0.000000,   0.000000 [a0]

Properties computed using the B3LYP density matrix


 Multipole Moments:

 ------------------------------------------------------------------------------------
     Multipole            Electronic (a.u.)      Nuclear  (a.u.)        Total (a.u.)
 ------------------------------------------------------------------------------------

 L = 1.  Multiply by 2.5417464519 to convert [e a0] to [Debye]
 Dipole X            :          0.0000000            0.0000000            0.0000000
 Dipole Y            :          0.0000000            0.0000000            0.0000000
 Dipole Z            :         -1.9177647            1.7948856           -0.1228792
 Magnitude           :                                                    0.1228792

 L = 2.  Multiply by 1.3450342976 to convert [e a0^2] to [Debye ang]
 Quadrupole XX       :         -6.1378026            0.0000000           -6.1378026
 Quadrupole XY       :          0.0000000            0.0000000            0.0000000
 Quadrupole XZ       :          0.0000000            0.0000000            0.0000000
 Quadrupole YY       :         -4.7246284            0.0000000           -4.7246284
 Quadrupole YZ       :          0.0000000            0.0000000            0.0000000
 Quadrupole ZZ       :        -20.0133127           13.6445307           -6.3687819
 Traceless XX        :          4.1541120           -4.5481769           -0.3940649
 Traceless YY        :          5.5672861           -4.5481769            1.0191092
 Traceless ZZ        :         -9.7213981            9.0963538           -0.6250443

 ------------------------------------------------------------------------------------
  ==> Computing MBIS Charges <==

  Electron Count from Grid (Expected Number):  7.00000 ( 7.00000)
  Difference: -0.00000

  MBIS Charges: (a.u.)
   Center  Symbol  Z      Pop.       Charge
      1       C    6    5.934004    0.065996
      2       H    1    1.065996   -0.065996

  MBIS Dipoles: [e a0]
   Center  Symbol  Z        X           Y           Z
      1       C    6    0.000000   -0.000000    0.036433
      2       H    1   -0.000000   -0.000000    0.099522

  MBIS Quadrupoles: [e a0^2]
   Center  Symbol  Z      XX        XY        XZ        YY        YZ        ZZ
      1       C    6   -4.9747    0.0000   -0.0000   -3.6057    0.0000   -5.0567
      2       H    1   -1.1631   -0.0000    0.0000   -1.1189    0.0000   -1.1523

  MBIS Octupoles: [e a0^3]
   Center  Symbol  Z      XXX       XXY       XXZ       XYY       XYZ       XZZ       YYY       YYZ       YZZ       ZZZ
      1       C    6    0.0000   -0.0000   -0.0150    0.0000   -0.0000    0.0000   -0.0000   -0.0863   -0.0000   -0.3007
      2       H    1   -0.0000    0.0000    0.1075    0.0000   -0.0000   -0.0000    0.0000    0.0264    0.0000    0.2352

  MBIS Radial Moments:
   Center  Symbol  Z      [a0^2]      [a0^3]      [a0^4]      
      1       C    6   13.637098   33.739933   99.562555
      2       H    1    3.434296    8.731631   26.222275

  MBIS Valence Widths: [a0]
   Center  Symbol  Z     Width
      1       C    6    0.521766
      2       H    1    0.520733


  MBIS Valence Charges: (a.u.)
   Center  Symbol  Z     Charge
      1       C    6   -4.250241
      2       H    1   -1.065996

*** tstop() called on cics-quant-001 at Tue Dec 23 13:40:23 2025
Module time:
	user time   =       0.37 seconds =       0.01 minutes
	system time =       0.04 seconds =       0.00 minutes
	total time  =          0 seconds =       0.00 minutes
Total time:
	user time   =       1.18 seconds =       0.02 minutes
	system time =       0.08 seconds =       0.00 minutes
	total time  =          0 seconds =       0.00 minutes

    Psi4 stopped on: Tuesday, 23 December 2025 01:40PM
    Psi4 wall time for execution: 0:00:00.55

*** Psi4 exiting successfully. Buy a developer a beer!
