
    -----------------------------------------------------------------------
          Psi4: An Open-Source Ab Initio Electronic Structure Package
                               Psi4 1.10 release

                         Git: Rev {} zzzzzzz 


    D. G. A. Smith, L. A. Burns, A. C. Simmonett, R. M. Parrish,
    M. C. Schieber, R. Galvelis, P. Kraus, H. Kruse, R. Di Remigio,
    A. Alenaizan, A. M. James, S. Lehtola, J. P. Misiewicz, M. Scheurer,
    R. A. Shaw, J. B. Schriber, Y. Xie, Z. L. Glick, D. A. Sirianni,
    J. S. O'Brien, J. M. Waldrop, A. Kumar, E. G. Hohenstein,
    B. P. Pritchard, B. R. Brooks, H. F. Schaefer III, A. Yu. Sokolov,
    K. Patkowski, A. E. DePrince III, U. Bozkaya, R. A. King,
    F. A. Evangelista, J. M. Turney, T. D. Crawford, C. D. Sherrill,
    J. Chem. Phys. 152(18) 184108 (2020). https://doi.org/10.1063/5.0006002

                            Additional Code Authors
    E. T. Seidl, C. L. Janssen, E. F. Valeev, M. L. Leininger,
    J. F. Gonthier, R. M. Richard, H. R. McAlexander, M. Saitow, X. Wang,
    P. Verma, M. H. Lechner, A. Jiang, S. Behnle, A. G. Heide,
    M. F. Herbst, D. L. Poole, T. Győri, E. C. Mitchell, J. P. Pederson,
    and A. M. Wallace

             Previous Authors, Complete List of Code Contributors,
                       and Citations for Specific Modules
    https://github.com/psi4/psi4/blob/master/codemeta.json
    https://github.com/psi4/psi4/graphs/contributors
    https://psicode.org/psi4manual/master/introduction.html#citing-psifour

    -----------------------------------------------------------------------


    Psi4 started on: Tuesday, 23 December 2025 01:38PM

    Process ID: 497276
    Host:       cics-quant-001
    PSIDATADIR: /home/jrodriguesro/psi4conda/share/psi4
    Memory:     500.0 MiB
    Threads:    5
    Addons:     adcc, a̶m̶b̶i̶t̶, b̶s̶e̶, c̶c̶t̶3̶, c̶f̶o̶u̶r̶, c̶h̶e̶m̶p̶s̶2̶, c̶p̶p̶e̶, ddx, dftd3, dftd4,
                dkh, ecpint, einsums, f̶o̶r̶t̶e̶, g̶a̶u̶x̶c̶, gcp, g̶d̶m̶a̶, geometric,
                g̶p̶u̶_̶d̶f̶c̶c̶, i̶n̶t̶e̶g̶r̶a̶t̶o̶r̶x̶x̶, i̶p̶i̶, libefp, m̶d̶i̶, m̶p̶2̶d̶,
                m̶r̶c̶c̶, ooo, o̶p̶e̶n̶f̶e̶r̶m̶i̶o̶n̶p̶s̶i̶4̶, pcmsolver, p̶s̶i̶4̶f̶o̶c̶k̶c̶i̶,
                p̶s̶i̶x̶a̶s̶, r̶e̶s̶p̶, s̶i̶m̶i̶n̶t̶, s̶n̶s̶m̶p̶2̶, v̶2̶r̶d̶m̶_̶c̶a̶s̶s̶c̶f̶

  ==> Input File <==

--------------------------------------------------------------------------
memory 8 Gb

molecule { 
0 3
C           0.000000           0.000000           0.000000
C           0.000000           0.000000           2.125402
}

set { 
basis              cc-pvtz
reference          uks
maxiter            500
DAMPING_PERCENTAGE 1
E_CONVERGENCE      1.0E-8
D_CONVERGENCE      1.0E-8
DIIS_MAX_VECS      400
MBIS_MAXITER       8000
guess              read
}

E, wfn = energy('b3lyp', restart_file='last_wfn', return_wfn=True)
properties('b3lyp','MBIS_CHARGES', wfn=wfn)
wfn.to_file('last_wfn')
--------------------------------------------------------------------------

  Memory set to   7.451 GiB by Python driver.

Scratch directory: /tmp/
 Found user provided orbital data. Setting orbital guess to READ 
 Copying restart file <last_wfn.npy> to </tmp/scan_CC_38.default.497276.180.npy> for internal processing
   => Libint2 <=

    Primary   basis highest AM E, G, H:  6, 6, 3
    Auxiliary basis highest AM E, G, H:  7, 7, 4
    Onebody   basis highest AM E, G, H:  -, -, -
    Solid Harmonics ordering:            Gaussian

*** tstart() called on cics-quant-001
*** at Tue Dec 23 13:38:01 2025

   => Loading Basis Set <=

    Name: CC-PVTZ
    Role: ORBITAL
    Keyword: BASIS
    atoms 1-2 entry C          line   186 file /home/jrodriguesro/psi4conda/share/psi4/basis/cc-pvtz.gbs 


         ---------------------------------------------------------
                                   SCF
               by Justin Turney, Rob Parrish, Andy Simmonett
                          and Daniel G. A. Smith
                              UKS Reference
                        5 Threads,   7629 MiB Core
         ---------------------------------------------------------

  ==> Geometry <==

    Molecular point group: d2h
    Full point group: D_inf_h

    Geometry (in Angstrom), charge = 0, multiplicity = 3:

       Center              X                  Y                   Z               Mass       
    ------------   -----------------  -----------------  -----------------  -----------------
         C            0.000000000000     0.000000000000    -1.062701000000    12.000000000000
         C            0.000000000000     0.000000000000     1.062701000000    12.000000000000

  Running in d2h symmetry.

  Rotational constants: A = ************  B =      0.62196  C =      0.62196 [cm^-1]
  Rotational constants: A = ************  B =  18645.91839  C =  18645.91839 [MHz]
  Nuclear repulsion =    8.963188885735500

  Charge       = 0
  Multiplicity = 3
  Electrons    = 12
  Nalpha       = 7
  Nbeta        = 5

  ==> Algorithm <==

  SCF Algorithm Type is DF.
  DIIS enabled.
  MOM disabled.
  Fractional occupation disabled.
  Guess Type is READ.
  Energy threshold   = 1.00e-08
  Density threshold  = 1.00e-08
  Integral threshold = 1.00e-12

  ==> Primary Basis <==

  Basis Set: CC-PVTZ
    Blend: CC-PVTZ
    Number of shells: 20
    Number of basis functions: 60
    Number of Cartesian functions: 70
    Spherical Harmonics?: true
    Max angular momentum: 3

  ==> DFT Potential <==

   => LibXC <=

    Version 7.0.0
    S. Lehtola, C. Steigemann, M. J.T. Oliveira, and M. A.L. Marques.,  SoftwareX 7, 1–5 (2018) (10.1016/j.softx.2017.11.002)

   => Composite Functional: B3LYP <= 

    B3LYP Hyb-GGA Exchange-Correlation Functional

    P. J. Stephens, F. J. Devlin, C. F. Chabalowski, and M. J. Frisch.,  J. Phys. Chem. 98, 11623 (1994) (10.1021/j100096a001)

    Deriv               =              1
    GGA                 =           TRUE
    Meta                =          FALSE

    Exchange Hybrid     =           TRUE
    MP2 Hybrid          =          FALSE

   => Exchange Functionals <=

    0.0800   Slater exchange
    0.7200         Becke 88

   => Exact (HF) Exchange <=

    0.2000               HF 

   => Correlation Functionals <=

    0.1900   Vosko, Wilk & Nusair (VWN5_RPA)
    0.8100   Lee, Yang & Parr

   => LibXC Density Thresholds  <==

    XC_HYB_GGA_XC_B3LYP:  1.00E-15 

   => Molecular Quadrature <=

    Radial Scheme          =       TREUTLER
    Pruning Scheme         =           NONE
    Nuclear Scheme         =       TREUTLER

    Blocking Scheme        =         OCTREE
    BS radius alpha        =              1
    Pruning alpha          =              1
    Radial Points          =             75
    Spherical Points       =            302
    Total Points           =          43094
    Total Blocks           =            386
    Max Points             =            251
    Max Functions          =             60
    Weights Tolerance      =       1.00E-15

   => Loading Basis Set <=

    Name: (CC-PVTZ AUX)
    Role: JKFIT
    Keyword: DF_BASIS_SCF
    atoms 1-2 entry C          line   125 file /home/jrodriguesro/psi4conda/share/psi4/basis/cc-pvtz-jkfit.gbs 

   => Loading Basis Set <=

    Name: CC-PVTZ
    Role: ORBITAL
    Keyword: BASIS
    atoms 1-2 entry C          line   186 file /home/jrodriguesro/psi4conda/share/psi4/basis/cc-pvtz.gbs 

  Reading orbitals from file /tmp/scan_CC_38.default.497276.180.npy, no projection.

  ==> Integral Setup <==

  DFHelper Memory: AOs need 0.005 GiB; user supplied 5.516 GiB. 
  SCF_SUBTYPE=INCORE selected. In-core MEM_DF algorithm will be used.
  Using in-core AOs.

  ==> MemDFJK: Density-Fitted J/K Matrices <==

    J tasked:                   Yes
    K tasked:                   Yes
    wK tasked:                   No
    OpenMP threads:               5
    Memory [MiB]:              5648
    Algorithm:                 Core
    Schwarz Cutoff:           1E-12
    Mask sparsity (%):       0.0000
    Fitting Condition:        1E-10

   => Auxiliary Basis Set <=

  Basis Set: (CC-PVTZ AUX)
    Blend: CC-PVTZ-JKFIT
    Number of shells: 50
    Number of basis functions: 158
    Number of Cartesian functions: 192
    Spherical Harmonics?: true
    Max angular momentum: 4

  Cached 100.0% of DFT collocation blocks in 0.072 [GiB].

  Minimum eigenvalue in the overlap matrix is 1.5378052951E-02.
  Reciprocal condition number of the overlap matrix is 5.1798628941E-03.
    Using symmetric orthogonalization.

  ==> Pre-Iterations <==

  SCF Guess: Orbitals guess was supplied from a previous computation.

   -------------------------------------------------------
    Irrep   Nso     Nmo     Nalpha   Nbeta   Ndocc  Nsocc
   -------------------------------------------------------
     Ag        13      13       3       3       3       0
     B1g        3       3       0       0       0       0
     B2g        7       7       0       0       0       0
     B3g        7       7       0       0       0       0
     Au         3       3       0       0       0       0
     B1u       13      13       2       2       2       0
     B2u        7       7       1       0       0       1
     B3u        7       7       1       0       0       1
   -------------------------------------------------------
    Total      60      60       7       5       5       2
   -------------------------------------------------------

  ==> Iterations <==

                           Total Energy        Delta E     RMS |[F,P]|

   @DF-UKS iter   0:   -75.76857007268613   -7.57686e+01   1.09813e-03 
   @DF-UKS iter   1:   -75.77697676811714   -8.40670e-03   4.38794e-04 ADIIS/DIIS
   @DF-UKS iter   2:   -75.77702876887210   -5.20008e-05   2.48103e-04 ADIIS/DIIS/DAMP=1%
   @DF-UKS iter   3:   -75.77694481821328    8.39507e-05   8.43514e-06 DIIS/DAMP=1%
   @DF-UKS iter   4:   -75.77705536030395   -1.10542e-04   2.43233e-06 DIIS/DAMP=1%
   @DF-UKS iter   5:   -75.77705010669175    5.25361e-06   3.82275e-07 DIIS/DAMP=1%
   @DF-UKS iter   6:   -75.77705169422057   -1.58753e-06   9.40186e-08 DIIS/DAMP=1%
   @DF-UKS iter   7:   -75.77705156452315    1.29697e-07   1.27852e-08 DIIS/DAMP=1%
   @DF-UKS iter   8:   -75.77705155964327    4.87988e-09   3.54153e-10 DIIS/DAMP=1%
  Energy and wave function converged.


  ==> Post-Iterations <==

   Electrons on quadrature grid:
      Nalpha   =    6.9999996561 ; deviation = -3.439e-07
      Nbeta    =    5.0000001617 ; deviation = 1.617e-07
      Ntotal   =   11.9999998178 ; deviation = -1.822e-07 

   @Spin Contamination Metric:   3.933847408E-03
   @S^2 Expected:                2.000000000E+00
   @S^2 Observed:                2.003933847E+00
   @S   Expected:                1.000000000E+00
   @S   Observed:                1.000000000E+00

    Orbital Energies [Eh]
    ---------------------

    Alpha Occupied:                                                       

       1Ag   -10.344772     1B1u  -10.344703     2Ag    -0.644620  
       2B1u   -0.534876     3Ag    -0.279093     1B3u   -0.275990  
       1B2u   -0.275990  

    Alpha Virtual:                                                        

       1B2g   -0.166527     1B3g   -0.166527     3B1u   -0.046050  
       4B1u    0.272535     2B3u    0.276897     2B2u    0.276897  
       4Ag     0.317261     2B2g    0.333956     2B3g    0.333956  
       5Ag     0.346338     3B2u    0.563161     3B3u    0.563161  
       5B1u    0.568988     1B1g    0.590794     6Ag     0.590794  
       6B1u    0.704065     1Au     0.704065     7Ag     0.820333  
       3B3g    0.937858     3B2g    0.937858     7B1u    1.183499  
       8Ag     1.847550     4B3u    1.861298     4B2u    1.861298  
       4B2g    1.938093     4B3g    1.938093     8B1u    2.193575  
       5B3u    2.466321     5B2u    2.466321     9Ag     2.483588  
      10Ag     2.550176     2B1g    2.550176     6B2u    2.609383  
       6B3u    2.609383     5B3g    2.628192     5B2g    2.628192  
       9B1u    2.707755     2Au     2.707756     6B3g    2.829254  
       6B2g    2.829254     3B1g    2.849566    11Ag     2.849581  
       7B3u    2.921416     7B2u    2.921416     3Au     2.929708  
      10B1u    2.929725    11B1u    2.934431    12Ag     3.187329  
       7B3g    3.279309     7B2g    3.279309    12B1u    3.705084  
      13Ag     3.863302    13B1u    4.307606  

    Beta Occupied:                                                        

       1Ag   -10.331011     1B1u  -10.330979     2Ag    -0.585218  
       2B1u   -0.479046     3Ag    -0.264001  

    Beta Virtual:                                                         

       1B3u   -0.155757     1B2u   -0.155757     1B2g   -0.087628  
       1B3g   -0.087628     3B1u   -0.022892     4B1u    0.277902  
       2B3u    0.309924     2B2u    0.309924     4Ag     0.326739  
       2B2g    0.360042     2B3g    0.360042     5Ag     0.369998  
       3B2u    0.588873     3B3u    0.588873     5B1u    0.593537  
       6Ag     0.635282     1B1g    0.635283     6B1u    0.746769  
       1Au     0.746771     7Ag     0.844862     3B3g    0.962618  
       3B2g    0.962618     7B1u    1.195734     8Ag     1.855370  
       4B3u    1.904955     4B2u    1.904955     4B2g    1.985186  
       4B3g    1.985186     8B1u    2.216176     5B3u    2.495376  
       5B2u    2.495376     9Ag     2.511096     2B1g    2.587604  
      10Ag     2.587604     6B2u    2.669165     6B3u    2.669165  
       5B3g    2.687817     5B2g    2.687817     9B1u    2.751927  
       2Au     2.751928     6B2g    2.863149     6B3g    2.863149  
       3B1g    2.923610    11Ag     2.923624     7B3u    2.958207  
       7B2u    2.958207    10B1u    2.958536     3Au     2.996818  
      11B1u    2.996834    12Ag     3.204451     7B3g    3.308453  
       7B2g    3.308453    12B1u    3.720713    13Ag     3.900880  
      13B1u    4.337275  

    Final Occupation by Irrep:
             Ag   B1g   B2g   B3g    Au   B1u   B2u   B3u 
    DOCC [     3,    0,    0,    0,    0,    2,    0,    0 ]
    SOCC [     0,    0,    0,    0,    0,    0,    1,    1 ]
    NA   [     3,    0,    0,    0,    0,    2,    1,    1 ]
    NB   [     3,    0,    0,    0,    0,    2,    0,    0 ]

  @DF-UKS Final Energy:   -75.77705155964327

   => Energetics <=

    Nuclear Repulsion Energy =              8.9631888857354998
    One-Electron Energy =                -118.7532590786724143
    Two-Electron Energy =                  42.3715398740052507
    DFT Exchange-Correlation Energy =      -8.3585212407116156
    Empirical Dispersion Energy =           0.0000000000000000
    VV10 Nonlocal Energy =                  0.0000000000000000
    Total Energy =                        -75.7770515596432688

  UHF NO Occupations:
  HONO-2 :    2B1u 1.9985071
  HONO-1 :    1B2u 1.0000000
  HONO-0 :    1B3u 1.0000000
  LUNO+0 :    3B1u 0.0014929
  LUNO+1 :    4 Ag 0.0004252
  LUNO+2 :    5 Ag 0.0000494
  LUNO+3 :    4B1u 0.0000004


Computation Completed


Properties will be evaluated at   0.000000,   0.000000,   0.000000 [a0]

Properties computed using the SCF density matrix


 Multipole Moments:

 ------------------------------------------------------------------------------------
     Multipole            Electronic (a.u.)      Nuclear  (a.u.)        Total (a.u.)
 ------------------------------------------------------------------------------------

 L = 1.  Multiply by 2.5417464519 to convert [e a0] to [Debye]
 Dipole X            :          0.0000000            0.0000000            0.0000000
 Dipole Y            :          0.0000000            0.0000000            0.0000000
 Dipole Z            :          0.0000000            0.0000000            0.0000000
 Magnitude           :                                                    0.0000000

 ------------------------------------------------------------------------------------

*** tstop() called on cics-quant-001 at Tue Dec 23 13:38:01 2025
Module time:
	user time   =       1.05 seconds =       0.02 minutes
	system time =       0.06 seconds =       0.00 minutes
	total time  =          0 seconds =       0.00 minutes
Total time:
	user time   =       1.05 seconds =       0.02 minutes
	system time =       0.06 seconds =       0.00 minutes
	total time  =          0 seconds =       0.00 minutes

*** tstart() called on cics-quant-001
*** at Tue Dec 23 13:38:01 2025

   => Libint2 <=

    Primary   basis highest AM E, G, H:  6, 6, 3
    Auxiliary basis highest AM E, G, H:  7, 7, 4
    Onebody   basis highest AM E, G, H:  -, -, -
    Solid Harmonics ordering:            Gaussian
   => Loading Basis Set <=

    Name: CC-PVTZ
    Role: ORBITAL
    Keyword: BASIS
    atoms 1-2 entry C          line   186 file /home/jrodriguesro/psi4conda/share/psi4/basis/cc-pvtz.gbs 


         ---------------------------------------------------------
                                   SCF
               by Justin Turney, Rob Parrish, Andy Simmonett
                          and Daniel G. A. Smith
                              UKS Reference
                        5 Threads,   7629 MiB Core
         ---------------------------------------------------------

  ==> Geometry <==

    Molecular point group: d2h
    Full point group: D_inf_h

    Geometry (in Angstrom), charge = 0, multiplicity = 3:

       Center              X                  Y                   Z               Mass       
    ------------   -----------------  -----------------  -----------------  -----------------
         C            0.000000000000     0.000000000000    -1.062701000000    12.000000000000
         C            0.000000000000     0.000000000000     1.062701000000    12.000000000000

  Running in d2h symmetry.

  Rotational constants: A = ************  B =      0.62196  C =      0.62196 [cm^-1]
  Rotational constants: A = ************  B =  18645.91839  C =  18645.91839 [MHz]
  Nuclear repulsion =    8.963188885735500

  Charge       = 0
  Multiplicity = 3
  Electrons    = 12
  Nalpha       = 7
  Nbeta        = 5

  ==> Algorithm <==

  SCF Algorithm Type is DF.
  DIIS enabled.
  MOM disabled.
  Fractional occupation disabled.
  Guess Type is READ.
  Energy threshold   = 1.00e-08
  Density threshold  = 1.00e-08
  Integral threshold = 1.00e-12

  ==> Primary Basis <==

  Basis Set: CC-PVTZ
    Blend: CC-PVTZ
    Number of shells: 20
    Number of basis functions: 60
    Number of Cartesian functions: 70
    Spherical Harmonics?: true
    Max angular momentum: 3

  ==> DFT Potential <==

   => LibXC <=

    Version 7.0.0
    S. Lehtola, C. Steigemann, M. J.T. Oliveira, and M. A.L. Marques.,  SoftwareX 7, 1–5 (2018) (10.1016/j.softx.2017.11.002)

   => Composite Functional: B3LYP <= 

    B3LYP Hyb-GGA Exchange-Correlation Functional

    P. J. Stephens, F. J. Devlin, C. F. Chabalowski, and M. J. Frisch.,  J. Phys. Chem. 98, 11623 (1994) (10.1021/j100096a001)

    Deriv               =              1
    GGA                 =           TRUE
    Meta                =          FALSE

    Exchange Hybrid     =           TRUE
    MP2 Hybrid          =          FALSE

   => Exchange Functionals <=

    0.0800   Slater exchange
    0.7200         Becke 88

   => Exact (HF) Exchange <=

    0.2000               HF 

   => Correlation Functionals <=

    0.1900   Vosko, Wilk & Nusair (VWN5_RPA)
    0.8100   Lee, Yang & Parr

   => LibXC Density Thresholds  <==

    XC_HYB_GGA_XC_B3LYP:  1.00E-15 

   => Molecular Quadrature <=

    Radial Scheme          =       TREUTLER
    Pruning Scheme         =           NONE
    Nuclear Scheme         =       TREUTLER

    Blocking Scheme        =         OCTREE
    BS radius alpha        =              1
    Pruning alpha          =              1
    Radial Points          =             75
    Spherical Points       =            302
    Total Points           =          43094
    Total Blocks           =            386
    Max Points             =            251
    Max Functions          =             60
    Weights Tolerance      =       1.00E-15

   => Loading Basis Set <=

    Name: (CC-PVTZ AUX)
    Role: JKFIT
    Keyword: DF_BASIS_SCF
    atoms 1-2 entry C          line   125 file /home/jrodriguesro/psi4conda/share/psi4/basis/cc-pvtz-jkfit.gbs 

   => Loading Basis Set <=

    Name: CC-PVTZ
    Role: ORBITAL
    Keyword: BASIS
    atoms 1-2 entry C          line   186 file /home/jrodriguesro/psi4conda/share/psi4/basis/cc-pvtz.gbs 

  Reading orbitals from file /tmp/scan_CC_38.default.497276.180.npy, no projection.

  ==> Integral Setup <==

  DFHelper Memory: AOs need 0.005 GiB; user supplied 5.516 GiB. 
  SCF_SUBTYPE=INCORE selected. In-core MEM_DF algorithm will be used.
  Using in-core AOs.

  ==> MemDFJK: Density-Fitted J/K Matrices <==

    J tasked:                   Yes
    K tasked:                   Yes
    wK tasked:                   No
    OpenMP threads:               5
    Memory [MiB]:              5648
    Algorithm:                 Core
    Schwarz Cutoff:           1E-12
    Mask sparsity (%):       0.0000
    Fitting Condition:        1E-10

   => Auxiliary Basis Set <=

  Basis Set: (CC-PVTZ AUX)
    Blend: CC-PVTZ-JKFIT
    Number of shells: 50
    Number of basis functions: 158
    Number of Cartesian functions: 192
    Spherical Harmonics?: true
    Max angular momentum: 4

  Cached 100.0% of DFT collocation blocks in 0.072 [GiB].

  Minimum eigenvalue in the overlap matrix is 1.5378052951E-02.
  Reciprocal condition number of the overlap matrix is 5.1798628941E-03.
    Using symmetric orthogonalization.

  ==> Pre-Iterations <==

  SCF Guess: Orbitals guess was supplied from a previous computation.

   -------------------------------------------------------
    Irrep   Nso     Nmo     Nalpha   Nbeta   Ndocc  Nsocc
   -------------------------------------------------------
     Ag        13      13       3       3       3       0
     B1g        3       3       0       0       0       0
     B2g        7       7       0       0       0       0
     B3g        7       7       0       0       0       0
     Au         3       3       0       0       0       0
     B1u       13      13       2       2       2       0
     B2u        7       7       1       0       0       1
     B3u        7       7       1       0       0       1
   -------------------------------------------------------
    Total      60      60       7       5       5       2
   -------------------------------------------------------

  ==> Iterations <==

                           Total Energy        Delta E     RMS |[F,P]|

   @DF-UKS iter   0:   -75.77705156210203   -7.57771e+01   5.02399e-11 
   @DF-UKS iter   1:   -75.77705156210203    0.00000e+00   2.87556e-11 DIIS
  Energy and wave function converged.


  ==> Post-Iterations <==

   Electrons on quadrature grid:
      Nalpha   =    6.9999996561 ; deviation = -3.439e-07
      Nbeta    =    5.0000001617 ; deviation = 1.617e-07
      Ntotal   =   11.9999998178 ; deviation = -1.822e-07 

   @Spin Contamination Metric:   3.933847433E-03
   @S^2 Expected:                2.000000000E+00
   @S^2 Observed:                2.003933847E+00
   @S   Expected:                1.000000000E+00
   @S   Observed:                1.000000000E+00

    Orbital Energies [Eh]
    ---------------------

    Alpha Occupied:                                                       

       1Ag   -10.344772     1B1u  -10.344703     2Ag    -0.644620  
       2B1u   -0.534876     3Ag    -0.279093     1B3u   -0.275990  
       1B2u   -0.275990  

    Alpha Virtual:                                                        

       1B2g   -0.166527     1B3g   -0.166527     3B1u   -0.046050  
       4B1u    0.272535     2B3u    0.276897     2B2u    0.276897  
       4Ag     0.317261     2B2g    0.333956     2B3g    0.333956  
       5Ag     0.346338     3B2u    0.563161     3B3u    0.563161  
       5B1u    0.568988     1B1g    0.590794     6Ag     0.590794  
       6B1u    0.704065     1Au     0.704065     7Ag     0.820333  
       3B3g    0.937858     3B2g    0.937858     7B1u    1.183499  
       8Ag     1.847550     4B2u    1.861298     4B3u    1.861298  
       4B2g    1.938093     4B3g    1.938093     8B1u    2.193575  
       5B3u    2.466321     5B2u    2.466321     9Ag     2.483588  
      10Ag     2.550176     2B1g    2.550176     6B2u    2.609383  
       6B3u    2.609383     5B3g    2.628192     5B2g    2.628192  
       9B1u    2.707755     2Au     2.707756     6B3g    2.829254  
       6B2g    2.829254     3B1g    2.849566    11Ag     2.849581  
       7B2u    2.921416     7B3u    2.921416     3Au     2.929708  
      10B1u    2.929725    11B1u    2.934431    12Ag     3.187329  
       7B3g    3.279309     7B2g    3.279309    12B1u    3.705084  
      13Ag     3.863302    13B1u    4.307606  

    Beta Occupied:                                                        

       1Ag   -10.331011     1B1u  -10.330979     2Ag    -0.585218  
       2B1u   -0.479046     3Ag    -0.264001  

    Beta Virtual:                                                         

       1B3u   -0.155757     1B2u   -0.155757     1B2g   -0.087628  
       1B3g   -0.087628     3B1u   -0.022892     4B1u    0.277902  
       2B3u    0.309924     2B2u    0.309924     4Ag     0.326739  
       2B2g    0.360042     2B3g    0.360042     5Ag     0.369998  
       3B2u    0.588873     3B3u    0.588873     5B1u    0.593537  
       6Ag     0.635282     1B1g    0.635283     6B1u    0.746769  
       1Au     0.746771     7Ag     0.844862     3B3g    0.962618  
       3B2g    0.962618     7B1u    1.195734     8Ag     1.855370  
       4B2u    1.904955     4B3u    1.904955     4B2g    1.985186  
       4B3g    1.985186     8B1u    2.216176     5B3u    2.495376  
       5B2u    2.495376     9Ag     2.511096     2B1g    2.587604  
      10Ag     2.587604     6B2u    2.669165     6B3u    2.669165  
       5B3g    2.687817     5B2g    2.687817     9B1u    2.751927  
       2Au     2.751928     6B3g    2.863149     6B2g    2.863149  
       3B1g    2.923610    11Ag     2.923624     7B2u    2.958207  
       7B3u    2.958207    10B1u    2.958536     3Au     2.996818  
      11B1u    2.996834    12Ag     3.204451     7B3g    3.308453  
       7B2g    3.308453    12B1u    3.720713    13Ag     3.900880  
      13B1u    4.337275  

    Final Occupation by Irrep:
             Ag   B1g   B2g   B3g    Au   B1u   B2u   B3u 
    DOCC [     3,    0,    0,    0,    0,    2,    0,    0 ]
    SOCC [     0,    0,    0,    0,    0,    0,    1,    1 ]
    NA   [     3,    0,    0,    0,    0,    2,    1,    1 ]
    NB   [     3,    0,    0,    0,    0,    2,    0,    0 ]

  @DF-UKS Final Energy:   -75.77705156210203

   => Energetics <=

    Nuclear Repulsion Energy =              8.9631888857354998
    One-Electron Energy =                -118.7532590921855018
    Two-Electron Energy =                  42.3715398877227756
    DFT Exchange-Correlation Energy =      -8.3585212433748151
    Empirical Dispersion Energy =           0.0000000000000000
    VV10 Nonlocal Energy =                  0.0000000000000000
    Total Energy =                        -75.7770515621020309

  UHF NO Occupations:
  HONO-2 :    2B1u 1.9985071
  HONO-1 :    1B2u 1.0000000
  HONO-0 :    1B3u 1.0000000
  LUNO+0 :    3B1u 0.0014929
  LUNO+1 :    4 Ag 0.0004252
  LUNO+2 :    5 Ag 0.0000494
  LUNO+3 :    4B1u 0.0000004


Computation Completed


Properties will be evaluated at   0.000000,   0.000000,   0.000000 [a0]

Properties computed using the B3LYP density matrix


 Multipole Moments:

 ------------------------------------------------------------------------------------
     Multipole            Electronic (a.u.)      Nuclear  (a.u.)        Total (a.u.)
 ------------------------------------------------------------------------------------

 L = 1.  Multiply by 2.5417464519 to convert [e a0] to [Debye]
 Dipole X            :          0.0000000            0.0000000            0.0000000
 Dipole Y            :          0.0000000            0.0000000            0.0000000
 Dipole Z            :          0.0000000            0.0000000            0.0000000
 Magnitude           :                                                    0.0000000

 L = 2.  Multiply by 1.3450342976 to convert [e a0^2] to [Debye ang]
 Quadrupole XX       :         -8.9188914            0.0000000           -8.9188914
 Quadrupole XY       :          0.0000000            0.0000000            0.0000000
 Quadrupole XZ       :          0.0000000            0.0000000            0.0000000
 Quadrupole YY       :         -8.9188914            0.0000000           -8.9188914
 Quadrupole YZ       :          0.0000000            0.0000000            0.0000000
 Quadrupole ZZ       :        -59.3818407           48.3950741          -10.9867666
 Traceless XX        :         16.8209831          -16.1316914            0.6892917
 Traceless YY        :         16.8209831          -16.1316914            0.6892917
 Traceless ZZ        :        -33.6419662           32.2633827           -1.3785835

 ------------------------------------------------------------------------------------
  ==> Computing MBIS Charges <==

  Electron Count from Grid (Expected Number): 12.00000 (12.00000)
  Difference: -0.00000

  MBIS Charges: (a.u.)
   Center  Symbol  Z      Pop.       Charge
      1       C    6    6.000000    0.000000
      2       C    6    6.000000    0.000000

  MBIS Dipoles: [e a0]
   Center  Symbol  Z        X           Y           Z
      1       C    6   -0.000000   -0.000000    0.040617
      2       C    6   -0.000000   -0.000000   -0.040617

  MBIS Quadrupoles: [e a0^2]
   Center  Symbol  Z      XX        XY        XZ        YY        YZ        ZZ
      1       C    6   -4.4594   -0.0000    0.0000   -4.4594   -0.0000   -5.3302
      2       C    6   -4.4594   -0.0000   -0.0000   -4.4594    0.0000   -5.3302

  MBIS Octupoles: [e a0^3]
   Center  Symbol  Z      XXX       XXY       XXZ       XYY       XYZ       XZZ       YYY       YYZ       YZZ       ZZZ
      1       C    6   -0.0000   -0.0000   -0.0675    0.0000   -0.0000   -0.0000   -0.0000   -0.0675   -0.0000   -0.1481
      2       C    6   -0.0000   -0.0000    0.0675    0.0000    0.0000   -0.0000    0.0000    0.0675   -0.0000    0.1481

  MBIS Radial Moments:
   Center  Symbol  Z      [a0^2]      [a0^3]      [a0^4]      
      1       C    6   14.249139   35.660637   106.101758
      2       C    6   14.249139   35.660637   106.101758

  MBIS Valence Widths: [a0]
   Center  Symbol  Z     Width
      1       C    6    0.530070
      2       C    6    0.530070


  MBIS Valence Charges: (a.u.)
   Center  Symbol  Z     Charge
      1       C    6   -4.312950
      2       C    6   -4.312950

*** tstop() called on cics-quant-001 at Tue Dec 23 13:38:01 2025
Module time:
	user time   =       0.43 seconds =       0.01 minutes
	system time =       0.04 seconds =       0.00 minutes
	total time  =          0 seconds =       0.00 minutes
Total time:
	user time   =       1.50 seconds =       0.03 minutes
	system time =       0.10 seconds =       0.00 minutes
	total time  =          0 seconds =       0.00 minutes

    Psi4 stopped on: Tuesday, 23 December 2025 01:38PM
    Psi4 wall time for execution: 0:00:00.64

*** Psi4 exiting successfully. Buy a developer a beer!
