
    -----------------------------------------------------------------------
          Psi4: An Open-Source Ab Initio Electronic Structure Package
                               Psi4 1.9.1 release

                         Git: Rev {} zzzzzzz 


    D. G. A. Smith, L. A. Burns, A. C. Simmonett, R. M. Parrish,
    M. C. Schieber, R. Galvelis, P. Kraus, H. Kruse, R. Di Remigio,
    A. Alenaizan, A. M. James, S. Lehtola, J. P. Misiewicz, M. Scheurer,
    R. A. Shaw, J. B. Schriber, Y. Xie, Z. L. Glick, D. A. Sirianni,
    J. S. O'Brien, J. M. Waldrop, A. Kumar, E. G. Hohenstein,
    B. P. Pritchard, B. R. Brooks, H. F. Schaefer III, A. Yu. Sokolov,
    K. Patkowski, A. E. DePrince III, U. Bozkaya, R. A. King,
    F. A. Evangelista, J. M. Turney, T. D. Crawford, C. D. Sherrill,
    J. Chem. Phys. 152(18) 184108 (2020). https://doi.org/10.1063/5.0006002

                            Additional Code Authors
    E. T. Seidl, C. L. Janssen, E. F. Valeev, M. L. Leininger,
    J. F. Gonthier, R. M. Richard, H. R. McAlexander, M. Saitow, X. Wang,
    P. Verma, M. H. Lechner, A. Jiang, S. Behnle, A. G. Heide,
    M. F. Herbst, and D. L. Poole

             Previous Authors, Complete List of Code Contributors,
                       and Citations for Specific Modules
    https://github.com/psi4/psi4/blob/master/codemeta.json
    https://github.com/psi4/psi4/graphs/contributors
    http://psicode.org/psi4manual/master/introduction.html#citing-psifour

    -----------------------------------------------------------------------


    Psi4 started on: Tuesday, 26 August 2025 09:08PM

    Process ID: 60444
    Host:       Mac.lan
    PSIDATADIR: /Users/joseantoniorodriguesromero/anaconda3/share/psi4
    Memory:     500.0 MiB
    Threads:    1
    
  ==> Input File <==

--------------------------------------------------------------------------
molecule { 
0 3
O           0.000000           0.000000           0.000000
O           0.000000           0.000000           0.639827
}

set { 
basis              cc-pvtz
reference          uks
maxiter            500
DAMPING_PERCENTAGE 1
E_CONVERGENCE      1.0E-8
D_CONVERGENCE      1.0E-8
DIIS_MAX_VECS      400
MBIS_MAXITER       8000
guess              read
}

E, wfn = energy('b3lyp', restart_file='last_wfn', return_wfn=True)
properties('b3lyp','MBIS_CHARGES', wfn=wfn)
wfn.to_file('last_wfn')
--------------------------------------------------------------------------

Scratch directory: /tmp/
 Found user provided orbital data. Setting orbital guess to READ 
 Copying restart file <last_wfn.npy> to </tmp/scan_OO_2.default.60444.180.npy> for internal processing
   => Libint2 <=

    Primary   basis highest AM E, G, H:  6, 6, 3
    Auxiliary basis highest AM E, G, H:  7, 7, 4
    Onebody   basis highest AM E, G, H:  -, -, -
    Solid Harmonics ordering:            Gaussian

*** tstart() called on Mac.lan
*** at Tue Aug 26 21:08:53 2025

   => Loading Basis Set <=

    Name: CC-PVTZ
    Role: ORBITAL
    Keyword: BASIS
    atoms 1-2 entry O          line   262 file /Users/joseantoniorodriguesromero/anaconda3/share/psi4/basis/cc-pvtz.gbs 


         ---------------------------------------------------------
                                   SCF
               by Justin Turney, Rob Parrish, Andy Simmonett
                          and Daniel G. A. Smith
                              UKS Reference
                        1 Threads,    500 MiB Core
         ---------------------------------------------------------

  ==> Geometry <==

    Molecular point group: d2h
    Full point group: D_inf_h

    Geometry (in Angstrom), charge = 0, multiplicity = 3:

       Center              X                  Y                   Z               Mass       
    ------------   -----------------  -----------------  -----------------  -----------------
         O            0.000000000000     0.000000000000    -0.319913500000    15.994914619570
         O            0.000000000000     0.000000000000     0.319913500000    15.994914619570

  Running in d2h symmetry.

  Rotational constants: A = ************  B =      5.14896  C =      5.14896 [cm^-1]
  Rotational constants: A = ************  B = 154361.90977  C = 154361.90977 [MHz]
  Nuclear repulsion =   52.932029256158302

  Charge       = 0
  Multiplicity = 3
  Electrons    = 16
  Nalpha       = 9
  Nbeta        = 7

  ==> Algorithm <==

  SCF Algorithm Type is DF.
  DIIS enabled.
  MOM disabled.
  Fractional occupation disabled.
  Guess Type is READ.
  Energy threshold   = 1.00e-08
  Density threshold  = 1.00e-08
  Integral threshold = 1.00e-12

  ==> Primary Basis <==

  Basis Set: CC-PVTZ
    Blend: CC-PVTZ
    Number of shells: 20
    Number of basis functions: 60
    Number of Cartesian functions: 70
    Spherical Harmonics?: true
    Max angular momentum: 3

  ==> DFT Potential <==

   => LibXC <=

    Version 6.2.2
    S. Lehtola, C. Steigemann, M. J.T. Oliveira, and M. A.L. Marques.,  SoftwareX 7, 1–5 (2018) (10.1016/j.softx.2017.11.002)

   => Composite Functional: B3LYP <= 

    B3LYP Hyb-GGA Exchange-Correlation Functional

    P. J. Stephens, F. J. Devlin, C. F. Chabalowski, and M. J. Frisch.,  J. Phys. Chem. 98, 11623 (1994) (10.1021/j100096a001)

    Deriv               =              1
    GGA                 =           TRUE
    Meta                =          FALSE

    Exchange Hybrid     =           TRUE
    MP2 Hybrid          =          FALSE

   => Exchange Functionals <=

    0.0800   Slater exchange
    0.7200         Becke 88

   => Exact (HF) Exchange <=

    0.2000               HF 

   => Correlation Functionals <=

    0.1900   Vosko, Wilk & Nusair (VWN5_RPA)
    0.8100   Lee, Yang & Parr

   => LibXC Density Thresholds  <==

    XC_HYB_GGA_XC_B3LYP:  1.00E-15 

   => Molecular Quadrature <=

    Radial Scheme          =       TREUTLER
    Pruning Scheme         =           NONE
    Nuclear Scheme         =       TREUTLER

    Blocking Scheme        =         OCTREE
    BS radius alpha        =              1
    Pruning alpha          =              1
    Radial Points          =             75
    Spherical Points       =            302
    Total Points           =          42262
    Total Blocks           =            374
    Max Points             =            254
    Max Functions          =             60
    Weights Tolerance      =       1.00E-15

   => Loading Basis Set <=

    Name: (CC-PVTZ AUX)
    Role: JKFIT
    Keyword: DF_BASIS_SCF
    atoms 1-2 entry O          line   229 file /Users/joseantoniorodriguesromero/anaconda3/share/psi4/basis/cc-pvtz-jkfit.gbs 

   => Loading Basis Set <=

    Name: CC-PVTZ
    Role: ORBITAL
    Keyword: BASIS
    atoms 1-2 entry O          line   262 file /Users/joseantoniorodriguesromero/anaconda3/share/psi4/basis/cc-pvtz.gbs 

  Reading orbitals from file /tmp/scan_OO_2.default.60444.180.npy, no projection.

  ==> Integral Setup <==

  DFHelper Memory: AOs need 0.005 GiB; user supplied 0.295 GiB. 
  Using in-core AOs.

  ==> MemDFJK: Density-Fitted J/K Matrices <==

    J tasked:                   Yes
    K tasked:                   Yes
    wK tasked:                   No
    OpenMP threads:               1
    Memory [MiB]:               302
    Algorithm:                 Core
    Schwarz Cutoff:           1E-12
    Mask sparsity (%):       0.0000
    Fitting Condition:        1E-10

   => Auxiliary Basis Set <=

  Basis Set: (CC-PVTZ AUX)
    Blend: CC-PVTZ-JKFIT
    Number of shells: 50
    Number of basis functions: 158
    Number of Cartesian functions: 192
    Spherical Harmonics?: true
    Max angular momentum: 4

  Cached 100.0% of DFT collocation blocks in 0.071 [GiB].

  Minimum eigenvalue in the overlap matrix is 1.3922526337E-03.
  Reciprocal condition number of the overlap matrix is 3.4783657225E-04.
    Using symmetric orthogonalization.

  ==> Pre-Iterations <==

  SCF Guess: Orbitals guess was supplied from a previous computation.

   -------------------------------------------------------
    Irrep   Nso     Nmo     Nalpha   Nbeta   Ndocc  Nsocc
   -------------------------------------------------------
     Ag        13      13       3       3       3       0
     B1g        3       3       0       0       0       0
     B2g        7       7       1       0       0       1
     B3g        7       7       1       0       0       1
     Au         3       3       0       0       0       0
     B1u       13      13       2       2       2       0
     B2u        7       7       1       1       1       0
     B3u        7       7       1       1       1       0
   -------------------------------------------------------
    Total      60      60       9       7       7       2
   -------------------------------------------------------

  ==> Iterations <==

                           Total Energy        Delta E     RMS |[F,P]|

   @DF-UKS iter   0:  -147.94279808687622   -1.47943e+02   2.68260e-02 
   @DF-UKS iter   1:  -147.94251908969224    2.78997e-04   5.49507e-03 ADIIS/DIIS
   @DF-UKS iter   2:  -147.94255634527036   -3.72556e-05   5.57086e-03 ADIIS/DIIS/DAMP=1%
   @DF-UKS iter   3:  -147.94276436886562   -2.08024e-04   1.05300e-04 ADIIS/DIIS/DAMP=1%
   @DF-UKS iter   4:  -147.94727245877272   -4.50809e-03   4.65522e-05 DIIS/DAMP=1%
   @DF-UKS iter   5:  -147.94723728590196    3.51729e-05   5.65725e-06 DIIS/DAMP=1%
   @DF-UKS iter   6:  -147.94725600060585   -1.87147e-05   8.40938e-07 DIIS/DAMP=1%
   @DF-UKS iter   7:  -147.94726132117594   -5.32057e-06   9.82628e-08 DIIS/DAMP=1%
   @DF-UKS iter   8:  -147.94726049767829    8.23498e-07   5.99907e-09 DIIS/DAMP=1%
   @DF-UKS iter   9:  -147.94726058576734   -8.80891e-08   2.02175e-10 DIIS/DAMP=1%
   @DF-UKS iter  10:  -147.94726058121984    4.54750e-09   1.74950e-11 DIIS/DAMP=1%
  Energy and wave function converged.


  ==> Post-Iterations <==

   Electrons on quadrature grid:
      Nalpha   =    9.0000002794 ; deviation = 2.794e-07
      Nbeta    =    7.0000002634 ; deviation = 2.634e-07
      Ntotal   =   16.0000005428 ; deviation = 5.428e-07 

   @Spin Contamination Metric:   1.024173262E-03
   @S^2 Expected:                2.000000000E+00
   @S^2 Observed:                2.001024173E+00
   @S   Expected:                1.000000000E+00
   @S   Observed:                1.000000000E+00

    Orbital Energies [Eh]
    ---------------------

    Alpha Occupied:                                                       

       1Ag   -19.393683     1B1u  -19.313014     2Ag    -1.925464  
       1B3u   -1.055241     1B2u   -1.055241     3Ag    -0.736877  
       2B1u   -0.695651     1B3g    0.035402     1B2g    0.035402  

    Alpha Virtual:                                                        

       3B1u    0.325478     2B3u    0.346613     2B2u    0.346613  
       4Ag     0.441450     5Ag     0.649404     2B3g    0.690301  
       2B2g    0.690301     6Ag     1.061491     1B1g    1.061494  
       4B1u    1.197730     5B1u    1.712116     3B2u    1.741886  
       3B3u    1.741886     6B1u    1.833557     1Au     1.833558  
       7Ag     1.900330     3B3g    2.230626     3B2g    2.230626  
       4B3u    3.051511     4B2u    3.051511     7B1u    3.973990  
       8Ag     4.121659     4B3g    4.208383     4B2g    4.208383  
       5B2u    4.407541     5B3u    4.407541     9Ag     4.684661  
       2B1g    4.684663     8B1u    4.695287     6B3u    5.409720  
       6B2u    5.409720    10Ag     5.605508     5B3g    5.694088  
       5B2g    5.694088     9B1u    5.744337     2Au     5.744338  
       6B3g    5.912034     6B2g    5.912034    11Ag     6.017479  
       3B1g    6.017480    12Ag     6.024358    10B1u    6.886396  
       7B3u    7.476981     7B2u    7.476981    11B1u    7.983873  
       3Au     7.983874    12B1u   10.425158     7B3g   10.487268  
       7B2g   10.487268    13Ag    11.762992    13B1u   36.727772  

    Beta Occupied:                                                        

       1Ag   -19.374761     1B1u  -19.293559     2Ag    -1.904495  
       1B3u   -0.990870     1B2u   -0.990870     3Ag    -0.683983  
       2B1u   -0.618009  

    Beta Virtual:                                                         

       1B3g    0.197181     1B2g    0.197181     3B1u    0.343675  
       2B3u    0.373049     2B2u    0.373049     4Ag     0.455643  
       5Ag     0.674760     2B3g    0.755964     2B2g    0.755964  
       1B1g    1.097599     6Ag     1.097599     4B1u    1.240994  
       5B1u    1.749531     3B2u    1.791373     3B3u    1.791373  
       1Au     1.906556     6B1u    1.906556     7Ag     1.912740  
       3B3g    2.278253     3B2g    2.278253     4B3u    3.089687  
       4B2u    3.089687     7B1u    4.001467     8Ag     4.146118  
       4B3g    4.267754     4B2g    4.267754     5B2u    4.447764  
       5B3u    4.447764     9Ag     4.715050     2B1g    4.715050  
       8B1u    4.752002     6B3u    5.456250     6B2u    5.456250  
      10Ag     5.635530     5B3g    5.763047     5B2g    5.763047  
       2Au     5.822011     9B1u    5.822012     6B3g    5.954301  
       6B2g    5.954301    11Ag     6.046467    12Ag     6.087688  
       3B1g    6.087688    10B1u    6.916577     7B3u    7.512694  
       7B2u    7.512694    11B1u    8.042316     3Au     8.042317  
      12B1u   10.445907     7B3g   10.536989     7B2g   10.536989  
      13Ag    11.805466    13B1u   36.751974  

    Final Occupation by Irrep:
             Ag   B1g   B2g   B3g    Au   B1u   B2u   B3u 
    DOCC [     3,    0,    0,    0,    0,    2,    1,    1 ]
    SOCC [     0,    0,    1,    1,    0,    0,    0,    0 ]
    NA   [     3,    0,    1,    1,    0,    2,    1,    1 ]
    NB   [     3,    0,    0,    0,    0,    2,    1,    1 ]

  @DF-UKS Final Energy:  -147.94726058121984

   => Energetics <=

    Nuclear Repulsion Energy =             52.9320292561583017
    One-Electron Energy =                -303.3074237759403786
    Two-Electron Energy =                 117.0805813701725953
    DFT Exchange-Correlation Energy =     -14.6524474316103710
    Empirical Dispersion Energy =           0.0000000000000000
    VV10 Nonlocal Energy =                  0.0000000000000000
    Total Energy =                       -147.9472605812198367

  UHF NO Occupations:
  HONO-2 :    2B1u 1.9997906
  HONO-1 :    1B3g 1.0000000
  HONO-0 :    1B2g 1.0000000
  LUNO+0 :    3B1u 0.0002094
  LUNO+1 :    2B3u 0.0001187
  LUNO+2 :    2B2u 0.0001187
  LUNO+3 :    4 Ag 0.0000632


Computation Completed


Properties will be evaluated at   0.000000,   0.000000,   0.000000 [a0]

Properties computed using the SCF density matrix


 Multipole Moments:

 ------------------------------------------------------------------------------------
     Multipole            Electronic (a.u.)      Nuclear  (a.u.)        Total (a.u.)
 ------------------------------------------------------------------------------------

 L = 1.  Multiply by 2.5417464519 to convert [e a0] to [Debye]
 Dipole X            :          0.0000000            0.0000000            0.0000000
 Dipole Y            :          0.0000000            0.0000000            0.0000000
 Dipole Z            :          0.0000000            0.0000000            0.0000000
 Magnitude           :                                                    0.0000000

 ------------------------------------------------------------------------------------

*** tstop() called on Mac.lan at Tue Aug 26 21:08:54 2025
Module time:
	user time   =      13.75 seconds =       0.23 minutes
	system time =       1.92 seconds =       0.03 minutes
	total time  =          1 seconds =       0.02 minutes
Total time:
	user time   =      13.75 seconds =       0.23 minutes
	system time =       1.92 seconds =       0.03 minutes
	total time  =          1 seconds =       0.02 minutes

*** tstart() called on Mac.lan
*** at Tue Aug 26 21:08:54 2025

   => Libint2 <=

    Primary   basis highest AM E, G, H:  6, 6, 3
    Auxiliary basis highest AM E, G, H:  7, 7, 4
    Onebody   basis highest AM E, G, H:  -, -, -
    Solid Harmonics ordering:            Gaussian
   => Loading Basis Set <=

    Name: CC-PVTZ
    Role: ORBITAL
    Keyword: BASIS
    atoms 1-2 entry O          line   262 file /Users/joseantoniorodriguesromero/anaconda3/share/psi4/basis/cc-pvtz.gbs 


         ---------------------------------------------------------
                                   SCF
               by Justin Turney, Rob Parrish, Andy Simmonett
                          and Daniel G. A. Smith
                              UKS Reference
                        1 Threads,    500 MiB Core
         ---------------------------------------------------------

  ==> Geometry <==

    Molecular point group: d2h
    Full point group: D_inf_h

    Geometry (in Angstrom), charge = 0, multiplicity = 3:

       Center              X                  Y                   Z               Mass       
    ------------   -----------------  -----------------  -----------------  -----------------
         O            0.000000000000     0.000000000000    -0.319913500000    15.994914619570
         O            0.000000000000     0.000000000000     0.319913500000    15.994914619570

  Running in d2h symmetry.

  Rotational constants: A = ************  B =      5.14896  C =      5.14896 [cm^-1]
  Rotational constants: A = ************  B = 154361.90977  C = 154361.90977 [MHz]
  Nuclear repulsion =   52.932029256158302

  Charge       = 0
  Multiplicity = 3
  Electrons    = 16
  Nalpha       = 9
  Nbeta        = 7

  ==> Algorithm <==

  SCF Algorithm Type is DF.
  DIIS enabled.
  MOM disabled.
  Fractional occupation disabled.
  Guess Type is READ.
  Energy threshold   = 1.00e-08
  Density threshold  = 1.00e-08
  Integral threshold = 1.00e-12

  ==> Primary Basis <==

  Basis Set: CC-PVTZ
    Blend: CC-PVTZ
    Number of shells: 20
    Number of basis functions: 60
    Number of Cartesian functions: 70
    Spherical Harmonics?: true
    Max angular momentum: 3

  ==> DFT Potential <==

   => LibXC <=

    Version 6.2.2
    S. Lehtola, C. Steigemann, M. J.T. Oliveira, and M. A.L. Marques.,  SoftwareX 7, 1–5 (2018) (10.1016/j.softx.2017.11.002)

   => Composite Functional: B3LYP <= 

    B3LYP Hyb-GGA Exchange-Correlation Functional

    P. J. Stephens, F. J. Devlin, C. F. Chabalowski, and M. J. Frisch.,  J. Phys. Chem. 98, 11623 (1994) (10.1021/j100096a001)

    Deriv               =              1
    GGA                 =           TRUE
    Meta                =          FALSE

    Exchange Hybrid     =           TRUE
    MP2 Hybrid          =          FALSE

   => Exchange Functionals <=

    0.0800   Slater exchange
    0.7200         Becke 88

   => Exact (HF) Exchange <=

    0.2000               HF 

   => Correlation Functionals <=

    0.1900   Vosko, Wilk & Nusair (VWN5_RPA)
    0.8100   Lee, Yang & Parr

   => LibXC Density Thresholds  <==

    XC_HYB_GGA_XC_B3LYP:  1.00E-15 

   => Molecular Quadrature <=

    Radial Scheme          =       TREUTLER
    Pruning Scheme         =           NONE
    Nuclear Scheme         =       TREUTLER

    Blocking Scheme        =         OCTREE
    BS radius alpha        =              1
    Pruning alpha          =              1
    Radial Points          =             75
    Spherical Points       =            302
    Total Points           =          42262
    Total Blocks           =            374
    Max Points             =            254
    Max Functions          =             60
    Weights Tolerance      =       1.00E-15

   => Loading Basis Set <=

    Name: (CC-PVTZ AUX)
    Role: JKFIT
    Keyword: DF_BASIS_SCF
    atoms 1-2 entry O          line   229 file /Users/joseantoniorodriguesromero/anaconda3/share/psi4/basis/cc-pvtz-jkfit.gbs 

   => Loading Basis Set <=

    Name: CC-PVTZ
    Role: ORBITAL
    Keyword: BASIS
    atoms 1-2 entry O          line   262 file /Users/joseantoniorodriguesromero/anaconda3/share/psi4/basis/cc-pvtz.gbs 

  Reading orbitals from file /tmp/scan_OO_2.default.60444.180.npy, no projection.

  ==> Integral Setup <==

  DFHelper Memory: AOs need 0.005 GiB; user supplied 0.295 GiB. 
  Using in-core AOs.

  ==> MemDFJK: Density-Fitted J/K Matrices <==

    J tasked:                   Yes
    K tasked:                   Yes
    wK tasked:                   No
    OpenMP threads:               1
    Memory [MiB]:               302
    Algorithm:                 Core
    Schwarz Cutoff:           1E-12
    Mask sparsity (%):       0.0000
    Fitting Condition:        1E-10

   => Auxiliary Basis Set <=

  Basis Set: (CC-PVTZ AUX)
    Blend: CC-PVTZ-JKFIT
    Number of shells: 50
    Number of basis functions: 158
    Number of Cartesian functions: 192
    Spherical Harmonics?: true
    Max angular momentum: 4

  Cached 100.0% of DFT collocation blocks in 0.071 [GiB].

  Minimum eigenvalue in the overlap matrix is 1.3922526337E-03.
  Reciprocal condition number of the overlap matrix is 3.4783657225E-04.
    Using symmetric orthogonalization.

  ==> Pre-Iterations <==

  SCF Guess: Orbitals guess was supplied from a previous computation.

   -------------------------------------------------------
    Irrep   Nso     Nmo     Nalpha   Nbeta   Ndocc  Nsocc
   -------------------------------------------------------
     Ag        13      13       3       3       3       0
     B1g        3       3       0       0       0       0
     B2g        7       7       1       0       0       1
     B3g        7       7       1       0       0       1
     Au         3       3       0       0       0       0
     B1u       13      13       2       2       2       0
     B2u        7       7       1       1       1       0
     B3u        7       7       1       1       1       0
   -------------------------------------------------------
    Total      60      60       9       7       7       2
   -------------------------------------------------------

  ==> Iterations <==

                           Total Energy        Delta E     RMS |[F,P]|

   @DF-UKS iter   0:  -147.94726058134017   -1.47947e+02   1.31351e-12 
   @DF-UKS iter   1:  -147.94726058134017    0.00000e+00   1.33128e-12 DIIS
  Energy and wave function converged.


  ==> Post-Iterations <==

   Electrons on quadrature grid:
      Nalpha   =    9.0000002794 ; deviation = 2.794e-07
      Nbeta    =    7.0000002634 ; deviation = 2.634e-07
      Ntotal   =   16.0000005428 ; deviation = 5.428e-07 

   @Spin Contamination Metric:   1.024173262E-03
   @S^2 Expected:                2.000000000E+00
   @S^2 Observed:                2.001024173E+00
   @S   Expected:                1.000000000E+00
   @S   Observed:                1.000000000E+00

    Orbital Energies [Eh]
    ---------------------

    Alpha Occupied:                                                       

       1Ag   -19.393683     1B1u  -19.313014     2Ag    -1.925464  
       1B3u   -1.055241     1B2u   -1.055241     3Ag    -0.736877  
       2B1u   -0.695651     1B3g    0.035402     1B2g    0.035402  

    Alpha Virtual:                                                        

       3B1u    0.325478     2B3u    0.346613     2B2u    0.346613  
       4Ag     0.441450     5Ag     0.649404     2B3g    0.690301  
       2B2g    0.690301     6Ag     1.061491     1B1g    1.061494  
       4B1u    1.197730     5B1u    1.712116     3B2u    1.741886  
       3B3u    1.741886     6B1u    1.833557     1Au     1.833558  
       7Ag     1.900330     3B3g    2.230626     3B2g    2.230626  
       4B3u    3.051511     4B2u    3.051511     7B1u    3.973990  
       8Ag     4.121659     4B3g    4.208383     4B2g    4.208383  
       5B2u    4.407541     5B3u    4.407541     9Ag     4.684661  
       2B1g    4.684663     8B1u    4.695287     6B3u    5.409720  
       6B2u    5.409720    10Ag     5.605508     5B3g    5.694088  
       5B2g    5.694088     9B1u    5.744337     2Au     5.744338  
       6B3g    5.912034     6B2g    5.912034    11Ag     6.017479  
       3B1g    6.017480    12Ag     6.024358    10B1u    6.886396  
       7B3u    7.476981     7B2u    7.476981    11B1u    7.983873  
       3Au     7.983874    12B1u   10.425158     7B3g   10.487268  
       7B2g   10.487268    13Ag    11.762992    13B1u   36.727772  

    Beta Occupied:                                                        

       1Ag   -19.374761     1B1u  -19.293559     2Ag    -1.904495  
       1B3u   -0.990870     1B2u   -0.990870     3Ag    -0.683983  
       2B1u   -0.618009  

    Beta Virtual:                                                         

       1B3g    0.197181     1B2g    0.197181     3B1u    0.343675  
       2B3u    0.373049     2B2u    0.373049     4Ag     0.455643  
       5Ag     0.674760     2B3g    0.755964     2B2g    0.755964  
       1B1g    1.097599     6Ag     1.097599     4B1u    1.240994  
       5B1u    1.749531     3B2u    1.791373     3B3u    1.791373  
       1Au     1.906556     6B1u    1.906556     7Ag     1.912740  
       3B3g    2.278253     3B2g    2.278253     4B3u    3.089687  
       4B2u    3.089687     7B1u    4.001467     8Ag     4.146118  
       4B3g    4.267754     4B2g    4.267754     5B2u    4.447764  
       5B3u    4.447764     9Ag     4.715050     2B1g    4.715050  
       8B1u    4.752002     6B3u    5.456250     6B2u    5.456250  
      10Ag     5.635530     5B3g    5.763047     5B2g    5.763047  
       2Au     5.822011     9B1u    5.822012     6B3g    5.954301  
       6B2g    5.954301    11Ag     6.046467    12Ag     6.087688  
       3B1g    6.087688    10B1u    6.916577     7B3u    7.512694  
       7B2u    7.512694    11B1u    8.042316     3Au     8.042317  
      12B1u   10.445907     7B3g   10.536989     7B2g   10.536989  
      13Ag    11.805466    13B1u   36.751974  

    Final Occupation by Irrep:
             Ag   B1g   B2g   B3g    Au   B1u   B2u   B3u 
    DOCC [     3,    0,    0,    0,    0,    2,    1,    1 ]
    SOCC [     0,    0,    1,    1,    0,    0,    0,    0 ]
    NA   [     3,    0,    1,    1,    0,    2,    1,    1 ]
    NB   [     3,    0,    0,    0,    0,    2,    1,    1 ]

  @DF-UKS Final Energy:  -147.94726058134017

   => Energetics <=

    Nuclear Repulsion Energy =             52.9320292561583017
    One-Electron Energy =                -303.3074237736892087
    Two-Electron Energy =                 117.0805813675952436
    DFT Exchange-Correlation Energy =     -14.6524474314045197
    Empirical Dispersion Energy =           0.0000000000000000
    VV10 Nonlocal Energy =                  0.0000000000000000
    Total Energy =                       -147.9472605813401742

  UHF NO Occupations:
  HONO-2 :    2B1u 1.9997906
  HONO-1 :    1B3g 1.0000000
  HONO-0 :    1B2g 1.0000000
  LUNO+0 :    3B1u 0.0002094
  LUNO+1 :    2B3u 0.0001187
  LUNO+2 :    2B2u 0.0001187
  LUNO+3 :    4 Ag 0.0000632


Computation Completed


Properties will be evaluated at   0.000000,   0.000000,   0.000000 [a0]

Properties computed using the B3LYP density matrix


 Multipole Moments:

 ------------------------------------------------------------------------------------
     Multipole            Electronic (a.u.)      Nuclear  (a.u.)        Total (a.u.)
 ------------------------------------------------------------------------------------

 L = 1.  Multiply by 2.5417464519 to convert [e a0] to [Debye]
 Dipole X            :          0.0000000            0.0000000            0.0000000
 Dipole Y            :          0.0000000            0.0000000            0.0000000
 Dipole Z            :          0.0000000            0.0000000            0.0000000
 Magnitude           :                                                    0.0000000

 L = 2.  Multiply by 1.3450342976 to convert [e a0^2] to [Debye ang]
 Quadrupole XX       :         -6.7382050            0.0000000           -6.7382050
 Quadrupole XY       :          0.0000000            0.0000000            0.0000000
 Quadrupole XZ       :          0.0000000            0.0000000            0.0000000
 Quadrupole YY       :         -6.7382050            0.0000000           -6.7382050
 Quadrupole YZ       :          0.0000000            0.0000000            0.0000000
 Quadrupole ZZ       :        -14.4563739            5.8476699           -8.6087040
 Traceless XX        :          2.5727230           -1.9492233            0.6234997
 Traceless YY        :          2.5727230           -1.9492233            0.6234997
 Traceless ZZ        :         -5.1454459            3.8984466           -1.2469993

 ------------------------------------------------------------------------------------
  ==> Computing MBIS Charges <==

  Electron Count from Grid (Expected Number): 16.00000 (16.00000)
  Difference: -0.00000

  MBIS Charges: (a.u.)
   Center  Symbol  Z      Pop.       Charge
      1       O    8    8.000000    0.000000
      2       O    8    8.000000    0.000000

  MBIS Dipoles: [e a0]
   Center  Symbol  Z        X           Y           Z
      1       O    8   -0.000000    0.000000    0.282531
      2       O    8    0.000000   -0.000000   -0.282531

  MBIS Quadrupoles: [e a0^2]
   Center  Symbol  Z      XX        XY        XZ        YY        YZ        ZZ
      1       O    8   -3.3691    0.0000    0.0000   -3.3691   -0.0000   -3.9627
      2       O    8   -3.3691    0.0000    0.0000   -3.3691    0.0000   -3.9627

  MBIS Octupoles: [e a0^3]
   Center  Symbol  Z      XXX       XXY       XXZ       XYY       XYZ       XZZ       YYY       YYZ       YZZ       ZZZ
      1       O    8   -0.0000   -0.0000    0.6301   -0.0000   -0.0000   -0.0000   -0.0000    0.6301    0.0000    0.5032
      2       O    8   -0.0000   -0.0000   -0.6301   -0.0000    0.0000   -0.0000    0.0000   -0.6301    0.0000   -0.5032

  MBIS Radial Moments:
   Center  Symbol  Z      [a0^2]      [a0^3]      [a0^4]      
      1       O    8   10.700950   20.641355   48.874735
      2       O    8   10.700950   20.641355   48.874735

  MBIS Valence Widths: [a0]
   Center  Symbol  Z     Width
      1       O    8    0.369736
      2       O    8    0.369736

*** tstop() called on Mac.lan at Tue Aug 26 21:08:55 2025
Module time:
	user time   =       4.00 seconds =       0.07 minutes
	system time =       1.89 seconds =       0.03 minutes
	total time  =          1 seconds =       0.02 minutes
Total time:
	user time   =      17.84 seconds =       0.30 minutes
	system time =       3.92 seconds =       0.07 minutes
	total time  =          2 seconds =       0.03 minutes

    Psi4 stopped on: Tuesday, 26 August 2025 09:08PM
    Psi4 wall time for execution: 0:00:02.11

*** Psi4 exiting successfully. Buy a developer a beer!
