
    -----------------------------------------------------------------------
          Psi4: An Open-Source Ab Initio Electronic Structure Package
                               Psi4 1.9.1 release

                         Git: Rev {} zzzzzzz 


    D. G. A. Smith, L. A. Burns, A. C. Simmonett, R. M. Parrish,
    M. C. Schieber, R. Galvelis, P. Kraus, H. Kruse, R. Di Remigio,
    A. Alenaizan, A. M. James, S. Lehtola, J. P. Misiewicz, M. Scheurer,
    R. A. Shaw, J. B. Schriber, Y. Xie, Z. L. Glick, D. A. Sirianni,
    J. S. O'Brien, J. M. Waldrop, A. Kumar, E. G. Hohenstein,
    B. P. Pritchard, B. R. Brooks, H. F. Schaefer III, A. Yu. Sokolov,
    K. Patkowski, A. E. DePrince III, U. Bozkaya, R. A. King,
    F. A. Evangelista, J. M. Turney, T. D. Crawford, C. D. Sherrill,
    J. Chem. Phys. 152(18) 184108 (2020). https://doi.org/10.1063/5.0006002

                            Additional Code Authors
    E. T. Seidl, C. L. Janssen, E. F. Valeev, M. L. Leininger,
    J. F. Gonthier, R. M. Richard, H. R. McAlexander, M. Saitow, X. Wang,
    P. Verma, M. H. Lechner, A. Jiang, S. Behnle, A. G. Heide,
    M. F. Herbst, and D. L. Poole

             Previous Authors, Complete List of Code Contributors,
                       and Citations for Specific Modules
    https://github.com/psi4/psi4/blob/master/codemeta.json
    https://github.com/psi4/psi4/graphs/contributors
    http://psicode.org/psi4manual/master/introduction.html#citing-psifour

    -----------------------------------------------------------------------


    Psi4 started on: Tuesday, 26 August 2025 09:42PM

    Process ID: 60592
    Host:       Mac.lan
    PSIDATADIR: /Users/joseantoniorodriguesromero/anaconda3/share/psi4
    Memory:     500.0 MiB
    Threads:    1
    
  ==> Input File <==

--------------------------------------------------------------------------
molecule { 
0 3
C           0.000000           0.000000           0.000000
C           0.000000           0.000000           2.324659
}

set { 
basis              cc-pvtz
reference          uks
maxiter            500
DAMPING_PERCENTAGE 1
E_CONVERGENCE      1.0E-8
D_CONVERGENCE      1.0E-8
DIIS_MAX_VECS      400
MBIS_MAXITER       8000
guess              read
}

E, wfn = energy('b3lyp', restart_file='last_wfn', return_wfn=True)
properties('b3lyp','MBIS_CHARGES', wfn=wfn)
wfn.to_file('last_wfn')
--------------------------------------------------------------------------

Scratch directory: /tmp/
 Found user provided orbital data. Setting orbital guess to READ 
 Copying restart file <last_wfn.npy> to </tmp/scan_CC_43.default.60592.180.npy> for internal processing
   => Libint2 <=

    Primary   basis highest AM E, G, H:  6, 6, 3
    Auxiliary basis highest AM E, G, H:  7, 7, 4
    Onebody   basis highest AM E, G, H:  -, -, -
    Solid Harmonics ordering:            Gaussian

*** tstart() called on Mac.lan
*** at Tue Aug 26 21:42:49 2025

   => Loading Basis Set <=

    Name: CC-PVTZ
    Role: ORBITAL
    Keyword: BASIS
    atoms 1-2 entry C          line   186 file /Users/joseantoniorodriguesromero/anaconda3/share/psi4/basis/cc-pvtz.gbs 


         ---------------------------------------------------------
                                   SCF
               by Justin Turney, Rob Parrish, Andy Simmonett
                          and Daniel G. A. Smith
                              UKS Reference
                        1 Threads,    500 MiB Core
         ---------------------------------------------------------

  ==> Geometry <==

    Molecular point group: d2h
    Full point group: D_inf_h

    Geometry (in Angstrom), charge = 0, multiplicity = 3:

       Center              X                  Y                   Z               Mass       
    ------------   -----------------  -----------------  -----------------  -----------------
         C            0.000000000000     0.000000000000    -1.162329500000    12.000000000000
         C            0.000000000000     0.000000000000     1.162329500000    12.000000000000

  Running in d2h symmetry.

  Rotational constants: A = ************  B =      0.51991  C =      0.51991 [cm^-1]
  Rotational constants: A = ************  B =  15586.45812  C =  15586.45812 [MHz]
  Nuclear repulsion =    8.194913569740766

  Charge       = 0
  Multiplicity = 3
  Electrons    = 12
  Nalpha       = 7
  Nbeta        = 5

  ==> Algorithm <==

  SCF Algorithm Type is DF.
  DIIS enabled.
  MOM disabled.
  Fractional occupation disabled.
  Guess Type is READ.
  Energy threshold   = 1.00e-08
  Density threshold  = 1.00e-08
  Integral threshold = 1.00e-12

  ==> Primary Basis <==

  Basis Set: CC-PVTZ
    Blend: CC-PVTZ
    Number of shells: 20
    Number of basis functions: 60
    Number of Cartesian functions: 70
    Spherical Harmonics?: true
    Max angular momentum: 3

  ==> DFT Potential <==

   => LibXC <=

    Version 6.2.2
    S. Lehtola, C. Steigemann, M. J.T. Oliveira, and M. A.L. Marques.,  SoftwareX 7, 1–5 (2018) (10.1016/j.softx.2017.11.002)

   => Composite Functional: B3LYP <= 

    B3LYP Hyb-GGA Exchange-Correlation Functional

    P. J. Stephens, F. J. Devlin, C. F. Chabalowski, and M. J. Frisch.,  J. Phys. Chem. 98, 11623 (1994) (10.1021/j100096a001)

    Deriv               =              1
    GGA                 =           TRUE
    Meta                =          FALSE

    Exchange Hybrid     =           TRUE
    MP2 Hybrid          =          FALSE

   => Exchange Functionals <=

    0.0800   Slater exchange
    0.7200         Becke 88

   => Exact (HF) Exchange <=

    0.2000               HF 

   => Correlation Functionals <=

    0.1900   Vosko, Wilk & Nusair (VWN5_RPA)
    0.8100   Lee, Yang & Parr

   => LibXC Density Thresholds  <==

    XC_HYB_GGA_XC_B3LYP:  1.00E-15 

   => Molecular Quadrature <=

    Radial Scheme          =       TREUTLER
    Pruning Scheme         =           NONE
    Nuclear Scheme         =       TREUTLER

    Blocking Scheme        =         OCTREE
    BS radius alpha        =              1
    Pruning alpha          =              1
    Radial Points          =             75
    Spherical Points       =            302
    Total Points           =          43120
    Total Blocks           =            388
    Max Points             =            255
    Max Functions          =             60
    Weights Tolerance      =       1.00E-15

   => Loading Basis Set <=

    Name: (CC-PVTZ AUX)
    Role: JKFIT
    Keyword: DF_BASIS_SCF
    atoms 1-2 entry C          line   125 file /Users/joseantoniorodriguesromero/anaconda3/share/psi4/basis/cc-pvtz-jkfit.gbs 

   => Loading Basis Set <=

    Name: CC-PVTZ
    Role: ORBITAL
    Keyword: BASIS
    atoms 1-2 entry C          line   186 file /Users/joseantoniorodriguesromero/anaconda3/share/psi4/basis/cc-pvtz.gbs 

  Reading orbitals from file /tmp/scan_CC_43.default.60592.180.npy, no projection.

  ==> Integral Setup <==

  DFHelper Memory: AOs need 0.005 GiB; user supplied 0.295 GiB. 
  Using in-core AOs.

  ==> MemDFJK: Density-Fitted J/K Matrices <==

    J tasked:                   Yes
    K tasked:                   Yes
    wK tasked:                   No
    OpenMP threads:               1
    Memory [MiB]:               301
    Algorithm:                 Core
    Schwarz Cutoff:           1E-12
    Mask sparsity (%):       0.0000
    Fitting Condition:        1E-10

   => Auxiliary Basis Set <=

  Basis Set: (CC-PVTZ AUX)
    Blend: CC-PVTZ-JKFIT
    Number of shells: 50
    Number of basis functions: 158
    Number of Cartesian functions: 192
    Spherical Harmonics?: true
    Max angular momentum: 4

  Cached 100.0% of DFT collocation blocks in 0.071 [GiB].

  Minimum eigenvalue in the overlap matrix is 1.9405361762E-02.
  Reciprocal condition number of the overlap matrix is 6.8565325971E-03.
    Using symmetric orthogonalization.

  ==> Pre-Iterations <==

  SCF Guess: Orbitals guess was supplied from a previous computation.

   -------------------------------------------------------
    Irrep   Nso     Nmo     Nalpha   Nbeta   Ndocc  Nsocc
   -------------------------------------------------------
     Ag        13      13       3       2       2       1
     B1g        3       3       0       0       0       0
     B2g        7       7       0       0       0       0
     B3g        7       7       0       0       0       0
     Au         3       3       0       0       0       0
     B1u       13      13       2       2       2       0
     B2u        7       7       1       1       1       0
     B3u        7       7       1       0       0       1
   -------------------------------------------------------
    Total      60      60       7       5       5       2
   -------------------------------------------------------

  ==> Iterations <==

                           Total Energy        Delta E     RMS |[F,P]|

   @DF-UKS iter   0:   -75.70707419472028   -7.57071e+01   6.72363e-04 
   @DF-UKS iter   1:   -75.71450025150413   -7.42606e-03   3.21885e-04 DIIS/ADIIS
   @DF-UKS iter   2:   -75.71452746323847   -2.72117e-05   2.35048e-04 DIIS/ADIIS/DAMP=1%
   @DF-UKS iter   3:   -75.71445001083796    7.74524e-05   1.46605e-05 DIIS/DAMP=1%
   @DF-UKS iter   4:   -75.71454245915415   -9.24483e-05   6.14599e-06 DIIS/DAMP=1%
   @DF-UKS iter   5:   -75.71454996535229   -7.50620e-06   1.82886e-06 DIIS/DAMP=1%
   @DF-UKS iter   6:   -75.71454795344083    2.01191e-06   1.88562e-07 DIIS/DAMP=1%
   @DF-UKS iter   7:   -75.71454856646533   -6.13024e-07   2.76355e-08 DIIS/DAMP=1%
   @DF-UKS iter   8:   -75.71454847129255    9.51728e-08   3.03321e-09 DIIS/DAMP=1%
   @DF-UKS iter   9:   -75.71454848704732   -1.57548e-08   2.67111e-10 DIIS/DAMP=1%
   @DF-UKS iter  10:   -75.71454848546234    1.58498e-09   2.26265e-11 DIIS/DAMP=1%
  Energy and wave function converged.


  ==> Post-Iterations <==

   Electrons on quadrature grid:
      Nalpha   =    6.9999997643 ; deviation = -2.357e-07
      Nbeta    =    4.9999998817 ; deviation = -1.183e-07
      Ntotal   =   11.9999996460 ; deviation = -3.540e-07 

   @Spin Contamination Metric:   5.645874021E-03
   @S^2 Expected:                2.000000000E+00
   @S^2 Observed:                2.005645874E+00
   @S   Expected:                1.000000000E+00
   @S   Observed:                1.000000000E+00

    Orbital Energies [Eh]
    ---------------------

    Alpha Occupied:                                                       

       1Ag   -10.358648     1B1u  -10.358596     2Ag    -0.632394  
       2B1u   -0.560917     3Ag    -0.309796     1B3u   -0.272558  
       1B2u   -0.246870  

    Alpha Virtual:                                                        

       1B2g   -0.186543     1B3g   -0.159657     3B1u   -0.112508  
       4B1u    0.256129     2B3u    0.270510     2B2u    0.284993  
       4Ag     0.302051     2B2g    0.327717     2B3g    0.339880  
       5Ag     0.356245     3B3u    0.540968     5B1u    0.546740  
       3B2u    0.556396     6Ag     0.616593     1B1g    0.616922  
       1Au     0.697345     6B1u    0.697825     7Ag     0.700462  
       3B2g    0.862523     3B3g    0.879728     7B1u    1.159774  
       8Ag     1.816191     4B3u    1.866507     4B2u    1.887650  
       4B2g    1.918500     4B3g    1.940455     8B1u    2.054613  
       5B3u    2.483918     5B2u    2.503887     9Ag     2.507649  
       2B1g    2.584920    10Ag     2.586931     6B3u    2.631634  
       6B2u    2.631755     5B2g    2.637966     5B3g    2.638084  
       9B1u    2.662801     2Au     2.663272     6B2g    2.721509  
       6B3g    2.742063    10B1u    2.803512     7B3u    2.857733  
      11Ag     2.862368     3B1g    2.862903     7B2u    2.879803  
       3Au     2.917098    11B1u    2.917456    12Ag     3.041931  
       7B2g    3.124336     7B3g    3.145209    12B1u    3.527467  
      13Ag     3.797548    13B1u    4.220719  

    Beta Occupied:                                                        

       1Ag   -10.344342     1B1u  -10.344333     2Ag    -0.571700  
       2B1u   -0.497154     1B2u   -0.232014  

    Beta Virtual:                                                         

       3Ag    -0.176229     1B3u   -0.153028     1B3g   -0.144013  
       1B2g   -0.104686     3B1u   -0.036395     4B1u    0.286823  
       2B2u    0.291868     2B3u    0.304890     4Ag     0.332162  
       2B3g    0.344612     2B2g    0.354389     5Ag     0.380010  
       5B1u    0.568697     3B2u    0.580868     3B3u    0.590349  
       1B1g    0.639068     6Ag     0.640905     1Au     0.718431  
       6B1u    0.720329     7Ag     0.750210     3B3g    0.901606  
       3B2g    0.908202     7B1u    1.199203     8Ag     1.867827  
       4B2u    1.899746     4B3u    1.914141     4B3g    1.950894  
       4B2g    1.964995     8B1u    2.101876     5B2u    2.539403  
       5B3u    2.547517     9Ag     2.556046     2B1g    2.624559  
      10Ag     2.626949     6B2u    2.659523     6B3u    2.660204  
       5B3g    2.666288     5B2g    2.666923     2Au     2.699050  
       9B1u    2.701271     6B3g    2.770335     6B2g    2.781011  
      10B1u    2.857915     3B1g    2.897822    11Ag     2.901834  
       7B2u    2.914414     7B3u    2.931225     3Au     2.954452  
      11B1u    2.958650    12Ag     3.108142     7B3g    3.184100  
       7B2g    3.197299    12B1u    3.587708    13Ag     3.826000  
      13B1u    4.246076  

    Final Occupation by Irrep:
             Ag   B1g   B2g   B3g    Au   B1u   B2u   B3u 
    DOCC [     2,    0,    0,    0,    0,    2,    1,    0 ]
    SOCC [     1,    0,    0,    0,    0,    0,    0,    1 ]
    NA   [     3,    0,    0,    0,    0,    2,    1,    1 ]
    NB   [     2,    0,    0,    0,    0,    2,    1,    0 ]

  @DF-UKS Final Energy:   -75.71454848546234

   => Energetics <=

    Nuclear Repulsion Energy =              8.1949135697407662
    One-Electron Energy =                -117.0743193850957624
    Two-Electron Energy =                  41.4907220858683843
    DFT Exchange-Correlation Energy =      -8.3258647559757257
    Empirical Dispersion Energy =           0.0000000000000000
    VV10 Nonlocal Energy =                  0.0000000000000000
    Total Energy =                        -75.7145484854623447

  UHF NO Occupations:
  HONO-2 :    2B1u 1.9978255
  HONO-1 :    1B3u 1.0000000
  HONO-0 :    3 Ag 1.0000000
  LUNO+0 :    3B1u 0.0021745
  LUNO+1 :    4 Ag 0.0004958
  LUNO+2 :    2B2u 0.0001542
  LUNO+3 :    4B1u 0.0000005


Computation Completed


Properties will be evaluated at   0.000000,   0.000000,   0.000000 [a0]

Properties computed using the SCF density matrix


 Multipole Moments:

 ------------------------------------------------------------------------------------
     Multipole            Electronic (a.u.)      Nuclear  (a.u.)        Total (a.u.)
 ------------------------------------------------------------------------------------

 L = 1.  Multiply by 2.5417464519 to convert [e a0] to [Debye]
 Dipole X            :          0.0000000            0.0000000            0.0000000
 Dipole Y            :          0.0000000            0.0000000            0.0000000
 Dipole Z            :          0.0000000            0.0000000            0.0000000
 Magnitude           :                                                    0.0000000

 ------------------------------------------------------------------------------------

*** tstop() called on Mac.lan at Tue Aug 26 21:42:50 2025
Module time:
	user time   =      12.57 seconds =       0.21 minutes
	system time =       2.01 seconds =       0.03 minutes
	total time  =          1 seconds =       0.02 minutes
Total time:
	user time   =      12.57 seconds =       0.21 minutes
	system time =       2.01 seconds =       0.03 minutes
	total time  =          1 seconds =       0.02 minutes

*** tstart() called on Mac.lan
*** at Tue Aug 26 21:42:50 2025

   => Libint2 <=

    Primary   basis highest AM E, G, H:  6, 6, 3
    Auxiliary basis highest AM E, G, H:  7, 7, 4
    Onebody   basis highest AM E, G, H:  -, -, -
    Solid Harmonics ordering:            Gaussian
   => Loading Basis Set <=

    Name: CC-PVTZ
    Role: ORBITAL
    Keyword: BASIS
    atoms 1-2 entry C          line   186 file /Users/joseantoniorodriguesromero/anaconda3/share/psi4/basis/cc-pvtz.gbs 


         ---------------------------------------------------------
                                   SCF
               by Justin Turney, Rob Parrish, Andy Simmonett
                          and Daniel G. A. Smith
                              UKS Reference
                        1 Threads,    500 MiB Core
         ---------------------------------------------------------

  ==> Geometry <==

    Molecular point group: d2h
    Full point group: D_inf_h

    Geometry (in Angstrom), charge = 0, multiplicity = 3:

       Center              X                  Y                   Z               Mass       
    ------------   -----------------  -----------------  -----------------  -----------------
         C            0.000000000000     0.000000000000    -1.162329500000    12.000000000000
         C            0.000000000000     0.000000000000     1.162329500000    12.000000000000

  Running in d2h symmetry.

  Rotational constants: A = ************  B =      0.51991  C =      0.51991 [cm^-1]
  Rotational constants: A = ************  B =  15586.45812  C =  15586.45812 [MHz]
  Nuclear repulsion =    8.194913569740766

  Charge       = 0
  Multiplicity = 3
  Electrons    = 12
  Nalpha       = 7
  Nbeta        = 5

  ==> Algorithm <==

  SCF Algorithm Type is DF.
  DIIS enabled.
  MOM disabled.
  Fractional occupation disabled.
  Guess Type is READ.
  Energy threshold   = 1.00e-08
  Density threshold  = 1.00e-08
  Integral threshold = 1.00e-12

  ==> Primary Basis <==

  Basis Set: CC-PVTZ
    Blend: CC-PVTZ
    Number of shells: 20
    Number of basis functions: 60
    Number of Cartesian functions: 70
    Spherical Harmonics?: true
    Max angular momentum: 3

  ==> DFT Potential <==

   => LibXC <=

    Version 6.2.2
    S. Lehtola, C. Steigemann, M. J.T. Oliveira, and M. A.L. Marques.,  SoftwareX 7, 1–5 (2018) (10.1016/j.softx.2017.11.002)

   => Composite Functional: B3LYP <= 

    B3LYP Hyb-GGA Exchange-Correlation Functional

    P. J. Stephens, F. J. Devlin, C. F. Chabalowski, and M. J. Frisch.,  J. Phys. Chem. 98, 11623 (1994) (10.1021/j100096a001)

    Deriv               =              1
    GGA                 =           TRUE
    Meta                =          FALSE

    Exchange Hybrid     =           TRUE
    MP2 Hybrid          =          FALSE

   => Exchange Functionals <=

    0.0800   Slater exchange
    0.7200         Becke 88

   => Exact (HF) Exchange <=

    0.2000               HF 

   => Correlation Functionals <=

    0.1900   Vosko, Wilk & Nusair (VWN5_RPA)
    0.8100   Lee, Yang & Parr

   => LibXC Density Thresholds  <==

    XC_HYB_GGA_XC_B3LYP:  1.00E-15 

   => Molecular Quadrature <=

    Radial Scheme          =       TREUTLER
    Pruning Scheme         =           NONE
    Nuclear Scheme         =       TREUTLER

    Blocking Scheme        =         OCTREE
    BS radius alpha        =              1
    Pruning alpha          =              1
    Radial Points          =             75
    Spherical Points       =            302
    Total Points           =          43120
    Total Blocks           =            388
    Max Points             =            255
    Max Functions          =             60
    Weights Tolerance      =       1.00E-15

   => Loading Basis Set <=

    Name: (CC-PVTZ AUX)
    Role: JKFIT
    Keyword: DF_BASIS_SCF
    atoms 1-2 entry C          line   125 file /Users/joseantoniorodriguesromero/anaconda3/share/psi4/basis/cc-pvtz-jkfit.gbs 

   => Loading Basis Set <=

    Name: CC-PVTZ
    Role: ORBITAL
    Keyword: BASIS
    atoms 1-2 entry C          line   186 file /Users/joseantoniorodriguesromero/anaconda3/share/psi4/basis/cc-pvtz.gbs 

  Reading orbitals from file /tmp/scan_CC_43.default.60592.180.npy, no projection.

  ==> Integral Setup <==

  DFHelper Memory: AOs need 0.005 GiB; user supplied 0.295 GiB. 
  Using in-core AOs.

  ==> MemDFJK: Density-Fitted J/K Matrices <==

    J tasked:                   Yes
    K tasked:                   Yes
    wK tasked:                   No
    OpenMP threads:               1
    Memory [MiB]:               301
    Algorithm:                 Core
    Schwarz Cutoff:           1E-12
    Mask sparsity (%):       0.0000
    Fitting Condition:        1E-10

   => Auxiliary Basis Set <=

  Basis Set: (CC-PVTZ AUX)
    Blend: CC-PVTZ-JKFIT
    Number of shells: 50
    Number of basis functions: 158
    Number of Cartesian functions: 192
    Spherical Harmonics?: true
    Max angular momentum: 4

  Cached 100.0% of DFT collocation blocks in 0.071 [GiB].

  Minimum eigenvalue in the overlap matrix is 1.9405361762E-02.
  Reciprocal condition number of the overlap matrix is 6.8565325971E-03.
    Using symmetric orthogonalization.

  ==> Pre-Iterations <==

  SCF Guess: Orbitals guess was supplied from a previous computation.

   -------------------------------------------------------
    Irrep   Nso     Nmo     Nalpha   Nbeta   Ndocc  Nsocc
   -------------------------------------------------------
     Ag        13      13       3       2       2       1
     B1g        3       3       0       0       0       0
     B2g        7       7       0       0       0       0
     B3g        7       7       0       0       0       0
     Au         3       3       0       0       0       0
     B1u       13      13       2       2       2       0
     B2u        7       7       1       1       1       0
     B3u        7       7       1       0       0       1
   -------------------------------------------------------
    Total      60      60       7       5       5       2
   -------------------------------------------------------

  ==> Iterations <==

                           Total Energy        Delta E     RMS |[F,P]|

   @DF-UKS iter   0:   -75.71454848561083   -7.57145e+01   3.50118e-12 
   @DF-UKS iter   1:   -75.71454848561082    1.42109e-14   2.34208e-12 DIIS
  Energy and wave function converged.


  ==> Post-Iterations <==

   Electrons on quadrature grid:
      Nalpha   =    6.9999997643 ; deviation = -2.357e-07
      Nbeta    =    4.9999998817 ; deviation = -1.183e-07
      Ntotal   =   11.9999996460 ; deviation = -3.540e-07 

   @Spin Contamination Metric:   5.645874024E-03
   @S^2 Expected:                2.000000000E+00
   @S^2 Observed:                2.005645874E+00
   @S   Expected:                1.000000000E+00
   @S   Observed:                1.000000000E+00

    Orbital Energies [Eh]
    ---------------------

    Alpha Occupied:                                                       

       1Ag   -10.358648     1B1u  -10.358596     2Ag    -0.632394  
       2B1u   -0.560917     3Ag    -0.309796     1B3u   -0.272558  
       1B2u   -0.246870  

    Alpha Virtual:                                                        

       1B2g   -0.186543     1B3g   -0.159657     3B1u   -0.112508  
       4B1u    0.256129     2B3u    0.270510     2B2u    0.284993  
       4Ag     0.302051     2B2g    0.327717     2B3g    0.339880  
       5Ag     0.356245     3B3u    0.540968     5B1u    0.546740  
       3B2u    0.556396     6Ag     0.616593     1B1g    0.616922  
       1Au     0.697345     6B1u    0.697825     7Ag     0.700462  
       3B2g    0.862523     3B3g    0.879728     7B1u    1.159774  
       8Ag     1.816191     4B3u    1.866507     4B2u    1.887650  
       4B2g    1.918500     4B3g    1.940455     8B1u    2.054613  
       5B3u    2.483918     5B2u    2.503887     9Ag     2.507649  
       2B1g    2.584920    10Ag     2.586931     6B3u    2.631634  
       6B2u    2.631755     5B2g    2.637966     5B3g    2.638084  
       9B1u    2.662801     2Au     2.663272     6B2g    2.721509  
       6B3g    2.742063    10B1u    2.803512     7B3u    2.857733  
      11Ag     2.862368     3B1g    2.862903     7B2u    2.879803  
       3Au     2.917098    11B1u    2.917456    12Ag     3.041931  
       7B2g    3.124336     7B3g    3.145209    12B1u    3.527467  
      13Ag     3.797548    13B1u    4.220719  

    Beta Occupied:                                                        

       1Ag   -10.344342     1B1u  -10.344333     2Ag    -0.571700  
       2B1u   -0.497154     1B2u   -0.232014  

    Beta Virtual:                                                         

       3Ag    -0.176229     1B3u   -0.153028     1B3g   -0.144013  
       1B2g   -0.104686     3B1u   -0.036395     4B1u    0.286823  
       2B2u    0.291868     2B3u    0.304890     4Ag     0.332162  
       2B3g    0.344612     2B2g    0.354389     5Ag     0.380010  
       5B1u    0.568697     3B2u    0.580868     3B3u    0.590349  
       1B1g    0.639068     6Ag     0.640905     1Au     0.718431  
       6B1u    0.720329     7Ag     0.750210     3B3g    0.901606  
       3B2g    0.908202     7B1u    1.199203     8Ag     1.867827  
       4B2u    1.899746     4B3u    1.914141     4B3g    1.950894  
       4B2g    1.964995     8B1u    2.101876     5B2u    2.539403  
       5B3u    2.547517     9Ag     2.556046     2B1g    2.624559  
      10Ag     2.626949     6B2u    2.659523     6B3u    2.660204  
       5B3g    2.666288     5B2g    2.666923     2Au     2.699050  
       9B1u    2.701271     6B3g    2.770335     6B2g    2.781011  
      10B1u    2.857915     3B1g    2.897822    11Ag     2.901834  
       7B2u    2.914414     7B3u    2.931225     3Au     2.954452  
      11B1u    2.958650    12Ag     3.108142     7B3g    3.184100  
       7B2g    3.197299    12B1u    3.587708    13Ag     3.826000  
      13B1u    4.246076  

    Final Occupation by Irrep:
             Ag   B1g   B2g   B3g    Au   B1u   B2u   B3u 
    DOCC [     2,    0,    0,    0,    0,    2,    1,    0 ]
    SOCC [     1,    0,    0,    0,    0,    0,    0,    1 ]
    NA   [     3,    0,    0,    0,    0,    2,    1,    1 ]
    NB   [     2,    0,    0,    0,    0,    2,    1,    0 ]

  @DF-UKS Final Energy:   -75.71454848561082

   => Energetics <=

    Nuclear Repulsion Energy =              8.1949135697407662
    One-Electron Energy =                -117.0743193833240525
    Two-Electron Energy =                  41.4907220836694535
    DFT Exchange-Correlation Energy =      -8.3258647556969851
    Empirical Dispersion Energy =           0.0000000000000000
    VV10 Nonlocal Energy =                  0.0000000000000000
    Total Energy =                        -75.7145484856108197

  UHF NO Occupations:
  HONO-2 :    2B1u 1.9978255
  HONO-1 :    1B3u 1.0000000
  HONO-0 :    3 Ag 1.0000000
  LUNO+0 :    3B1u 0.0021745
  LUNO+1 :    4 Ag 0.0004958
  LUNO+2 :    2B2u 0.0001542
  LUNO+3 :    4B1u 0.0000005


Computation Completed


Properties will be evaluated at   0.000000,   0.000000,   0.000000 [a0]

Properties computed using the B3LYP density matrix


 Multipole Moments:

 ------------------------------------------------------------------------------------
     Multipole            Electronic (a.u.)      Nuclear  (a.u.)        Total (a.u.)
 ------------------------------------------------------------------------------------

 L = 1.  Multiply by 2.5417464519 to convert [e a0] to [Debye]
 Dipole X            :          0.0000000            0.0000000            0.0000000
 Dipole Y            :          0.0000000            0.0000000            0.0000000
 Dipole Z            :          0.0000000            0.0000000            0.0000000
 Magnitude           :                                                    0.0000000

 L = 2.  Multiply by 1.3450342976 to convert [e a0^2] to [Debye ang]
 Quadrupole XX       :         -8.9928366            0.0000000           -8.9928366
 Quadrupole XY       :          0.0000000            0.0000000            0.0000000
 Quadrupole XZ       :          0.0000000            0.0000000            0.0000000
 Quadrupole YY       :        -10.7655375            0.0000000          -10.7655375
 Quadrupole YZ       :          0.0000000            0.0000000            0.0000000
 Quadrupole ZZ       :        -65.8246392           57.8945258           -7.9301133
 Traceless XX        :         19.5348345          -19.2981753            0.2366592
 Traceless YY        :         17.7621336          -19.2981753           -1.5360417
 Traceless ZZ        :        -37.2969681           38.5963505            1.2993825

 ------------------------------------------------------------------------------------
  ==> Computing MBIS Charges <==

  Electron Count from Grid (Expected Number): 12.00000 (12.00000)
  Difference: -0.00000

  MBIS Charges: (a.u.)
   Center  Symbol  Z      Pop.       Charge
      1       C    6    6.000000    0.000000
      2       C    6    6.000000    0.000000

  MBIS Dipoles: [e a0]
   Center  Symbol  Z        X           Y           Z
      1       C    6   -0.000000   -0.000000   -0.190758
      2       C    6   -0.000000   -0.000000    0.190758

  MBIS Quadrupoles: [e a0^2]
   Center  Symbol  Z      XX        XY        XZ        YY        YZ        ZZ
      1       C    6   -4.4964    0.0000   -0.0000   -5.3828   -0.0000   -4.8030
      2       C    6   -4.4964    0.0000    0.0000   -5.3828    0.0000   -4.8030

  MBIS Octupoles: [e a0^3]
   Center  Symbol  Z      XXX       XXY       XXZ       XYY       XYZ       XZZ       YYY       YYZ       YZZ       ZZZ
      1       C    6   -0.0000   -0.0000   -0.4487   -0.0000   -0.0000    0.0000   -0.0000   -0.6825   -0.0000   -1.4878
      2       C    6   -0.0000   -0.0000    0.4487    0.0000    0.0000    0.0000   -0.0000    0.6825   -0.0000    1.4878

  MBIS Radial Moments:
   Center  Symbol  Z      [a0^2]      [a0^3]      [a0^4]      
      1       C    6   14.682236   37.684067   115.238670
      2       C    6   14.682236   37.684067   115.238670

  MBIS Valence Widths: [a0]
   Center  Symbol  Z     Width
      1       C    6    0.537208
      2       C    6    0.537208

*** tstop() called on Mac.lan at Tue Aug 26 21:42:51 2025
Module time:
	user time   =       4.05 seconds =       0.07 minutes
	system time =       1.31 seconds =       0.02 minutes
	total time  =          1 seconds =       0.02 minutes
Total time:
	user time   =      16.65 seconds =       0.28 minutes
	system time =       3.50 seconds =       0.06 minutes
	total time  =          2 seconds =       0.03 minutes

    Psi4 stopped on: Tuesday, 26 August 2025 09:42PM
    Psi4 wall time for execution: 0:00:01.96

*** Psi4 exiting successfully. Buy a developer a beer!
