
    -----------------------------------------------------------------------
          Psi4: An Open-Source Ab Initio Electronic Structure Package
                               Psi4 1.9.1 release

                         Git: Rev {} zzzzzzz 


    D. G. A. Smith, L. A. Burns, A. C. Simmonett, R. M. Parrish,
    M. C. Schieber, R. Galvelis, P. Kraus, H. Kruse, R. Di Remigio,
    A. Alenaizan, A. M. James, S. Lehtola, J. P. Misiewicz, M. Scheurer,
    R. A. Shaw, J. B. Schriber, Y. Xie, Z. L. Glick, D. A. Sirianni,
    J. S. O'Brien, J. M. Waldrop, A. Kumar, E. G. Hohenstein,
    B. P. Pritchard, B. R. Brooks, H. F. Schaefer III, A. Yu. Sokolov,
    K. Patkowski, A. E. DePrince III, U. Bozkaya, R. A. King,
    F. A. Evangelista, J. M. Turney, T. D. Crawford, C. D. Sherrill,
    J. Chem. Phys. 152(18) 184108 (2020). https://doi.org/10.1063/5.0006002

                            Additional Code Authors
    E. T. Seidl, C. L. Janssen, E. F. Valeev, M. L. Leininger,
    J. F. Gonthier, R. M. Richard, H. R. McAlexander, M. Saitow, X. Wang,
    P. Verma, M. H. Lechner, A. Jiang, S. Behnle, A. G. Heide,
    M. F. Herbst, and D. L. Poole

             Previous Authors, Complete List of Code Contributors,
                       and Citations for Specific Modules
    https://github.com/psi4/psi4/blob/master/codemeta.json
    https://github.com/psi4/psi4/graphs/contributors
    http://psicode.org/psi4manual/master/introduction.html#citing-psifour

    -----------------------------------------------------------------------


    Psi4 started on: Tuesday, 26 August 2025 10:20PM

    Process ID: 61243
    Host:       Mac.lan
    PSIDATADIR: /Users/joseantoniorodriguesromero/anaconda3/share/psi4
    Memory:     500.0 MiB
    Threads:    1
    
  ==> Input File <==

--------------------------------------------------------------------------
molecule { 
0 1
O           0.000000           0.000000           0.000000
C           0.000000           0.000000           0.666485
}

set { 
basis              cc-pvtz
reference          uks
maxiter            500
DAMPING_PERCENTAGE 1
E_CONVERGENCE      1.0E-8
D_CONVERGENCE      1.0E-8
DIIS_MAX_VECS      400
MBIS_MAXITER       8000
guess              read
}

E, wfn = energy('b3lyp', restart_file='last_wfn', return_wfn=True)
properties('b3lyp','MBIS_CHARGES', wfn=wfn)
wfn.to_file('last_wfn')
--------------------------------------------------------------------------

Scratch directory: /tmp/
 Found user provided orbital data. Setting orbital guess to READ 
 Copying restart file <last_wfn.npy> to </tmp/scan_CO_4.default.61243.180.npy> for internal processing
   => Libint2 <=

    Primary   basis highest AM E, G, H:  6, 6, 3
    Auxiliary basis highest AM E, G, H:  7, 7, 4
    Onebody   basis highest AM E, G, H:  -, -, -
    Solid Harmonics ordering:            Gaussian

*** tstart() called on Mac.lan
*** at Tue Aug 26 22:20:15 2025

   => Loading Basis Set <=

    Name: CC-PVTZ
    Role: ORBITAL
    Keyword: BASIS
    atoms 1 entry O          line   262 file /Users/joseantoniorodriguesromero/anaconda3/share/psi4/basis/cc-pvtz.gbs 
    atoms 2 entry C          line   186 file /Users/joseantoniorodriguesromero/anaconda3/share/psi4/basis/cc-pvtz.gbs 


         ---------------------------------------------------------
                                   SCF
               by Justin Turney, Rob Parrish, Andy Simmonett
                          and Daniel G. A. Smith
                              UKS Reference
                        1 Threads,    500 MiB Core
         ---------------------------------------------------------

  ==> Geometry <==

    Molecular point group: c2v
    Full point group: C_inf_v

    Geometry (in Angstrom), charge = 0, multiplicity = 1:

       Center              X                  Y                   Z               Mass       
    ------------   -----------------  -----------------  -----------------  -----------------
         O            0.000000000000     0.000000000000    -0.285688315492    15.994914619570
         C            0.000000000000     0.000000000000     0.380796684508    12.000000000000

  Running in c2v symmetry.

  Rotational constants: A = ************  B =      5.53518  C =      5.53518 [cm^-1]
  Rotational constants: A = ************  B = 165940.50800  C = 165940.50800 [MHz]
  Nuclear repulsion =   38.111144455104018

  Charge       = 0
  Multiplicity = 1
  Electrons    = 14
  Nalpha       = 7
  Nbeta        = 7

  ==> Algorithm <==

  SCF Algorithm Type is DF.
  DIIS enabled.
  MOM disabled.
  Fractional occupation disabled.
  Guess Type is READ.
  Energy threshold   = 1.00e-08
  Density threshold  = 1.00e-08
  Integral threshold = 1.00e-12

  ==> Primary Basis <==

  Basis Set: CC-PVTZ
    Blend: CC-PVTZ
    Number of shells: 20
    Number of basis functions: 60
    Number of Cartesian functions: 70
    Spherical Harmonics?: true
    Max angular momentum: 3

  ==> DFT Potential <==

   => LibXC <=

    Version 6.2.2
    S. Lehtola, C. Steigemann, M. J.T. Oliveira, and M. A.L. Marques.,  SoftwareX 7, 1–5 (2018) (10.1016/j.softx.2017.11.002)

   => Composite Functional: B3LYP <= 

    B3LYP Hyb-GGA Exchange-Correlation Functional

    P. J. Stephens, F. J. Devlin, C. F. Chabalowski, and M. J. Frisch.,  J. Phys. Chem. 98, 11623 (1994) (10.1021/j100096a001)

    Deriv               =              1
    GGA                 =           TRUE
    Meta                =          FALSE

    Exchange Hybrid     =           TRUE
    MP2 Hybrid          =          FALSE

   => Exchange Functionals <=

    0.0800   Slater exchange
    0.7200         Becke 88

   => Exact (HF) Exchange <=

    0.2000               HF 

   => Correlation Functionals <=

    0.1900   Vosko, Wilk & Nusair (VWN5_RPA)
    0.8100   Lee, Yang & Parr

   => LibXC Density Thresholds  <==

    XC_HYB_GGA_XC_B3LYP:  1.00E-15 

   => Molecular Quadrature <=

    Radial Scheme          =       TREUTLER
    Pruning Scheme         =           NONE
    Nuclear Scheme         =       TREUTLER

    Blocking Scheme        =         OCTREE
    BS radius alpha        =              1
    Pruning alpha          =              1
    Radial Points          =             75
    Spherical Points       =            302
    Total Points           =          43185
    Total Blocks           =            384
    Max Points             =            256
    Max Functions          =             60
    Weights Tolerance      =       1.00E-15

   => Loading Basis Set <=

    Name: (CC-PVTZ AUX)
    Role: JKFIT
    Keyword: DF_BASIS_SCF
    atoms 1 entry O          line   229 file /Users/joseantoniorodriguesromero/anaconda3/share/psi4/basis/cc-pvtz-jkfit.gbs 
    atoms 2 entry C          line   125 file /Users/joseantoniorodriguesromero/anaconda3/share/psi4/basis/cc-pvtz-jkfit.gbs 

   => Loading Basis Set <=

    Name: CC-PVTZ
    Role: ORBITAL
    Keyword: BASIS
    atoms 1 entry O          line   262 file /Users/joseantoniorodriguesromero/anaconda3/share/psi4/basis/cc-pvtz.gbs 
    atoms 2 entry C          line   186 file /Users/joseantoniorodriguesromero/anaconda3/share/psi4/basis/cc-pvtz.gbs 

  Reading orbitals from file /tmp/scan_CO_4.default.61243.180.npy, no projection.

  ==> Integral Setup <==

  DFHelper Memory: AOs need 0.005 GiB; user supplied 0.294 GiB. 
  Using in-core AOs.

  ==> MemDFJK: Density-Fitted J/K Matrices <==

    J tasked:                   Yes
    K tasked:                   Yes
    wK tasked:                   No
    OpenMP threads:               1
    Memory [MiB]:               301
    Algorithm:                 Core
    Schwarz Cutoff:           1E-12
    Mask sparsity (%):       0.0000
    Fitting Condition:        1E-10

   => Auxiliary Basis Set <=

  Basis Set: (CC-PVTZ AUX)
    Blend: CC-PVTZ-JKFIT
    Number of shells: 50
    Number of basis functions: 158
    Number of Cartesian functions: 192
    Spherical Harmonics?: true
    Max angular momentum: 4

  Cached 100.0% of DFT collocation blocks in 0.072 [GiB].

  Minimum eigenvalue in the overlap matrix is 1.9806541334E-03.
  Reciprocal condition number of the overlap matrix is 4.5744921485E-04.
    Using symmetric orthogonalization.

  ==> Pre-Iterations <==

  SCF Guess: Orbitals guess was supplied from a previous computation.

   -------------------------------------------------------
    Irrep   Nso     Nmo     Nalpha   Nbeta   Ndocc  Nsocc
   -------------------------------------------------------
     A1        26      26       5       5       5       0
     A2         6       6       0       0       0       0
     B1        14      14       1       1       1       0
     B2        14      14       1       1       1       0
   -------------------------------------------------------
    Total      60      60       7       7       7       0
   -------------------------------------------------------

  ==> Iterations <==

                           Total Energy        Delta E     RMS |[F,P]|

   @DF-UKS iter   0:  -111.67582957658109   -1.11676e+02   1.24352e-02 
   @DF-UKS iter   1:  -111.66754556513474    8.28401e-03   2.72177e-03 ADIIS/DIIS
   @DF-UKS iter   2:  -111.66842362792677   -8.78063e-04   2.02183e-03 ADIIS/DIIS/DAMP=1%
   @DF-UKS iter   3:  -111.66783612028080    5.87508e-04   1.13259e-04 ADIIS/DIIS/DAMP=1%
   @DF-UKS iter   4:  -111.66986515728912   -2.02904e-03   4.04157e-05 DIIS/DAMP=1%
   @DF-UKS iter   5:  -111.66979817700002    6.69803e-05   2.25946e-06 DIIS/DAMP=1%
   @DF-UKS iter   6:  -111.66979734529805    8.31702e-07   2.46114e-07 DIIS/DAMP=1%
   @DF-UKS iter   7:  -111.66979872490352   -1.37961e-06   2.79549e-08 DIIS/DAMP=1%
   @DF-UKS iter   8:  -111.66979892856226   -2.03659e-07   2.11710e-09 DIIS/DAMP=1%
   @DF-UKS iter   9:  -111.66979892277334    5.78892e-09   1.18563e-10 DIIS/DAMP=1%
  Energy and wave function converged.


  ==> Post-Iterations <==

   Electrons on quadrature grid:
      Nalpha   =    7.0000001427 ; deviation = 1.427e-07
      Nbeta    =    7.0000001427 ; deviation = 1.427e-07
      Ntotal   =   14.0000002853 ; deviation = 2.853e-07 

   @Spin Contamination Metric:  -7.105427358E-15
   @S^2 Expected:                0.000000000E+00
   @S^2 Observed:               -7.105427358E-15
   @S   Expected:                0.000000000E+00
   @S   Observed:                0.000000000E+00

    Orbital Energies [Eh]
    ---------------------

    Alpha Occupied:                                                       

       1A1   -19.218727     2A1   -10.231575     3A1    -1.279930  
       1B1    -0.736570     1B2    -0.736570     4A1    -0.552734  
       5A1    -0.320330  

    Alpha Virtual:                                                        

       2B2     0.139086     2B1     0.139086     6A1     0.170843  
       7A1     0.299214     3B2     0.339561     3B1     0.339561  
       8A1     0.558572     4B2     0.631282     4B1     0.631282  
       9A1     0.634046     1A2     0.634046    10A1     0.888169  
       5B2     1.111362     5B1     1.111362    11A1     1.366469  
       6B2     1.582782     6B1     1.582782    12A1     1.647587  
       2A2     1.647587    13A1     1.780838    14A1     2.365394  
       7B2     2.393240     7B1     2.393240     8B2     2.634815  
       8B1     2.634815    15A1     2.840033     3A2     2.868511  
      16A1     2.868511     9B2     3.087187     9B1     3.087187  
       4A2     3.241751    17A1     3.241751    18A1     3.255526  
      10B2     4.085623    10B1     4.085623    11B1     4.319172  
      11B2     4.319172    19A1     4.567530    12B1     5.310572  
      12B2     5.310572    20A1     5.934135    21A1     6.194398  
       5A2     6.194399    22A1     6.650412     6A2     6.650412  
      13B2     6.683608    13B1     6.683608    23A1     6.770069  
      24A1     7.901879    14B1     8.026128    14B2     8.026128  
      25A1    10.307832    26A1    18.280122  

    Beta Occupied:                                                        

       1A1   -19.218727     2A1   -10.231575     3A1    -1.279930  
       1B1    -0.736570     1B2    -0.736570     4A1    -0.552734  
       5A1    -0.320330  

    Beta Virtual:                                                         

       2B2     0.139086     2B1     0.139086     6A1     0.170843  
       7A1     0.299214     3B2     0.339561     3B1     0.339561  
       8A1     0.558572     4B2     0.631282     4B1     0.631282  
       9A1     0.634046     1A2     0.634046    10A1     0.888169  
       5B2     1.111362     5B1     1.111362    11A1     1.366469  
       6B2     1.582782     6B1     1.582782    12A1     1.647587  
       2A2     1.647587    13A1     1.780838    14A1     2.365394  
       7B2     2.393240     7B1     2.393240     8B2     2.634815  
       8B1     2.634815    15A1     2.840033     3A2     2.868511  
      16A1     2.868511     9B2     3.087187     9B1     3.087187  
       4A2     3.241751    17A1     3.241751    18A1     3.255526  
      10B2     4.085623    10B1     4.085623    11B1     4.319172  
      11B2     4.319172    19A1     4.567530    12B1     5.310572  
      12B2     5.310572    20A1     5.934135    21A1     6.194398  
       5A2     6.194399    22A1     6.650412     6A2     6.650412  
      13B2     6.683608    13B1     6.683608    23A1     6.770069  
      24A1     7.901879    14B1     8.026128    14B2     8.026128  
      25A1    10.307832    26A1    18.280122  

    Final Occupation by Irrep:
             A1    A2    B1    B2 
    DOCC [     5,    0,    1,    1 ]
    SOCC [     0,    0,    0,    0 ]
    NA   [     5,    0,    1,    1 ]
    NB   [     5,    0,    1,    1 ]

  @DF-UKS Final Energy:  -111.66979892277334

   => Energetics <=

    Nuclear Repulsion Energy =             38.1111444551040179
    One-Electron Energy =                -224.8301843204687316
    Two-Electron Energy =                  87.0083629889233663
    DFT Exchange-Correlation Energy =     -11.9591220463319807
    Empirical Dispersion Energy =           0.0000000000000000
    VV10 Nonlocal Energy =                  0.0000000000000000
    Total Energy =                       -111.6697989227733387

  UHF NO Occupations:
  HONO-2 :    1 B2 2.0000000
  HONO-1 :    1 B1 2.0000000
  HONO-0 :    5 A1 2.0000000
  LUNO+0 :    6 A1 0.0000000
  LUNO+1 :    7 A1 0.0000000
  LUNO+2 :    8 A1 0.0000000
  LUNO+3 :    9 A1 0.0000000


Computation Completed


Properties will be evaluated at   0.000000,   0.000000,   0.000000 [a0]

Properties computed using the SCF density matrix


 Multipole Moments:

 ------------------------------------------------------------------------------------
     Multipole            Electronic (a.u.)      Nuclear  (a.u.)        Total (a.u.)
 ------------------------------------------------------------------------------------

 L = 1.  Multiply by 2.5417464519 to convert [e a0] to [Debye]
 Dipole X            :          0.0000000            0.0000000            0.0000000
 Dipole Y            :          0.0000000            0.0000000            0.0000000
 Dipole Z            :         -0.5580740           -0.0013727           -0.5594467
 Magnitude           :                                                    0.5594467

 ------------------------------------------------------------------------------------

*** tstop() called on Mac.lan at Tue Aug 26 22:20:16 2025
Module time:
	user time   =      11.58 seconds =       0.19 minutes
	system time =       1.68 seconds =       0.03 minutes
	total time  =          1 seconds =       0.02 minutes
Total time:
	user time   =      11.58 seconds =       0.19 minutes
	system time =       1.68 seconds =       0.03 minutes
	total time  =          1 seconds =       0.02 minutes

*** tstart() called on Mac.lan
*** at Tue Aug 26 22:20:16 2025

   => Libint2 <=

    Primary   basis highest AM E, G, H:  6, 6, 3
    Auxiliary basis highest AM E, G, H:  7, 7, 4
    Onebody   basis highest AM E, G, H:  -, -, -
    Solid Harmonics ordering:            Gaussian
   => Loading Basis Set <=

    Name: CC-PVTZ
    Role: ORBITAL
    Keyword: BASIS
    atoms 1 entry O          line   262 file /Users/joseantoniorodriguesromero/anaconda3/share/psi4/basis/cc-pvtz.gbs 
    atoms 2 entry C          line   186 file /Users/joseantoniorodriguesromero/anaconda3/share/psi4/basis/cc-pvtz.gbs 


         ---------------------------------------------------------
                                   SCF
               by Justin Turney, Rob Parrish, Andy Simmonett
                          and Daniel G. A. Smith
                              UKS Reference
                        1 Threads,    500 MiB Core
         ---------------------------------------------------------

  ==> Geometry <==

    Molecular point group: c2v
    Full point group: C_inf_v

    Geometry (in Angstrom), charge = 0, multiplicity = 1:

       Center              X                  Y                   Z               Mass       
    ------------   -----------------  -----------------  -----------------  -----------------
         O            0.000000000000     0.000000000000    -0.285688315492    15.994914619570
         C            0.000000000000     0.000000000000     0.380796684508    12.000000000000

  Running in c2v symmetry.

  Rotational constants: A = ************  B =      5.53518  C =      5.53518 [cm^-1]
  Rotational constants: A = ************  B = 165940.50800  C = 165940.50800 [MHz]
  Nuclear repulsion =   38.111144455104018

  Charge       = 0
  Multiplicity = 1
  Electrons    = 14
  Nalpha       = 7
  Nbeta        = 7

  ==> Algorithm <==

  SCF Algorithm Type is DF.
  DIIS enabled.
  MOM disabled.
  Fractional occupation disabled.
  Guess Type is READ.
  Energy threshold   = 1.00e-08
  Density threshold  = 1.00e-08
  Integral threshold = 1.00e-12

  ==> Primary Basis <==

  Basis Set: CC-PVTZ
    Blend: CC-PVTZ
    Number of shells: 20
    Number of basis functions: 60
    Number of Cartesian functions: 70
    Spherical Harmonics?: true
    Max angular momentum: 3

  ==> DFT Potential <==

   => LibXC <=

    Version 6.2.2
    S. Lehtola, C. Steigemann, M. J.T. Oliveira, and M. A.L. Marques.,  SoftwareX 7, 1–5 (2018) (10.1016/j.softx.2017.11.002)

   => Composite Functional: B3LYP <= 

    B3LYP Hyb-GGA Exchange-Correlation Functional

    P. J. Stephens, F. J. Devlin, C. F. Chabalowski, and M. J. Frisch.,  J. Phys. Chem. 98, 11623 (1994) (10.1021/j100096a001)

    Deriv               =              1
    GGA                 =           TRUE
    Meta                =          FALSE

    Exchange Hybrid     =           TRUE
    MP2 Hybrid          =          FALSE

   => Exchange Functionals <=

    0.0800   Slater exchange
    0.7200         Becke 88

   => Exact (HF) Exchange <=

    0.2000               HF 

   => Correlation Functionals <=

    0.1900   Vosko, Wilk & Nusair (VWN5_RPA)
    0.8100   Lee, Yang & Parr

   => LibXC Density Thresholds  <==

    XC_HYB_GGA_XC_B3LYP:  1.00E-15 

   => Molecular Quadrature <=

    Radial Scheme          =       TREUTLER
    Pruning Scheme         =           NONE
    Nuclear Scheme         =       TREUTLER

    Blocking Scheme        =         OCTREE
    BS radius alpha        =              1
    Pruning alpha          =              1
    Radial Points          =             75
    Spherical Points       =            302
    Total Points           =          43185
    Total Blocks           =            384
    Max Points             =            256
    Max Functions          =             60
    Weights Tolerance      =       1.00E-15

   => Loading Basis Set <=

    Name: (CC-PVTZ AUX)
    Role: JKFIT
    Keyword: DF_BASIS_SCF
    atoms 1 entry O          line   229 file /Users/joseantoniorodriguesromero/anaconda3/share/psi4/basis/cc-pvtz-jkfit.gbs 
    atoms 2 entry C          line   125 file /Users/joseantoniorodriguesromero/anaconda3/share/psi4/basis/cc-pvtz-jkfit.gbs 

   => Loading Basis Set <=

    Name: CC-PVTZ
    Role: ORBITAL
    Keyword: BASIS
    atoms 1 entry O          line   262 file /Users/joseantoniorodriguesromero/anaconda3/share/psi4/basis/cc-pvtz.gbs 
    atoms 2 entry C          line   186 file /Users/joseantoniorodriguesromero/anaconda3/share/psi4/basis/cc-pvtz.gbs 

  Reading orbitals from file /tmp/scan_CO_4.default.61243.180.npy, no projection.

  ==> Integral Setup <==

  DFHelper Memory: AOs need 0.005 GiB; user supplied 0.294 GiB. 
  Using in-core AOs.

  ==> MemDFJK: Density-Fitted J/K Matrices <==

    J tasked:                   Yes
    K tasked:                   Yes
    wK tasked:                   No
    OpenMP threads:               1
    Memory [MiB]:               301
    Algorithm:                 Core
    Schwarz Cutoff:           1E-12
    Mask sparsity (%):       0.0000
    Fitting Condition:        1E-10

   => Auxiliary Basis Set <=

  Basis Set: (CC-PVTZ AUX)
    Blend: CC-PVTZ-JKFIT
    Number of shells: 50
    Number of basis functions: 158
    Number of Cartesian functions: 192
    Spherical Harmonics?: true
    Max angular momentum: 4

  Cached 100.0% of DFT collocation blocks in 0.072 [GiB].

  Minimum eigenvalue in the overlap matrix is 1.9806541334E-03.
  Reciprocal condition number of the overlap matrix is 4.5744921485E-04.
    Using symmetric orthogonalization.

  ==> Pre-Iterations <==

  SCF Guess: Orbitals guess was supplied from a previous computation.

   -------------------------------------------------------
    Irrep   Nso     Nmo     Nalpha   Nbeta   Ndocc  Nsocc
   -------------------------------------------------------
     A1        26      26       5       5       5       0
     A2         6       6       0       0       0       0
     B1        14      14       1       1       1       0
     B2        14      14       1       1       1       0
   -------------------------------------------------------
    Total      60      60       7       7       7       0
   -------------------------------------------------------

  ==> Iterations <==

                           Total Energy        Delta E     RMS |[F,P]|

   @DF-UKS iter   0:  -111.66979892481585   -1.11670e+02   1.16172e-11 
   @DF-UKS iter   1:  -111.66979892481574    1.13687e-13   1.02541e-11 DIIS
  Energy and wave function converged.


  ==> Post-Iterations <==

   Electrons on quadrature grid:
      Nalpha   =    7.0000001427 ; deviation = 1.427e-07
      Nbeta    =    7.0000001427 ; deviation = 1.427e-07
      Ntotal   =   14.0000002853 ; deviation = 2.853e-07 

   @Spin Contamination Metric:  -9.769962617E-15
   @S^2 Expected:                0.000000000E+00
   @S^2 Observed:               -9.769962617E-15
   @S   Expected:                0.000000000E+00
   @S   Observed:                0.000000000E+00

    Orbital Energies [Eh]
    ---------------------

    Alpha Occupied:                                                       

       1A1   -19.218727     2A1   -10.231575     3A1    -1.279930  
       1B1    -0.736570     1B2    -0.736570     4A1    -0.552734  
       5A1    -0.320330  

    Alpha Virtual:                                                        

       2B2     0.139086     2B1     0.139086     6A1     0.170843  
       7A1     0.299214     3B2     0.339561     3B1     0.339561  
       8A1     0.558572     4B2     0.631282     4B1     0.631282  
       9A1     0.634046     1A2     0.634046    10A1     0.888169  
       5B2     1.111362     5B1     1.111362    11A1     1.366469  
       6B2     1.582782     6B1     1.582782    12A1     1.647587  
       2A2     1.647587    13A1     1.780838    14A1     2.365394  
       7B2     2.393240     7B1     2.393240     8B2     2.634815  
       8B1     2.634815    15A1     2.840033     3A2     2.868511  
      16A1     2.868511     9B2     3.087187     9B1     3.087187  
       4A2     3.241751    17A1     3.241751    18A1     3.255526  
      10B2     4.085623    10B1     4.085623    11B1     4.319172  
      11B2     4.319172    19A1     4.567530    12B1     5.310572  
      12B2     5.310572    20A1     5.934135    21A1     6.194398  
       5A2     6.194399    22A1     6.650412     6A2     6.650412  
      13B2     6.683608    13B1     6.683608    23A1     6.770069  
      24A1     7.901879    14B1     8.026128    14B2     8.026128  
      25A1    10.307832    26A1    18.280122  

    Beta Occupied:                                                        

       1A1   -19.218727     2A1   -10.231575     3A1    -1.279930  
       1B1    -0.736570     1B2    -0.736570     4A1    -0.552734  
       5A1    -0.320330  

    Beta Virtual:                                                         

       2B2     0.139086     2B1     0.139086     6A1     0.170843  
       7A1     0.299214     3B2     0.339561     3B1     0.339561  
       8A1     0.558572     4B2     0.631282     4B1     0.631282  
       9A1     0.634046     1A2     0.634046    10A1     0.888169  
       5B2     1.111362     5B1     1.111362    11A1     1.366469  
       6B2     1.582782     6B1     1.582782    12A1     1.647587  
       2A2     1.647587    13A1     1.780838    14A1     2.365394  
       7B2     2.393240     7B1     2.393240     8B2     2.634815  
       8B1     2.634815    15A1     2.840033     3A2     2.868511  
      16A1     2.868511     9B2     3.087187     9B1     3.087187  
       4A2     3.241751    17A1     3.241751    18A1     3.255526  
      10B2     4.085623    10B1     4.085623    11B1     4.319172  
      11B2     4.319172    19A1     4.567530    12B1     5.310572  
      12B2     5.310572    20A1     5.934135    21A1     6.194398  
       5A2     6.194399    22A1     6.650412     6A2     6.650412  
      13B2     6.683608    13B1     6.683608    23A1     6.770069  
      24A1     7.901879    14B1     8.026128    14B2     8.026128  
      25A1    10.307832    26A1    18.280122  

    Final Occupation by Irrep:
             A1    A2    B1    B2 
    DOCC [     5,    0,    1,    1 ]
    SOCC [     0,    0,    0,    0 ]
    NA   [     5,    0,    1,    1 ]
    NB   [     5,    0,    1,    1 ]

  @DF-UKS Final Energy:  -111.66979892481574

   => Energetics <=

    Nuclear Repulsion Energy =             38.1111444551040179
    One-Electron Energy =                -224.8301843386539645
    Two-Electron Energy =                  87.0083630069268708
    DFT Exchange-Correlation Energy =     -11.9591220481926506
    Empirical Dispersion Energy =           0.0000000000000000
    VV10 Nonlocal Energy =                  0.0000000000000000
    Total Energy =                       -111.6697989248157370

  UHF NO Occupations:
  HONO-2 :    1 B2 2.0000000
  HONO-1 :    5 A1 2.0000000
  HONO-0 :    1 B1 2.0000000
  LUNO+0 :    6 A1 0.0000000
  LUNO+1 :    7 A1 0.0000000
  LUNO+2 :    2 B1 0.0000000
  LUNO+3 :    8 A1 0.0000000


Computation Completed


Properties will be evaluated at   0.000000,   0.000000,   0.000000 [a0]

Properties computed using the B3LYP density matrix


 Multipole Moments:

 ------------------------------------------------------------------------------------
     Multipole            Electronic (a.u.)      Nuclear  (a.u.)        Total (a.u.)
 ------------------------------------------------------------------------------------

 L = 1.  Multiply by 2.5417464519 to convert [e a0] to [Debye]
 Dipole X            :          0.0000000            0.0000000            0.0000000
 Dipole Y            :          0.0000000            0.0000000            0.0000000
 Dipole Z            :         -0.5580740           -0.0013727           -0.5594467
 Magnitude           :                                                    0.5594467

 L = 2.  Multiply by 1.3450342976 to convert [e a0^2] to [Debye ang]
 Quadrupole XX       :         -6.4688579            0.0000000           -6.4688579
 Quadrupole XY       :          0.0000000            0.0000000            0.0000000
 Quadrupole XZ       :          0.0000000            0.0000000            0.0000000
 Quadrupole YY       :         -6.4688579            0.0000000           -6.4688579
 Quadrupole YZ       :          0.0000000            0.0000000            0.0000000
 Quadrupole ZZ       :        -13.9870426            5.4386575           -8.5483851
 Traceless XX        :          2.5060616           -1.8128858            0.6931758
 Traceless YY        :          2.5060616           -1.8128858            0.6931758
 Traceless ZZ        :         -5.0121232            3.6257716           -1.3863515

 ------------------------------------------------------------------------------------
  ==> Computing MBIS Charges <==

  Electron Count from Grid (Expected Number): 14.00000 (14.00000)
  Difference: -0.00000

  MBIS Charges: (a.u.)
   Center  Symbol  Z      Pop.       Charge
      1       O    8    7.819386    0.180614
      2       C    6    6.180613   -0.180613

  MBIS Dipoles: [e a0]
   Center  Symbol  Z        X           Y           Z
      1       O    8   -0.000000    0.000000    0.005947
      2       C    6   -0.000000    0.000000   -0.337916

  MBIS Quadrupoles: [e a0^2]
   Center  Symbol  Z      XX        XY        XZ        YY        YZ        ZZ
      1       O    8   -2.6551   -0.0000   -0.0000   -2.6551    0.0000   -3.1205
      2       C    6   -3.8138    0.0000   -0.0000   -3.8138    0.0000   -4.8943

  MBIS Octupoles: [e a0^3]
   Center  Symbol  Z      XXX       XXY       XXZ       XYY       XYZ       XZZ       YYY       YYZ       YZZ       ZZZ
      1       O    8    0.0000    0.0000    0.0594   -0.0000    0.0000    0.0000   -0.0000    0.0594    0.0000    0.3689
      2       C    6   -0.0000    0.0000   -0.7038   -0.0000    0.0000   -0.0000    0.0000   -0.7038    0.0000   -1.6696

  MBIS Radial Moments:
   Center  Symbol  Z      [a0^2]      [a0^3]      [a0^4]      
      1       O    8    8.430624   13.757918   27.067303
      2       C    6   12.521841   29.482679   82.840308

  MBIS Valence Widths: [a0]
   Center  Symbol  Z     Width
      1       O    8    0.335287
      2       C    6    0.480161

*** tstop() called on Mac.lan at Tue Aug 26 22:20:17 2025
Module time:
	user time   =       4.17 seconds =       0.07 minutes
	system time =       2.07 seconds =       0.03 minutes
	total time  =          1 seconds =       0.02 minutes
Total time:
	user time   =      15.84 seconds =       0.26 minutes
	system time =       3.85 seconds =       0.06 minutes
	total time  =          2 seconds =       0.03 minutes

    Psi4 stopped on: Tuesday, 26 August 2025 10:20PM
    Psi4 wall time for execution: 0:00:01.91

*** Psi4 exiting successfully. Buy a developer a beer!
