
    -----------------------------------------------------------------------
          Psi4: An Open-Source Ab Initio Electronic Structure Package
                               Psi4 1.9.1 release

                         Git: Rev {} zzzzzzz 


    D. G. A. Smith, L. A. Burns, A. C. Simmonett, R. M. Parrish,
    M. C. Schieber, R. Galvelis, P. Kraus, H. Kruse, R. Di Remigio,
    A. Alenaizan, A. M. James, S. Lehtola, J. P. Misiewicz, M. Scheurer,
    R. A. Shaw, J. B. Schriber, Y. Xie, Z. L. Glick, D. A. Sirianni,
    J. S. O'Brien, J. M. Waldrop, A. Kumar, E. G. Hohenstein,
    B. P. Pritchard, B. R. Brooks, H. F. Schaefer III, A. Yu. Sokolov,
    K. Patkowski, A. E. DePrince III, U. Bozkaya, R. A. King,
    F. A. Evangelista, J. M. Turney, T. D. Crawford, C. D. Sherrill,
    J. Chem. Phys. 152(18) 184108 (2020). https://doi.org/10.1063/5.0006002

                            Additional Code Authors
    E. T. Seidl, C. L. Janssen, E. F. Valeev, M. L. Leininger,
    J. F. Gonthier, R. M. Richard, H. R. McAlexander, M. Saitow, X. Wang,
    P. Verma, M. H. Lechner, A. Jiang, S. Behnle, A. G. Heide,
    M. F. Herbst, and D. L. Poole

             Previous Authors, Complete List of Code Contributors,
                       and Citations for Specific Modules
    https://github.com/psi4/psi4/blob/master/codemeta.json
    https://github.com/psi4/psi4/graphs/contributors
    http://psicode.org/psi4manual/master/introduction.html#citing-psifour

    -----------------------------------------------------------------------


    Psi4 started on: Tuesday, 26 August 2025 10:11PM

    Process ID: 60918
    Host:       Mac.lan
    PSIDATADIR: /Users/joseantoniorodriguesromero/anaconda3/share/psi4
    Memory:     500.0 MiB
    Threads:    1
    
  ==> Input File <==

--------------------------------------------------------------------------
molecule { 
0 2
O           0.000000           0.000000           0.000000
H           0.000000           0.000000           0.845321
}

set { 
basis              cc-pvtz
reference          uks
maxiter            500
DAMPING_PERCENTAGE 1
E_CONVERGENCE      1.0E-8
D_CONVERGENCE      1.0E-8
DIIS_MAX_VECS      400
MBIS_MAXITER       8000
guess              read
}

E, wfn = energy('b3lyp', restart_file='last_wfn', return_wfn=True)
properties('b3lyp','MBIS_CHARGES', wfn=wfn)
wfn.to_file('last_wfn')
--------------------------------------------------------------------------

Scratch directory: /tmp/
 Found user provided orbital data. Setting orbital guess to READ 
 Copying restart file <last_wfn.npy> to </tmp/scan_HO_13.default.60918.180.npy> for internal processing
   => Libint2 <=

    Primary   basis highest AM E, G, H:  6, 6, 3
    Auxiliary basis highest AM E, G, H:  7, 7, 4
    Onebody   basis highest AM E, G, H:  -, -, -
    Solid Harmonics ordering:            Gaussian

*** tstart() called on Mac.lan
*** at Tue Aug 26 22:11:08 2025

   => Loading Basis Set <=

    Name: CC-PVTZ
    Role: ORBITAL
    Keyword: BASIS
    atoms 1 entry O          line   262 file /Users/joseantoniorodriguesromero/anaconda3/share/psi4/basis/cc-pvtz.gbs 
    atoms 2 entry H          line    23 file /Users/joseantoniorodriguesromero/anaconda3/share/psi4/basis/cc-pvtz.gbs 


         ---------------------------------------------------------
                                   SCF
               by Justin Turney, Rob Parrish, Andy Simmonett
                          and Daniel G. A. Smith
                              UKS Reference
                        1 Threads,    500 MiB Core
         ---------------------------------------------------------

  ==> Geometry <==

    Molecular point group: c2v
    Full point group: C_inf_v

    Geometry (in Angstrom), charge = 0, multiplicity = 2:

       Center              X                  Y                   Z               Mass       
    ------------   -----------------  -----------------  -----------------  -----------------
         O            0.000000000000     0.000000000000    -0.050105787745    15.994914619570
         H            0.000000000000     0.000000000000     0.795215212255     1.007825032230

  Running in c2v symmetry.

  Rotational constants: A = ************  B =     24.88313  C =     24.88313 [cm^-1]
  Rotational constants: A = ************  B = 745977.48645  C = 745977.48645 [MHz]
  Nuclear repulsion =    5.008059287962798

  Charge       = 0
  Multiplicity = 2
  Electrons    = 9
  Nalpha       = 5
  Nbeta        = 4

  ==> Algorithm <==

  SCF Algorithm Type is DF.
  DIIS enabled.
  MOM disabled.
  Fractional occupation disabled.
  Guess Type is READ.
  Energy threshold   = 1.00e-08
  Density threshold  = 1.00e-08
  Integral threshold = 1.00e-12

  ==> Primary Basis <==

  Basis Set: CC-PVTZ
    Blend: CC-PVTZ
    Number of shells: 16
    Number of basis functions: 44
    Number of Cartesian functions: 50
    Spherical Harmonics?: true
    Max angular momentum: 3

  ==> DFT Potential <==

   => LibXC <=

    Version 6.2.2
    S. Lehtola, C. Steigemann, M. J.T. Oliveira, and M. A.L. Marques.,  SoftwareX 7, 1–5 (2018) (10.1016/j.softx.2017.11.002)

   => Composite Functional: B3LYP <= 

    B3LYP Hyb-GGA Exchange-Correlation Functional

    P. J. Stephens, F. J. Devlin, C. F. Chabalowski, and M. J. Frisch.,  J. Phys. Chem. 98, 11623 (1994) (10.1021/j100096a001)

    Deriv               =              1
    GGA                 =           TRUE
    Meta                =          FALSE

    Exchange Hybrid     =           TRUE
    MP2 Hybrid          =          FALSE

   => Exchange Functionals <=

    0.0800   Slater exchange
    0.7200         Becke 88

   => Exact (HF) Exchange <=

    0.2000               HF 

   => Correlation Functionals <=

    0.1900   Vosko, Wilk & Nusair (VWN5_RPA)
    0.8100   Lee, Yang & Parr

   => LibXC Density Thresholds  <==

    XC_HYB_GGA_XC_B3LYP:  1.00E-15 

   => Molecular Quadrature <=

    Radial Scheme          =       TREUTLER
    Pruning Scheme         =           NONE
    Nuclear Scheme         =       TREUTLER

    Blocking Scheme        =         OCTREE
    BS radius alpha        =              1
    Pruning alpha          =              1
    Radial Points          =             75
    Spherical Points       =            302
    Total Points           =          44115
    Total Blocks           =            389
    Max Points             =            256
    Max Functions          =             44
    Weights Tolerance      =       1.00E-15

   => Loading Basis Set <=

    Name: (CC-PVTZ AUX)
    Role: JKFIT
    Keyword: DF_BASIS_SCF
    atoms 1 entry O          line   229 file /Users/joseantoniorodriguesromero/anaconda3/share/psi4/basis/cc-pvtz-jkfit.gbs 
    atoms 2 entry H          line    51 file /Users/joseantoniorodriguesromero/anaconda3/share/psi4/basis/cc-pvtz-jkfit.gbs 

   => Loading Basis Set <=

    Name: CC-PVTZ
    Role: ORBITAL
    Keyword: BASIS
    atoms 1 entry O          line   262 file /Users/joseantoniorodriguesromero/anaconda3/share/psi4/basis/cc-pvtz.gbs 
    atoms 2 entry H          line    23 file /Users/joseantoniorodriguesromero/anaconda3/share/psi4/basis/cc-pvtz.gbs 

  Reading orbitals from file /tmp/scan_HO_13.default.60918.180.npy, no projection.

  ==> Integral Setup <==

  DFHelper Memory: AOs need 0.002 GiB; user supplied 0.311 GiB. 
  Using in-core AOs.

  ==> MemDFJK: Density-Fitted J/K Matrices <==

    J tasked:                   Yes
    K tasked:                   Yes
    wK tasked:                   No
    OpenMP threads:               1
    Memory [MiB]:               318
    Algorithm:                 Core
    Schwarz Cutoff:           1E-12
    Mask sparsity (%):       0.0000
    Fitting Condition:        1E-10

   => Auxiliary Basis Set <=

  Basis Set: (CC-PVTZ AUX)
    Blend: CC-PVTZ-JKFIT
    Number of shells: 35
    Number of basis functions: 109
    Number of Cartesian functions: 131
    Spherical Harmonics?: true
    Max angular momentum: 4

  Cached 100.0% of DFT collocation blocks in 0.055 [GiB].

  Minimum eigenvalue in the overlap matrix is 2.6575695496E-03.
  Reciprocal condition number of the overlap matrix is 6.5117864792E-04.
    Using symmetric orthogonalization.

  ==> Pre-Iterations <==

  SCF Guess: Orbitals guess was supplied from a previous computation.

   -------------------------------------------------------
    Irrep   Nso     Nmo     Nalpha   Nbeta   Ndocc  Nsocc
   -------------------------------------------------------
     A1        20      20       3       3       3       0
     A2         4       4       0       0       0       0
     B1        10      10       1       0       0       1
     B2        10      10       1       1       1       0
   -------------------------------------------------------
    Total      44      44       5       4       4       1
   -------------------------------------------------------

  ==> Iterations <==

                           Total Energy        Delta E     RMS |[F,P]|

   @DF-UKS iter   0:   -75.75580067751059   -7.57558e+01   3.70958e-03 
   @DF-UKS iter   1:   -75.74405781006607    1.17429e-02   3.72982e-04 DIIS/ADIIS
   @DF-UKS iter   2:   -75.74408118030671   -2.33702e-05   1.75399e-04 DIIS/ADIIS/DAMP=1%
   @DF-UKS iter   3:   -75.74417313498599   -9.19547e-05   4.73881e-05 DIIS/DAMP=1%
   @DF-UKS iter   4:   -75.74405978595208    1.13349e-04   8.79730e-06 DIIS/DAMP=1%
   @DF-UKS iter   5:   -75.74409159016830   -3.18042e-05   6.53043e-07 DIIS/DAMP=1%
   @DF-UKS iter   6:   -75.74408674390033    4.84627e-06   1.05082e-07 DIIS/DAMP=1%
   @DF-UKS iter   7:   -75.74408703432749   -2.90427e-07   1.26496e-08 DIIS/DAMP=1%
   @DF-UKS iter   8:   -75.74408700663437    2.76931e-08   9.28383e-10 DIIS/DAMP=1%
   @DF-UKS iter   9:   -75.74408700859323   -1.95885e-09   1.38837e-10 DIIS/DAMP=1%
  Energy and wave function converged.


  ==> Post-Iterations <==

   Electrons on quadrature grid:
      Nalpha   =    4.9999999817 ; deviation = -1.826e-08
      Nbeta    =    3.9999999821 ; deviation = -1.792e-08
      Ntotal   =    8.9999999638 ; deviation = -3.618e-08 

   @Spin Contamination Metric:   1.902318507E-03
   @S^2 Expected:                7.500000000E-01
   @S^2 Observed:                7.519023185E-01
   @S   Expected:                5.000000000E-01
   @S   Observed:                5.000000000E-01

    Orbital Energies [Eh]
    ---------------------

    Alpha Occupied:                                                       

       1A1   -19.186752     2A1    -1.060382     3A1    -0.496651  
       1B1    -0.423736     1B2    -0.350927  

    Alpha Virtual:                                                        

       4A1     0.048579     5A1     0.443545     6A1     0.505753  
       2B1     0.528827     2B2     0.564348     3B1     0.707018  
       3B2     0.724706     7A1     0.832815     8A1     1.406102  
       1A2     1.414778     9A1     1.424641     4B1     1.780002  
       4B2     1.818365    10A1     1.831392    11A1     2.530315  
       2A2     3.235004    12A1     3.235169     5B1     3.370334  
       5B2     3.404790     6B1     3.583321     6B2     3.623222  
      13A1     3.807276     7B1     4.164541     7B2     4.196057  
      14A1     4.482654    15A1     4.945617     8B1     5.062457  
       8B2     5.062723     3A2     5.508734    16A1     5.509485  
       4A2     6.131033    17A1     6.131262     9B1     6.304121  
       9B2     6.361077    18A1     6.734562    10B1     7.032780  
      10B2     7.077278    19A1     7.222010    20A1    11.419108  

    Beta Occupied:                                                        

       1A1   -19.161715     2A1    -0.993081     3A1    -0.468329  
       1B2    -0.325476  

    Beta Virtual:                                                         

       1B1    -0.176776     4A1     0.053970     5A1     0.451614  
       6A1     0.513219     2B2     0.574819     2B1     0.601004  
       3B2     0.724739     3B1     0.725756     7A1     0.858068  
       8A1     1.431048     1A2     1.467139     9A1     1.473629  
       4B2     1.824297     4B1     1.829095    10A1     1.848118  
      11A1     2.539315     2A2     3.245670    12A1     3.246564  
       5B2     3.409326     5B1     3.419401     6B2     3.634011  
       6B1     3.653451    13A1     3.813209     7B2     4.200071  
       7B1     4.201944    14A1     4.513718    15A1     4.975561  
       8B2     5.132660     8B1     5.135628     3A2     5.553419  
      16A1     5.558377     4A2     6.222289    17A1     6.236600  
       9B2     6.372886     9B1     6.389382    18A1     6.758092  
      10B2     7.084556    10B1     7.090686    19A1     7.244662  
      20A1    11.451143  

    Final Occupation by Irrep:
             A1    A2    B1    B2 
    DOCC [     3,    0,    0,    1 ]
    SOCC [     0,    0,    1,    0 ]
    NA   [     3,    0,    1,    1 ]
    NB   [     3,    0,    0,    1 ]

  @DF-UKS Final Energy:   -75.74408700859323

   => Energetics <=

    Nuclear Repulsion Energy =              5.0080592879627979
    One-Electron Energy =                -113.8307267604272397
    Two-Electron Energy =                  40.3247306526206089
    DFT Exchange-Correlation Energy =      -7.2461501887493966
    Empirical Dispersion Energy =           0.0000000000000000
    VV10 Nonlocal Energy =                  0.0000000000000000
    Total Energy =                        -75.7440870085932261

  UHF NO Occupations:
  HONO-2 :    2 A1 1.9998477
  HONO-1 :    3 A1 1.9993496
  HONO-0 :    1 B1 1.0000000
  LUNO+0 :    4 A1 0.0006504
  LUNO+1 :    5 A1 0.0001523
  LUNO+2 :    2 B2 0.0001482
  LUNO+3 :    6 A1 0.0000006


Computation Completed


Properties will be evaluated at   0.000000,   0.000000,   0.000000 [a0]

Properties computed using the SCF density matrix


 Multipole Moments:

 ------------------------------------------------------------------------------------
     Multipole            Electronic (a.u.)      Nuclear  (a.u.)        Total (a.u.)
 ------------------------------------------------------------------------------------

 L = 1.  Multiply by 2.5417464519 to convert [e a0] to [Debye]
 Dipole X            :          0.0000000            0.0000000            0.0000000
 Dipole Y            :          0.0000000            0.0000000            0.0000000
 Dipole Z            :         -0.1062941            0.7452492            0.6389552
 Magnitude           :                                                    0.6389552

 ------------------------------------------------------------------------------------

*** tstop() called on Mac.lan at Tue Aug 26 22:11:10 2025
Module time:
	user time   =       9.83 seconds =       0.16 minutes
	system time =       2.59 seconds =       0.04 minutes
	total time  =          2 seconds =       0.03 minutes
Total time:
	user time   =       9.83 seconds =       0.16 minutes
	system time =       2.59 seconds =       0.04 minutes
	total time  =          2 seconds =       0.03 minutes

*** tstart() called on Mac.lan
*** at Tue Aug 26 22:11:10 2025

   => Libint2 <=

    Primary   basis highest AM E, G, H:  6, 6, 3
    Auxiliary basis highest AM E, G, H:  7, 7, 4
    Onebody   basis highest AM E, G, H:  -, -, -
    Solid Harmonics ordering:            Gaussian
   => Loading Basis Set <=

    Name: CC-PVTZ
    Role: ORBITAL
    Keyword: BASIS
    atoms 1 entry O          line   262 file /Users/joseantoniorodriguesromero/anaconda3/share/psi4/basis/cc-pvtz.gbs 
    atoms 2 entry H          line    23 file /Users/joseantoniorodriguesromero/anaconda3/share/psi4/basis/cc-pvtz.gbs 


         ---------------------------------------------------------
                                   SCF
               by Justin Turney, Rob Parrish, Andy Simmonett
                          and Daniel G. A. Smith
                              UKS Reference
                        1 Threads,    500 MiB Core
         ---------------------------------------------------------

  ==> Geometry <==

    Molecular point group: c2v
    Full point group: C_inf_v

    Geometry (in Angstrom), charge = 0, multiplicity = 2:

       Center              X                  Y                   Z               Mass       
    ------------   -----------------  -----------------  -----------------  -----------------
         O            0.000000000000     0.000000000000    -0.050105787745    15.994914619570
         H            0.000000000000     0.000000000000     0.795215212255     1.007825032230

  Running in c2v symmetry.

  Rotational constants: A = ************  B =     24.88313  C =     24.88313 [cm^-1]
  Rotational constants: A = ************  B = 745977.48645  C = 745977.48645 [MHz]
  Nuclear repulsion =    5.008059287962798

  Charge       = 0
  Multiplicity = 2
  Electrons    = 9
  Nalpha       = 5
  Nbeta        = 4

  ==> Algorithm <==

  SCF Algorithm Type is DF.
  DIIS enabled.
  MOM disabled.
  Fractional occupation disabled.
  Guess Type is READ.
  Energy threshold   = 1.00e-08
  Density threshold  = 1.00e-08
  Integral threshold = 1.00e-12

  ==> Primary Basis <==

  Basis Set: CC-PVTZ
    Blend: CC-PVTZ
    Number of shells: 16
    Number of basis functions: 44
    Number of Cartesian functions: 50
    Spherical Harmonics?: true
    Max angular momentum: 3

  ==> DFT Potential <==

   => LibXC <=

    Version 6.2.2
    S. Lehtola, C. Steigemann, M. J.T. Oliveira, and M. A.L. Marques.,  SoftwareX 7, 1–5 (2018) (10.1016/j.softx.2017.11.002)

   => Composite Functional: B3LYP <= 

    B3LYP Hyb-GGA Exchange-Correlation Functional

    P. J. Stephens, F. J. Devlin, C. F. Chabalowski, and M. J. Frisch.,  J. Phys. Chem. 98, 11623 (1994) (10.1021/j100096a001)

    Deriv               =              1
    GGA                 =           TRUE
    Meta                =          FALSE

    Exchange Hybrid     =           TRUE
    MP2 Hybrid          =          FALSE

   => Exchange Functionals <=

    0.0800   Slater exchange
    0.7200         Becke 88

   => Exact (HF) Exchange <=

    0.2000               HF 

   => Correlation Functionals <=

    0.1900   Vosko, Wilk & Nusair (VWN5_RPA)
    0.8100   Lee, Yang & Parr

   => LibXC Density Thresholds  <==

    XC_HYB_GGA_XC_B3LYP:  1.00E-15 

   => Molecular Quadrature <=

    Radial Scheme          =       TREUTLER
    Pruning Scheme         =           NONE
    Nuclear Scheme         =       TREUTLER

    Blocking Scheme        =         OCTREE
    BS radius alpha        =              1
    Pruning alpha          =              1
    Radial Points          =             75
    Spherical Points       =            302
    Total Points           =          44115
    Total Blocks           =            389
    Max Points             =            256
    Max Functions          =             44
    Weights Tolerance      =       1.00E-15

   => Loading Basis Set <=

    Name: (CC-PVTZ AUX)
    Role: JKFIT
    Keyword: DF_BASIS_SCF
    atoms 1 entry O          line   229 file /Users/joseantoniorodriguesromero/anaconda3/share/psi4/basis/cc-pvtz-jkfit.gbs 
    atoms 2 entry H          line    51 file /Users/joseantoniorodriguesromero/anaconda3/share/psi4/basis/cc-pvtz-jkfit.gbs 

   => Loading Basis Set <=

    Name: CC-PVTZ
    Role: ORBITAL
    Keyword: BASIS
    atoms 1 entry O          line   262 file /Users/joseantoniorodriguesromero/anaconda3/share/psi4/basis/cc-pvtz.gbs 
    atoms 2 entry H          line    23 file /Users/joseantoniorodriguesromero/anaconda3/share/psi4/basis/cc-pvtz.gbs 

  Reading orbitals from file /tmp/scan_HO_13.default.60918.180.npy, no projection.

  ==> Integral Setup <==

  DFHelper Memory: AOs need 0.002 GiB; user supplied 0.311 GiB. 
  Using in-core AOs.

  ==> MemDFJK: Density-Fitted J/K Matrices <==

    J tasked:                   Yes
    K tasked:                   Yes
    wK tasked:                   No
    OpenMP threads:               1
    Memory [MiB]:               318
    Algorithm:                 Core
    Schwarz Cutoff:           1E-12
    Mask sparsity (%):       0.0000
    Fitting Condition:        1E-10

   => Auxiliary Basis Set <=

  Basis Set: (CC-PVTZ AUX)
    Blend: CC-PVTZ-JKFIT
    Number of shells: 35
    Number of basis functions: 109
    Number of Cartesian functions: 131
    Spherical Harmonics?: true
    Max angular momentum: 4

  Cached 100.0% of DFT collocation blocks in 0.055 [GiB].

  Minimum eigenvalue in the overlap matrix is 2.6575695496E-03.
  Reciprocal condition number of the overlap matrix is 6.5117864792E-04.
    Using symmetric orthogonalization.

  ==> Pre-Iterations <==

  SCF Guess: Orbitals guess was supplied from a previous computation.

   -------------------------------------------------------
    Irrep   Nso     Nmo     Nalpha   Nbeta   Ndocc  Nsocc
   -------------------------------------------------------
     A1        20      20       3       3       3       0
     A2         4       4       0       0       0       0
     B1        10      10       1       0       0       1
     B2        10      10       1       1       1       0
   -------------------------------------------------------
    Total      44      44       5       4       4       1
   -------------------------------------------------------

  ==> Iterations <==

                           Total Energy        Delta E     RMS |[F,P]|

   @DF-UKS iter   0:   -75.74408700900482   -7.57441e+01   1.48040e-11 
   @DF-UKS iter   1:   -75.74408700900490   -8.52651e-14   6.31846e-12 DIIS
  Energy and wave function converged.


  ==> Post-Iterations <==

   Electrons on quadrature grid:
      Nalpha   =    4.9999999817 ; deviation = -1.826e-08
      Nbeta    =    3.9999999821 ; deviation = -1.792e-08
      Ntotal   =    8.9999999638 ; deviation = -3.618e-08 

   @Spin Contamination Metric:   1.902318485E-03
   @S^2 Expected:                7.500000000E-01
   @S^2 Observed:                7.519023185E-01
   @S   Expected:                5.000000000E-01
   @S   Observed:                5.000000000E-01

    Orbital Energies [Eh]
    ---------------------

    Alpha Occupied:                                                       

       1A1   -19.186752     2A1    -1.060382     3A1    -0.496651  
       1B1    -0.423736     1B2    -0.350927  

    Alpha Virtual:                                                        

       4A1     0.048579     5A1     0.443545     6A1     0.505753  
       2B1     0.528827     2B2     0.564348     3B1     0.707018  
       3B2     0.724706     7A1     0.832815     8A1     1.406102  
       1A2     1.414778     9A1     1.424641     4B1     1.780002  
       4B2     1.818365    10A1     1.831392    11A1     2.530315  
       2A2     3.235004    12A1     3.235169     5B1     3.370334  
       5B2     3.404790     6B1     3.583321     6B2     3.623222  
      13A1     3.807276     7B1     4.164541     7B2     4.196057  
      14A1     4.482654    15A1     4.945617     8B1     5.062457  
       8B2     5.062723     3A2     5.508734    16A1     5.509485  
       4A2     6.131033    17A1     6.131262     9B1     6.304121  
       9B2     6.361077    18A1     6.734562    10B1     7.032780  
      10B2     7.077278    19A1     7.222010    20A1    11.419108  

    Beta Occupied:                                                        

       1A1   -19.161715     2A1    -0.993081     3A1    -0.468329  
       1B2    -0.325476  

    Beta Virtual:                                                         

       1B1    -0.176776     4A1     0.053970     5A1     0.451614  
       6A1     0.513219     2B2     0.574819     2B1     0.601004  
       3B2     0.724739     3B1     0.725756     7A1     0.858068  
       8A1     1.431048     1A2     1.467139     9A1     1.473629  
       4B2     1.824297     4B1     1.829095    10A1     1.848118  
      11A1     2.539315     2A2     3.245670    12A1     3.246564  
       5B2     3.409326     5B1     3.419401     6B2     3.634011  
       6B1     3.653451    13A1     3.813209     7B2     4.200071  
       7B1     4.201944    14A1     4.513718    15A1     4.975561  
       8B2     5.132660     8B1     5.135628     3A2     5.553419  
      16A1     5.558377     4A2     6.222289    17A1     6.236600  
       9B2     6.372886     9B1     6.389382    18A1     6.758092  
      10B2     7.084556    10B1     7.090686    19A1     7.244662  
      20A1    11.451143  

    Final Occupation by Irrep:
             A1    A2    B1    B2 
    DOCC [     3,    0,    0,    1 ]
    SOCC [     0,    0,    1,    0 ]
    NA   [     3,    0,    1,    1 ]
    NB   [     3,    0,    0,    1 ]

  @DF-UKS Final Energy:   -75.74408700900490

   => Energetics <=

    Nuclear Repulsion Energy =              5.0080592879627979
    One-Electron Energy =                -113.8307267546236687
    Two-Electron Energy =                  40.3247306455968229
    DFT Exchange-Correlation Energy =      -7.2461501879408532
    Empirical Dispersion Energy =           0.0000000000000000
    VV10 Nonlocal Energy =                  0.0000000000000000
    Total Energy =                        -75.7440870090049145

  UHF NO Occupations:
  HONO-2 :    2 A1 1.9998477
  HONO-1 :    3 A1 1.9993496
  HONO-0 :    1 B1 1.0000000
  LUNO+0 :    4 A1 0.0006504
  LUNO+1 :    5 A1 0.0001523
  LUNO+2 :    2 B2 0.0001482
  LUNO+3 :    6 A1 0.0000006


Computation Completed


Properties will be evaluated at   0.000000,   0.000000,   0.000000 [a0]

Properties computed using the B3LYP density matrix


 Multipole Moments:

 ------------------------------------------------------------------------------------
     Multipole            Electronic (a.u.)      Nuclear  (a.u.)        Total (a.u.)
 ------------------------------------------------------------------------------------

 L = 1.  Multiply by 2.5417464519 to convert [e a0] to [Debye]
 Dipole X            :          0.0000000            0.0000000            0.0000000
 Dipole Y            :          0.0000000            0.0000000            0.0000000
 Dipole Z            :         -0.1062941            0.7452492            0.6389552
 Magnitude           :                                                    0.6389552

 L = 2.  Multiply by 1.3450342976 to convert [e a0^2] to [Debye ang]
 Quadrupole XX       :         -3.9117147            0.0000000           -3.9117147
 Quadrupole XY       :          0.0000000            0.0000000            0.0000000
 Quadrupole XZ       :          0.0000000            0.0000000            0.0000000
 Quadrupole YY       :         -4.7994952            0.0000000           -4.7994952
 Quadrupole YZ       :          0.0000000            0.0000000            0.0000000
 Quadrupole ZZ       :         -5.7664513            2.3299482           -3.4365031
 Traceless XX        :          0.9141723           -0.7766494            0.1375229
 Traceless YY        :          0.0263919           -0.7766494           -0.7502575
 Traceless ZZ        :         -0.9405642            1.5532988            0.6127346

 ------------------------------------------------------------------------------------
  ==> Computing MBIS Charges <==

  Electron Count from Grid (Expected Number):  9.00000 ( 9.00000)
  Difference: -0.00000

  MBIS Charges: (a.u.)
   Center  Symbol  Z      Pop.       Charge
      1       O    8    8.407288   -0.407288
      2       H    1    0.592711    0.407289

  MBIS Dipoles: [e a0]
   Center  Symbol  Z        X           Y           Z
      1       O    8   -0.000000    0.000000   -0.035812
      2       H    1   -0.000000    0.000000    0.024154

  MBIS Quadrupoles: [e a0^2]
   Center  Symbol  Z      XX        XY        XZ        YY        YZ        ZZ
      1       O    8   -3.6842    0.0000   -0.0000   -4.5413    0.0000   -4.1911
      2       H    1   -0.2275   -0.0000   -0.0000   -0.2582   -0.0000   -0.2409

  MBIS Octupoles: [e a0^3]
   Center  Symbol  Z      XXX       XXY       XXZ       XYY       XYZ       XZZ       YYY       YYZ       YZZ       ZZZ
      1       O    8   -0.0000   -0.0000    0.0058   -0.0000    0.0000   -0.0000   -0.0000   -0.0280    0.0000   -0.2237
      2       H    1   -0.0000   -0.0000   -0.0028   -0.0000    0.0000   -0.0000    0.0000    0.0051   -0.0000    0.0064

  MBIS Radial Moments:
   Center  Symbol  Z      [a0^2]      [a0^3]      [a0^4]      
      1       O    8   12.416509   23.747697   54.281045
      2       H    1    0.726678    1.159013    2.212848

  MBIS Valence Widths: [a0]
   Center  Symbol  Z     Width
      1       O    8    0.392267
      2       H    1    0.320331

*** tstop() called on Mac.lan at Tue Aug 26 22:11:10 2025
Module time:
	user time   =       2.49 seconds =       0.04 minutes
	system time =       2.80 seconds =       0.05 minutes
	total time  =          0 seconds =       0.00 minutes
Total time:
	user time   =      12.41 seconds =       0.21 minutes
	system time =       5.54 seconds =       0.09 minutes
	total time  =          2 seconds =       0.03 minutes

    Psi4 stopped on: Tuesday, 26 August 2025 10:11PM
    Psi4 wall time for execution: 0:00:01.79

*** Psi4 exiting successfully. Buy a developer a beer!
