
    -----------------------------------------------------------------------
          Psi4: An Open-Source Ab Initio Electronic Structure Package
                               Psi4 1.9.1 release

                         Git: Rev {} zzzzzzz 


    D. G. A. Smith, L. A. Burns, A. C. Simmonett, R. M. Parrish,
    M. C. Schieber, R. Galvelis, P. Kraus, H. Kruse, R. Di Remigio,
    A. Alenaizan, A. M. James, S. Lehtola, J. P. Misiewicz, M. Scheurer,
    R. A. Shaw, J. B. Schriber, Y. Xie, Z. L. Glick, D. A. Sirianni,
    J. S. O'Brien, J. M. Waldrop, A. Kumar, E. G. Hohenstein,
    B. P. Pritchard, B. R. Brooks, H. F. Schaefer III, A. Yu. Sokolov,
    K. Patkowski, A. E. DePrince III, U. Bozkaya, R. A. King,
    F. A. Evangelista, J. M. Turney, T. D. Crawford, C. D. Sherrill,
    J. Chem. Phys. 152(18) 184108 (2020). https://doi.org/10.1063/5.0006002

                            Additional Code Authors
    E. T. Seidl, C. L. Janssen, E. F. Valeev, M. L. Leininger,
    J. F. Gonthier, R. M. Richard, H. R. McAlexander, M. Saitow, X. Wang,
    P. Verma, M. H. Lechner, A. Jiang, S. Behnle, A. G. Heide,
    M. F. Herbst, and D. L. Poole

             Previous Authors, Complete List of Code Contributors,
                       and Citations for Specific Modules
    https://github.com/psi4/psi4/blob/master/codemeta.json
    https://github.com/psi4/psi4/graphs/contributors
    http://psicode.org/psi4manual/master/introduction.html#citing-psifour

    -----------------------------------------------------------------------


    Psi4 started on: Tuesday, 26 August 2025 10:12PM

    Process ID: 60946
    Host:       Mac.lan
    PSIDATADIR: /Users/joseantoniorodriguesromero/anaconda3/share/psi4
    Memory:     500.0 MiB
    Threads:    1
    
  ==> Input File <==

--------------------------------------------------------------------------
molecule { 
0 2
O           0.000000           0.000000           0.000000
H           0.000000           0.000000           1.561358
}

set { 
basis              cc-pvtz
reference          uks
maxiter            500
DAMPING_PERCENTAGE 1
E_CONVERGENCE      1.0E-8
D_CONVERGENCE      1.0E-8
DIIS_MAX_VECS      400
MBIS_MAXITER       8000
guess              read
}

E, wfn = energy('b3lyp', restart_file='last_wfn', return_wfn=True)
properties('b3lyp','MBIS_CHARGES', wfn=wfn)
wfn.to_file('last_wfn')
--------------------------------------------------------------------------

Scratch directory: /tmp/
 Found user provided orbital data. Setting orbital guess to READ 
 Copying restart file <last_wfn.npy> to </tmp/scan_HO_37.default.60946.180.npy> for internal processing
   => Libint2 <=

    Primary   basis highest AM E, G, H:  6, 6, 3
    Auxiliary basis highest AM E, G, H:  7, 7, 4
    Onebody   basis highest AM E, G, H:  -, -, -
    Solid Harmonics ordering:            Gaussian

*** tstart() called on Mac.lan
*** at Tue Aug 26 22:12:22 2025

   => Loading Basis Set <=

    Name: CC-PVTZ
    Role: ORBITAL
    Keyword: BASIS
    atoms 1 entry O          line   262 file /Users/joseantoniorodriguesromero/anaconda3/share/psi4/basis/cc-pvtz.gbs 
    atoms 2 entry H          line    23 file /Users/joseantoniorodriguesromero/anaconda3/share/psi4/basis/cc-pvtz.gbs 


         ---------------------------------------------------------
                                   SCF
               by Justin Turney, Rob Parrish, Andy Simmonett
                          and Daniel G. A. Smith
                              UKS Reference
                        1 Threads,    500 MiB Core
         ---------------------------------------------------------

  ==> Geometry <==

    Molecular point group: c2v
    Full point group: C_inf_v

    Geometry (in Angstrom), charge = 0, multiplicity = 2:

       Center              X                  Y                   Z               Mass       
    ------------   -----------------  -----------------  -----------------  -----------------
         O            0.000000000000     0.000000000000    -0.092548360376    15.994914619570
         H            0.000000000000     0.000000000000     1.468809639624     1.007825032230

  Running in c2v symmetry.

  Rotational constants: A = ************  B =      7.29362  C =      7.29362 [cm^-1]
  Rotational constants: A = ************  B = 218657.33536  C = 218657.33536 [MHz]
  Nuclear repulsion =    2.711369004008049

  Charge       = 0
  Multiplicity = 2
  Electrons    = 9
  Nalpha       = 5
  Nbeta        = 4

  ==> Algorithm <==

  SCF Algorithm Type is DF.
  DIIS enabled.
  MOM disabled.
  Fractional occupation disabled.
  Guess Type is READ.
  Energy threshold   = 1.00e-08
  Density threshold  = 1.00e-08
  Integral threshold = 1.00e-12

  ==> Primary Basis <==

  Basis Set: CC-PVTZ
    Blend: CC-PVTZ
    Number of shells: 16
    Number of basis functions: 44
    Number of Cartesian functions: 50
    Spherical Harmonics?: true
    Max angular momentum: 3

  ==> DFT Potential <==

   => LibXC <=

    Version 6.2.2
    S. Lehtola, C. Steigemann, M. J.T. Oliveira, and M. A.L. Marques.,  SoftwareX 7, 1–5 (2018) (10.1016/j.softx.2017.11.002)

   => Composite Functional: B3LYP <= 

    B3LYP Hyb-GGA Exchange-Correlation Functional

    P. J. Stephens, F. J. Devlin, C. F. Chabalowski, and M. J. Frisch.,  J. Phys. Chem. 98, 11623 (1994) (10.1021/j100096a001)

    Deriv               =              1
    GGA                 =           TRUE
    Meta                =          FALSE

    Exchange Hybrid     =           TRUE
    MP2 Hybrid          =          FALSE

   => Exchange Functionals <=

    0.0800   Slater exchange
    0.7200         Becke 88

   => Exact (HF) Exchange <=

    0.2000               HF 

   => Correlation Functionals <=

    0.1900   Vosko, Wilk & Nusair (VWN5_RPA)
    0.8100   Lee, Yang & Parr

   => LibXC Density Thresholds  <==

    XC_HYB_GGA_XC_B3LYP:  1.00E-15 

   => Molecular Quadrature <=

    Radial Scheme          =       TREUTLER
    Pruning Scheme         =           NONE
    Nuclear Scheme         =       TREUTLER

    Blocking Scheme        =         OCTREE
    BS radius alpha        =              1
    Pruning alpha          =              1
    Radial Points          =             75
    Spherical Points       =            302
    Total Points           =          44193
    Total Blocks           =            391
    Max Points             =            256
    Max Functions          =             44
    Weights Tolerance      =       1.00E-15

   => Loading Basis Set <=

    Name: (CC-PVTZ AUX)
    Role: JKFIT
    Keyword: DF_BASIS_SCF
    atoms 1 entry O          line   229 file /Users/joseantoniorodriguesromero/anaconda3/share/psi4/basis/cc-pvtz-jkfit.gbs 
    atoms 2 entry H          line    51 file /Users/joseantoniorodriguesromero/anaconda3/share/psi4/basis/cc-pvtz-jkfit.gbs 

   => Loading Basis Set <=

    Name: CC-PVTZ
    Role: ORBITAL
    Keyword: BASIS
    atoms 1 entry O          line   262 file /Users/joseantoniorodriguesromero/anaconda3/share/psi4/basis/cc-pvtz.gbs 
    atoms 2 entry H          line    23 file /Users/joseantoniorodriguesromero/anaconda3/share/psi4/basis/cc-pvtz.gbs 

  Reading orbitals from file /tmp/scan_HO_37.default.60946.180.npy, no projection.

  ==> Integral Setup <==

  DFHelper Memory: AOs need 0.002 GiB; user supplied 0.312 GiB. 
  Using in-core AOs.

  ==> MemDFJK: Density-Fitted J/K Matrices <==

    J tasked:                   Yes
    K tasked:                   Yes
    wK tasked:                   No
    OpenMP threads:               1
    Memory [MiB]:               319
    Algorithm:                 Core
    Schwarz Cutoff:           1E-12
    Mask sparsity (%):       0.0000
    Fitting Condition:        1E-10

   => Auxiliary Basis Set <=

  Basis Set: (CC-PVTZ AUX)
    Blend: CC-PVTZ-JKFIT
    Number of shells: 35
    Number of basis functions: 109
    Number of Cartesian functions: 131
    Spherical Harmonics?: true
    Max angular momentum: 4

  Cached 100.0% of DFT collocation blocks in 0.054 [GiB].

  Minimum eigenvalue in the overlap matrix is 2.6571778187E-02.
  Reciprocal condition number of the overlap matrix is 8.2331282294E-03.
    Using symmetric orthogonalization.

  ==> Pre-Iterations <==

  SCF Guess: Orbitals guess was supplied from a previous computation.

   -------------------------------------------------------
    Irrep   Nso     Nmo     Nalpha   Nbeta   Ndocc  Nsocc
   -------------------------------------------------------
     A1        20      20       3       3       3       0
     A2         4       4       0       0       0       0
     B1        10      10       1       0       0       1
     B2        10      10       1       1       1       0
   -------------------------------------------------------
    Total      44      44       5       4       4       1
   -------------------------------------------------------

  ==> Iterations <==

                           Total Energy        Delta E     RMS |[F,P]|

   @DF-UKS iter   0:   -75.65681466383309   -7.56568e+01   8.11348e-04 
   @DF-UKS iter   1:   -75.66361816487860   -6.80350e-03   3.15114e-04 DIIS/ADIIS
   @DF-UKS iter   2:   -75.66364313872076   -2.49738e-05   2.22031e-04 DIIS/ADIIS/DAMP=1%
   @DF-UKS iter   3:   -75.66385541174490   -2.12273e-04   1.78795e-04 DIIS/ADIIS/DAMP=1%
   @DF-UKS iter   4:   -75.66356896652192    2.86445e-04   5.17431e-05 DIIS/DAMP=1%
   @DF-UKS iter   5:   -75.66367152838947   -1.02562e-04   2.55935e-05 DIIS/DAMP=1%
   @DF-UKS iter   6:   -75.66369429498880   -2.27666e-05   3.46098e-06 DIIS/DAMP=1%
   @DF-UKS iter   7:   -75.66368757397755    6.72101e-06   4.14192e-07 DIIS/DAMP=1%
   @DF-UKS iter   8:   -75.66368573333388    1.84064e-06   6.86008e-08 DIIS/DAMP=1%
   @DF-UKS iter   9:   -75.66368575022925   -1.68954e-08   1.99369e-08 DIIS/DAMP=1%
   @DF-UKS iter  10:   -75.66368580419523   -5.39660e-08   5.80825e-09 DIIS/DAMP=1%
   @DF-UKS iter  11:   -75.66368578679437    1.74009e-08   3.72687e-10 DIIS/DAMP=1%
   @DF-UKS iter  12:   -75.66368579004990   -3.25552e-09   8.38688e-11 DIIS/DAMP=1%
  Energy and wave function converged.


  ==> Post-Iterations <==

   Electrons on quadrature grid:
      Nalpha   =    4.9999999292 ; deviation = -7.076e-08
      Nbeta    =    3.9999999553 ; deviation = -4.473e-08
      Ntotal   =    8.9999998845 ; deviation = -1.155e-07 

   @Spin Contamination Metric:   9.005029515E-02
   @S^2 Expected:                7.500000000E-01
   @S^2 Observed:                8.400502951E-01
   @S   Expected:                5.000000000E-01
   @S   Observed:                5.000000000E-01

    Orbital Energies [Eh]
    ---------------------

    Alpha Occupied:                                                       

       1A1   -19.224804     2A1    -0.959120     1B1    -0.411214  
       3A1    -0.409103     1B2    -0.336976  

    Alpha Virtual:                                                        

       4A1    -0.111985     5A1     0.251338     2B1     0.493354  
       2B2     0.518581     6A1     0.582279     3B1     0.673001  
       3B2     0.689595     7A1     0.738419     8A1     1.033929  
       1A2     1.439193     9A1     1.439842     4B1     1.480112  
       4B2     1.518533    10A1     1.835506    11A1     2.376960  
      12A1     3.102396     2A2     3.168239    13A1     3.168256  
       5B1     3.227557     5B2     3.237321     6B1     3.522936  
       6B2     3.583407     7B1     3.615462     7B2     3.619546  
      14A1     3.737995    15A1     4.353153     8B1     5.074698  
      16A1     5.075287     3A2     5.075731     8B2     5.075896  
       9B1     5.166351     9B2     5.215584    17A1     5.474553  
      18A1     6.110079     4A2     6.110871    10B1     6.199799  
      10B2     6.259973    19A1     6.717229    20A1     7.428231  

    Beta Occupied:                                                        

       1A1   -19.191991     2A1    -0.860974     3A1    -0.381012  
       1B2    -0.304912  

    Beta Virtual:                                                         

       1B1    -0.154123     4A1    -0.111506     5A1     0.229223  
       2B2     0.511748     2B1     0.525496     6A1     0.607841  
       3B2     0.681359     3B1     0.693797     7A1     0.744380  
       8A1     1.056474     1A2     1.493167     9A1     1.499419  
       4B2     1.533758     4B1     1.542834    10A1     1.843664  
      11A1     2.326884    12A1     3.111134     2A2     3.122094  
      13A1     3.122146     5B2     3.203083     5B1     3.203367  
       6B1     3.553114     6B2     3.554267     7B2     3.610310  
       7B1     3.643714    14A1     3.711926    15A1     4.357878  
       3A2     5.135156    16A1     5.141027     8B2     5.147964  
       8B1     5.150975     9B2     5.239736     9B1     5.245954  
      17A1     5.522172     4A2     6.207098    18A1     6.222271  
      10B2     6.298055    10B1     6.325864    19A1     6.774319  
      20A1     7.492670  

    Final Occupation by Irrep:
             A1    A2    B1    B2 
    DOCC [     3,    0,    0,    1 ]
    SOCC [     0,    0,    1,    0 ]
    NA   [     3,    0,    1,    1 ]
    NB   [     3,    0,    0,    1 ]

  @DF-UKS Final Energy:   -75.66368579004990

   => Energetics <=

    Nuclear Repulsion Energy =              2.7113690040080494
    One-Electron Energy =                -109.5847770619367054
    Two-Electron Energy =                  38.2794222717567862
    DFT Exchange-Correlation Energy =      -7.0697000038780269
    Empirical Dispersion Energy =           0.0000000000000000
    VV10 Nonlocal Energy =                  0.0000000000000000
    Total Energy =                        -75.6636857900498967

  UHF NO Occupations:
  HONO-2 :    2 A1 1.9994415
  HONO-1 :    3 A1 1.9547561
  HONO-0 :    1 B1 1.0000000
  LUNO+0 :    4 A1 0.0452439
  LUNO+1 :    5 A1 0.0005585
  LUNO+2 :    2 B2 0.0002457
  LUNO+3 :    6 A1 0.0000007


Computation Completed


Properties will be evaluated at   0.000000,   0.000000,   0.000000 [a0]

Properties computed using the SCF density matrix


 Multipole Moments:

 ------------------------------------------------------------------------------------
     Multipole            Electronic (a.u.)      Nuclear  (a.u.)        Total (a.u.)
 ------------------------------------------------------------------------------------

 L = 1.  Multiply by 2.5417464519 to convert [e a0] to [Debye]
 Dipole X            :          0.0000000            0.0000000            0.0000000
 Dipole Y            :          0.0000000            0.0000000            0.0000000
 Dipole Z            :         -0.6910153            1.3765195            0.6855042
 Magnitude           :                                                    0.6855042

 ------------------------------------------------------------------------------------

*** tstop() called on Mac.lan at Tue Aug 26 22:12:23 2025
Module time:
	user time   =      13.49 seconds =       0.22 minutes
	system time =       1.83 seconds =       0.03 minutes
	total time  =          1 seconds =       0.02 minutes
Total time:
	user time   =      13.49 seconds =       0.22 minutes
	system time =       1.83 seconds =       0.03 minutes
	total time  =          1 seconds =       0.02 minutes

*** tstart() called on Mac.lan
*** at Tue Aug 26 22:12:23 2025

   => Libint2 <=

    Primary   basis highest AM E, G, H:  6, 6, 3
    Auxiliary basis highest AM E, G, H:  7, 7, 4
    Onebody   basis highest AM E, G, H:  -, -, -
    Solid Harmonics ordering:            Gaussian
   => Loading Basis Set <=

    Name: CC-PVTZ
    Role: ORBITAL
    Keyword: BASIS
    atoms 1 entry O          line   262 file /Users/joseantoniorodriguesromero/anaconda3/share/psi4/basis/cc-pvtz.gbs 
    atoms 2 entry H          line    23 file /Users/joseantoniorodriguesromero/anaconda3/share/psi4/basis/cc-pvtz.gbs 


         ---------------------------------------------------------
                                   SCF
               by Justin Turney, Rob Parrish, Andy Simmonett
                          and Daniel G. A. Smith
                              UKS Reference
                        1 Threads,    500 MiB Core
         ---------------------------------------------------------

  ==> Geometry <==

    Molecular point group: c2v
    Full point group: C_inf_v

    Geometry (in Angstrom), charge = 0, multiplicity = 2:

       Center              X                  Y                   Z               Mass       
    ------------   -----------------  -----------------  -----------------  -----------------
         O            0.000000000000     0.000000000000    -0.092548360376    15.994914619570
         H            0.000000000000     0.000000000000     1.468809639624     1.007825032230

  Running in c2v symmetry.

  Rotational constants: A = ************  B =      7.29362  C =      7.29362 [cm^-1]
  Rotational constants: A = ************  B = 218657.33536  C = 218657.33536 [MHz]
  Nuclear repulsion =    2.711369004008049

  Charge       = 0
  Multiplicity = 2
  Electrons    = 9
  Nalpha       = 5
  Nbeta        = 4

  ==> Algorithm <==

  SCF Algorithm Type is DF.
  DIIS enabled.
  MOM disabled.
  Fractional occupation disabled.
  Guess Type is READ.
  Energy threshold   = 1.00e-08
  Density threshold  = 1.00e-08
  Integral threshold = 1.00e-12

  ==> Primary Basis <==

  Basis Set: CC-PVTZ
    Blend: CC-PVTZ
    Number of shells: 16
    Number of basis functions: 44
    Number of Cartesian functions: 50
    Spherical Harmonics?: true
    Max angular momentum: 3

  ==> DFT Potential <==

   => LibXC <=

    Version 6.2.2
    S. Lehtola, C. Steigemann, M. J.T. Oliveira, and M. A.L. Marques.,  SoftwareX 7, 1–5 (2018) (10.1016/j.softx.2017.11.002)

   => Composite Functional: B3LYP <= 

    B3LYP Hyb-GGA Exchange-Correlation Functional

    P. J. Stephens, F. J. Devlin, C. F. Chabalowski, and M. J. Frisch.,  J. Phys. Chem. 98, 11623 (1994) (10.1021/j100096a001)

    Deriv               =              1
    GGA                 =           TRUE
    Meta                =          FALSE

    Exchange Hybrid     =           TRUE
    MP2 Hybrid          =          FALSE

   => Exchange Functionals <=

    0.0800   Slater exchange
    0.7200         Becke 88

   => Exact (HF) Exchange <=

    0.2000               HF 

   => Correlation Functionals <=

    0.1900   Vosko, Wilk & Nusair (VWN5_RPA)
    0.8100   Lee, Yang & Parr

   => LibXC Density Thresholds  <==

    XC_HYB_GGA_XC_B3LYP:  1.00E-15 

   => Molecular Quadrature <=

    Radial Scheme          =       TREUTLER
    Pruning Scheme         =           NONE
    Nuclear Scheme         =       TREUTLER

    Blocking Scheme        =         OCTREE
    BS radius alpha        =              1
    Pruning alpha          =              1
    Radial Points          =             75
    Spherical Points       =            302
    Total Points           =          44193
    Total Blocks           =            391
    Max Points             =            256
    Max Functions          =             44
    Weights Tolerance      =       1.00E-15

   => Loading Basis Set <=

    Name: (CC-PVTZ AUX)
    Role: JKFIT
    Keyword: DF_BASIS_SCF
    atoms 1 entry O          line   229 file /Users/joseantoniorodriguesromero/anaconda3/share/psi4/basis/cc-pvtz-jkfit.gbs 
    atoms 2 entry H          line    51 file /Users/joseantoniorodriguesromero/anaconda3/share/psi4/basis/cc-pvtz-jkfit.gbs 

   => Loading Basis Set <=

    Name: CC-PVTZ
    Role: ORBITAL
    Keyword: BASIS
    atoms 1 entry O          line   262 file /Users/joseantoniorodriguesromero/anaconda3/share/psi4/basis/cc-pvtz.gbs 
    atoms 2 entry H          line    23 file /Users/joseantoniorodriguesromero/anaconda3/share/psi4/basis/cc-pvtz.gbs 

  Reading orbitals from file /tmp/scan_HO_37.default.60946.180.npy, no projection.

  ==> Integral Setup <==

  DFHelper Memory: AOs need 0.002 GiB; user supplied 0.312 GiB. 
  Using in-core AOs.

  ==> MemDFJK: Density-Fitted J/K Matrices <==

    J tasked:                   Yes
    K tasked:                   Yes
    wK tasked:                   No
    OpenMP threads:               1
    Memory [MiB]:               319
    Algorithm:                 Core
    Schwarz Cutoff:           1E-12
    Mask sparsity (%):       0.0000
    Fitting Condition:        1E-10

   => Auxiliary Basis Set <=

  Basis Set: (CC-PVTZ AUX)
    Blend: CC-PVTZ-JKFIT
    Number of shells: 35
    Number of basis functions: 109
    Number of Cartesian functions: 131
    Spherical Harmonics?: true
    Max angular momentum: 4

  Cached 100.0% of DFT collocation blocks in 0.054 [GiB].

  Minimum eigenvalue in the overlap matrix is 2.6571778187E-02.
  Reciprocal condition number of the overlap matrix is 8.2331282294E-03.
    Using symmetric orthogonalization.

  ==> Pre-Iterations <==

  SCF Guess: Orbitals guess was supplied from a previous computation.

   -------------------------------------------------------
    Irrep   Nso     Nmo     Nalpha   Nbeta   Ndocc  Nsocc
   -------------------------------------------------------
     A1        20      20       3       3       3       0
     A2         4       4       0       0       0       0
     B1        10      10       1       0       0       1
     B2        10      10       1       1       1       0
   -------------------------------------------------------
    Total      44      44       5       4       4       1
   -------------------------------------------------------

  ==> Iterations <==

                           Total Energy        Delta E     RMS |[F,P]|

   @DF-UKS iter   0:   -75.66368578998863   -7.56637e+01   1.16170e-11 
   @DF-UKS iter   1:   -75.66368578998858    5.68434e-14   1.84368e-11 DIIS
  Energy and wave function converged.


  ==> Post-Iterations <==

   Electrons on quadrature grid:
      Nalpha   =    4.9999999292 ; deviation = -7.076e-08
      Nbeta    =    3.9999999553 ; deviation = -4.473e-08
      Ntotal   =    8.9999998845 ; deviation = -1.155e-07 

   @Spin Contamination Metric:   9.005029600E-02
   @S^2 Expected:                7.500000000E-01
   @S^2 Observed:                8.400502960E-01
   @S   Expected:                5.000000000E-01
   @S   Observed:                5.000000000E-01

    Orbital Energies [Eh]
    ---------------------

    Alpha Occupied:                                                       

       1A1   -19.224804     2A1    -0.959120     1B1    -0.411214  
       3A1    -0.409103     1B2    -0.336976  

    Alpha Virtual:                                                        

       4A1    -0.111985     5A1     0.251338     2B1     0.493354  
       2B2     0.518581     6A1     0.582279     3B1     0.673001  
       3B2     0.689595     7A1     0.738419     8A1     1.033929  
       1A2     1.439193     9A1     1.439842     4B1     1.480112  
       4B2     1.518533    10A1     1.835506    11A1     2.376960  
      12A1     3.102396     2A2     3.168239    13A1     3.168256  
       5B1     3.227557     5B2     3.237321     6B1     3.522936  
       6B2     3.583407     7B1     3.615462     7B2     3.619546  
      14A1     3.737995    15A1     4.353153     8B1     5.074698  
      16A1     5.075287     3A2     5.075731     8B2     5.075896  
       9B1     5.166351     9B2     5.215584    17A1     5.474553  
      18A1     6.110079     4A2     6.110871    10B1     6.199799  
      10B2     6.259973    19A1     6.717229    20A1     7.428231  

    Beta Occupied:                                                        

       1A1   -19.191991     2A1    -0.860974     3A1    -0.381012  
       1B2    -0.304912  

    Beta Virtual:                                                         

       1B1    -0.154123     4A1    -0.111506     5A1     0.229223  
       2B2     0.511748     2B1     0.525496     6A1     0.607841  
       3B2     0.681359     3B1     0.693797     7A1     0.744380  
       8A1     1.056474     1A2     1.493167     9A1     1.499419  
       4B2     1.533758     4B1     1.542834    10A1     1.843664  
      11A1     2.326884    12A1     3.111134     2A2     3.122094  
      13A1     3.122146     5B2     3.203083     5B1     3.203367  
       6B1     3.553114     6B2     3.554267     7B2     3.610310  
       7B1     3.643714    14A1     3.711926    15A1     4.357878  
       3A2     5.135156    16A1     5.141027     8B2     5.147964  
       8B1     5.150975     9B2     5.239736     9B1     5.245954  
      17A1     5.522172     4A2     6.207098    18A1     6.222271  
      10B2     6.298055    10B1     6.325864    19A1     6.774319  
      20A1     7.492670  

    Final Occupation by Irrep:
             A1    A2    B1    B2 
    DOCC [     3,    0,    0,    1 ]
    SOCC [     0,    0,    1,    0 ]
    NA   [     3,    0,    1,    1 ]
    NB   [     3,    0,    0,    1 ]

  @DF-UKS Final Energy:   -75.66368578998858

   => Energetics <=

    Nuclear Repulsion Energy =              2.7113690040080494
    One-Electron Energy =                -109.5847770701953721
    Two-Electron Energy =                  38.2794222800768296
    DFT Exchange-Correlation Energy =      -7.0697000038780855
    Empirical Dispersion Energy =           0.0000000000000000
    VV10 Nonlocal Energy =                  0.0000000000000000
    Total Energy =                        -75.6636857899885769

  UHF NO Occupations:
  HONO-2 :    2 A1 1.9994415
  HONO-1 :    3 A1 1.9547561
  HONO-0 :    1 B1 1.0000000
  LUNO+0 :    4 A1 0.0452439
  LUNO+1 :    5 A1 0.0005585
  LUNO+2 :    2 B2 0.0002457
  LUNO+3 :    6 A1 0.0000007


Computation Completed


Properties will be evaluated at   0.000000,   0.000000,   0.000000 [a0]

Properties computed using the B3LYP density matrix


 Multipole Moments:

 ------------------------------------------------------------------------------------
     Multipole            Electronic (a.u.)      Nuclear  (a.u.)        Total (a.u.)
 ------------------------------------------------------------------------------------

 L = 1.  Multiply by 2.5417464519 to convert [e a0] to [Debye]
 Dipole X            :          0.0000000            0.0000000            0.0000000
 Dipole Y            :          0.0000000            0.0000000            0.0000000
 Dipole Z            :         -0.6910153            1.3765195            0.6855042
 Magnitude           :                                                    0.6855042

 L = 2.  Multiply by 1.3450342976 to convert [e a0^2] to [Debye ang]
 Quadrupole XX       :         -4.3596175            0.0000000           -4.3596175
 Quadrupole XY       :          0.0000000            0.0000000            0.0000000
 Quadrupole XZ       :          0.0000000            0.0000000            0.0000000
 Quadrupole YY       :         -5.2566655            0.0000000           -5.2566655
 Quadrupole YZ       :          0.0000000            0.0000000            0.0000000
 Quadrupole ZZ       :        -10.3322444            7.9489166           -2.3833278
 Traceless XX        :          2.2898916           -2.6496389           -0.3597472
 Traceless YY        :          1.3928436           -2.6496389           -1.2567953
 Traceless ZZ        :         -3.6827352            5.2992777            1.6165425

 ------------------------------------------------------------------------------------
  ==> Computing MBIS Charges <==

  Electron Count from Grid (Expected Number):  9.00000 ( 9.00000)
  Difference: -0.00000

  MBIS Charges: (a.u.)
   Center  Symbol  Z      Pop.       Charge
      1       O    8    8.250897   -0.250897
      2       H    1    0.749103    0.250897

  MBIS Dipoles: [e a0]
   Center  Symbol  Z        X           Y           Z
      1       O    8   -0.000000   -0.000000   -0.131373
      2       H    1   -0.000000    0.000000    0.076596

  MBIS Quadrupoles: [e a0^2]
   Center  Symbol  Z      XX        XY        XZ        YY        YZ        ZZ
      1       O    8   -3.7218    0.0000    0.0000   -4.5831    0.0000   -4.1595
      2       H    1   -0.6378   -0.0000    0.0000   -0.6736    0.0000   -0.6203

  MBIS Octupoles: [e a0^3]
   Center  Symbol  Z      XXX       XXY       XXZ       XYY       XYZ       XZZ       YYY       YYZ       YZZ       ZZZ
      1       O    8   -0.0000   -0.0000   -0.1880   -0.0000   -0.0000    0.0000   -0.0000   -0.1617   -0.0000   -0.7002
      2       H    1   -0.0000    0.0000    0.0319   -0.0000   -0.0000    0.0000    0.0000    0.0772    0.0000    0.1209

  MBIS Radial Moments:
   Center  Symbol  Z      [a0^2]      [a0^3]      [a0^4]      
      1       O    8   12.464345   24.252619   56.408194
      2       H    1    1.931716    4.427374   12.103873

  MBIS Valence Widths: [a0]
   Center  Symbol  Z     Width
      1       O    8    0.397872
      2       H    1    0.465867

*** tstop() called on Mac.lan at Tue Aug 26 22:12:24 2025
Module time:
	user time   =       3.65 seconds =       0.06 minutes
	system time =       1.40 seconds =       0.02 minutes
	total time  =          1 seconds =       0.02 minutes
Total time:
	user time   =      17.18 seconds =       0.29 minutes
	system time =       3.45 seconds =       0.06 minutes
	total time  =          2 seconds =       0.03 minutes

    Psi4 stopped on: Tuesday, 26 August 2025 10:12PM
    Psi4 wall time for execution: 0:00:02.02

*** Psi4 exiting successfully. Buy a developer a beer!
