
    -----------------------------------------------------------------------
          Psi4: An Open-Source Ab Initio Electronic Structure Package
                               Psi4 1.9.1 release

                         Git: Rev {} zzzzzzz 


    D. G. A. Smith, L. A. Burns, A. C. Simmonett, R. M. Parrish,
    M. C. Schieber, R. Galvelis, P. Kraus, H. Kruse, R. Di Remigio,
    A. Alenaizan, A. M. James, S. Lehtola, J. P. Misiewicz, M. Scheurer,
    R. A. Shaw, J. B. Schriber, Y. Xie, Z. L. Glick, D. A. Sirianni,
    J. S. O'Brien, J. M. Waldrop, A. Kumar, E. G. Hohenstein,
    B. P. Pritchard, B. R. Brooks, H. F. Schaefer III, A. Yu. Sokolov,
    K. Patkowski, A. E. DePrince III, U. Bozkaya, R. A. King,
    F. A. Evangelista, J. M. Turney, T. D. Crawford, C. D. Sherrill,
    J. Chem. Phys. 152(18) 184108 (2020). https://doi.org/10.1063/5.0006002

                            Additional Code Authors
    E. T. Seidl, C. L. Janssen, E. F. Valeev, M. L. Leininger,
    J. F. Gonthier, R. M. Richard, H. R. McAlexander, M. Saitow, X. Wang,
    P. Verma, M. H. Lechner, A. Jiang, S. Behnle, A. G. Heide,
    M. F. Herbst, and D. L. Poole

             Previous Authors, Complete List of Code Contributors,
                       and Citations for Specific Modules
    https://github.com/psi4/psi4/blob/master/codemeta.json
    https://github.com/psi4/psi4/graphs/contributors
    http://psicode.org/psi4manual/master/introduction.html#citing-psifour

    -----------------------------------------------------------------------


    Psi4 started on: Wednesday, 27 August 2025 12:19AM

    Process ID: 64847
    Host:       Mac.lan
    PSIDATADIR: /Users/joseantoniorodriguesromero/anaconda3/share/psi4
    Memory:     500.0 MiB
    Threads:    1
    
  ==> Input File <==

--------------------------------------------------------------------------
molecule { 
-1 2
O           0.000000           0.000000           0.000000
O           0.000000           0.000000           1.109494
}

set { 
basis              cc-pvtz
reference          uks
maxiter            500
DAMPING_PERCENTAGE 1
E_CONVERGENCE      1.0E-8
D_CONVERGENCE      1.0E-8
DIIS_MAX_VECS      400
MBIS_MAXITER       8000
guess              read
}

E, wfn = energy('b3lyp', restart_file='last_wfn', return_wfn=True)
properties('b3lyp','MBIS_CHARGES', wfn=wfn)
wfn.to_file('last_wfn')
--------------------------------------------------------------------------

Scratch directory: /tmp/
 Found user provided orbital data. Setting orbital guess to READ 
 Copying restart file <last_wfn.npy> to </tmp/scan_OO_16.default.64847.180.npy> for internal processing
   => Libint2 <=

    Primary   basis highest AM E, G, H:  6, 6, 3
    Auxiliary basis highest AM E, G, H:  7, 7, 4
    Onebody   basis highest AM E, G, H:  -, -, -
    Solid Harmonics ordering:            Gaussian

*** tstart() called on Mac.lan
*** at Wed Aug 27 00:19:59 2025

   => Loading Basis Set <=

    Name: CC-PVTZ
    Role: ORBITAL
    Keyword: BASIS
    atoms 1-2 entry O          line   262 file /Users/joseantoniorodriguesromero/anaconda3/share/psi4/basis/cc-pvtz.gbs 


         ---------------------------------------------------------
                                   SCF
               by Justin Turney, Rob Parrish, Andy Simmonett
                          and Daniel G. A. Smith
                              UKS Reference
                        1 Threads,    500 MiB Core
         ---------------------------------------------------------

  ==> Geometry <==

    Molecular point group: d2h
    Full point group: D_inf_h

    Geometry (in Angstrom), charge = -1, multiplicity = 2:

       Center              X                  Y                   Z               Mass       
    ------------   -----------------  -----------------  -----------------  -----------------
         O            0.000000000000     0.000000000000    -0.554747000000    15.994914619570
         O            0.000000000000     0.000000000000     0.554747000000    15.994914619570

  Running in d2h symmetry.

  Rotational constants: A = ************  B =      1.71236  C =      1.71236 [cm^-1]
  Rotational constants: A = ************  B =  51335.21117  C =  51335.21117 [MHz]
  Nuclear repulsion =   30.525033468301761

  Charge       = -1
  Multiplicity = 2
  Electrons    = 17
  Nalpha       = 9
  Nbeta        = 8

  ==> Algorithm <==

  SCF Algorithm Type is DF.
  DIIS enabled.
  MOM disabled.
  Fractional occupation disabled.
  Guess Type is READ.
  Energy threshold   = 1.00e-08
  Density threshold  = 1.00e-08
  Integral threshold = 1.00e-12

  ==> Primary Basis <==

  Basis Set: CC-PVTZ
    Blend: CC-PVTZ
    Number of shells: 20
    Number of basis functions: 60
    Number of Cartesian functions: 70
    Spherical Harmonics?: true
    Max angular momentum: 3

  ==> DFT Potential <==

   => LibXC <=

    Version 6.2.2
    S. Lehtola, C. Steigemann, M. J.T. Oliveira, and M. A.L. Marques.,  SoftwareX 7, 1–5 (2018) (10.1016/j.softx.2017.11.002)

   => Composite Functional: B3LYP <= 

    B3LYP Hyb-GGA Exchange-Correlation Functional

    P. J. Stephens, F. J. Devlin, C. F. Chabalowski, and M. J. Frisch.,  J. Phys. Chem. 98, 11623 (1994) (10.1021/j100096a001)

    Deriv               =              1
    GGA                 =           TRUE
    Meta                =          FALSE

    Exchange Hybrid     =           TRUE
    MP2 Hybrid          =          FALSE

   => Exchange Functionals <=

    0.0800   Slater exchange
    0.7200         Becke 88

   => Exact (HF) Exchange <=

    0.2000               HF 

   => Correlation Functionals <=

    0.1900   Vosko, Wilk & Nusair (VWN5_RPA)
    0.8100   Lee, Yang & Parr

   => LibXC Density Thresholds  <==

    XC_HYB_GGA_XC_B3LYP:  1.00E-15 

   => Molecular Quadrature <=

    Radial Scheme          =       TREUTLER
    Pruning Scheme         =           NONE
    Nuclear Scheme         =       TREUTLER

    Blocking Scheme        =         OCTREE
    BS radius alpha        =              1
    Pruning alpha          =              1
    Radial Points          =             75
    Spherical Points       =            302
    Total Points           =          42388
    Total Blocks           =            374
    Max Points             =            255
    Max Functions          =             60
    Weights Tolerance      =       1.00E-15

   => Loading Basis Set <=

    Name: (CC-PVTZ AUX)
    Role: JKFIT
    Keyword: DF_BASIS_SCF
    atoms 1-2 entry O          line   229 file /Users/joseantoniorodriguesromero/anaconda3/share/psi4/basis/cc-pvtz-jkfit.gbs 

   => Loading Basis Set <=

    Name: CC-PVTZ
    Role: ORBITAL
    Keyword: BASIS
    atoms 1-2 entry O          line   262 file /Users/joseantoniorodriguesromero/anaconda3/share/psi4/basis/cc-pvtz.gbs 

  Reading orbitals from file /tmp/scan_OO_16.default.64847.180.npy, no projection.

  ==> Integral Setup <==

  DFHelper Memory: AOs need 0.005 GiB; user supplied 0.296 GiB. 
  Using in-core AOs.

  ==> MemDFJK: Density-Fitted J/K Matrices <==

    J tasked:                   Yes
    K tasked:                   Yes
    wK tasked:                   No
    OpenMP threads:               1
    Memory [MiB]:               303
    Algorithm:                 Core
    Schwarz Cutoff:           1E-12
    Mask sparsity (%):       0.0000
    Fitting Condition:        1E-10

   => Auxiliary Basis Set <=

  Basis Set: (CC-PVTZ AUX)
    Blend: CC-PVTZ-JKFIT
    Number of shells: 50
    Number of basis functions: 158
    Number of Cartesian functions: 192
    Spherical Harmonics?: true
    Max angular momentum: 4

  Cached 100.0% of DFT collocation blocks in 0.070 [GiB].

  Minimum eigenvalue in the overlap matrix is 5.1010059577E-03.
  Reciprocal condition number of the overlap matrix is 1.4599493166E-03.
    Using symmetric orthogonalization.

  ==> Pre-Iterations <==

  SCF Guess: Orbitals guess was supplied from a previous computation.

   -------------------------------------------------------
    Irrep   Nso     Nmo     Nalpha   Nbeta   Ndocc  Nsocc
   -------------------------------------------------------
     Ag        13      13       3       3       3       0
     B1g        3       3       0       0       0       0
     B2g        7       7       1       1       1       0
     B3g        7       7       1       0       0       1
     Au         3       3       0       0       0       0
     B1u       13      13       2       2       2       0
     B2u        7       7       1       1       1       0
     B3u        7       7       1       1       1       0
   -------------------------------------------------------
    Total      60      60       9       8       8       1
   -------------------------------------------------------

  ==> Iterations <==

                           Total Energy        Delta E     RMS |[F,P]|

   @DF-UKS iter   0:  -150.36439018383587   -1.50364e+02   9.28083e-03 
   @DF-UKS iter   1:  -150.30176537143507    6.26248e-02   1.26910e-03 DIIS/ADIIS
   @DF-UKS iter   2:  -150.30194778013060   -1.82409e-04   6.61959e-04 DIIS/ADIIS/DAMP=1%
   @DF-UKS iter   3:  -150.30151030428007    4.37476e-04   1.84086e-04 DIIS/ADIIS/DAMP=1%
   @DF-UKS iter   4:  -150.30216409372741   -6.53789e-04   1.29372e-05 DIIS/DAMP=1%
   @DF-UKS iter   5:  -150.30200397463130    1.60119e-04   1.53057e-06 DIIS/DAMP=1%
   @DF-UKS iter   6:  -150.30201546072550   -1.14861e-05   2.76937e-07 DIIS/DAMP=1%
   @DF-UKS iter   7:  -150.30201391870628    1.54202e-06   2.09752e-08 DIIS/DAMP=1%
   @DF-UKS iter   8:  -150.30201413598795   -2.17282e-07   1.69620e-09 DIIS/DAMP=1%
   @DF-UKS iter   9:  -150.30201412618794    9.80000e-09   1.55888e-10 DIIS/DAMP=1%
  Energy and wave function converged.


  ==> Post-Iterations <==

   Electrons on quadrature grid:
      Nalpha   =    9.0000006887 ; deviation = 6.887e-07
      Nbeta    =    8.0000005226 ; deviation = 5.226e-07
      Ntotal   =   17.0000012113 ; deviation = 1.211e-06 

   @Spin Contamination Metric:   2.929501756E-03
   @S^2 Expected:                7.500000000E-01
   @S^2 Observed:                7.529295018E-01
   @S   Expected:                5.000000000E-01
   @S   Observed:                5.000000000E-01

    Orbital Energies [Eh]
    ---------------------

    Alpha Occupied:                                                       

       1Ag   -18.798543     1B1u  -18.798107     2Ag    -0.942613  
       2B1u   -0.371473     1B2u   -0.182108     1B3u   -0.142825  
       3Ag    -0.142477     1B3g    0.146279     1B2g    0.188159  

    Alpha Virtual:                                                        

       3B1u    0.600630     2B2u    0.821252     2B3u    0.842861  
       4Ag     0.853929     2B3g    0.940744     2B2g    0.962126  
       4B1u    0.973866     5Ag     1.027681     5B1u    1.526238  
       1B1g    1.581264     6Ag     1.581517     3B2u    1.741541  
       3B3u    1.769259     1Au     2.044331     6B1u    2.044453  
       7Ag     2.556105     7B1u    2.560232     3B3g    2.588145  
       3B2g    2.614352     4B2u    3.826235     4B3u    3.862004  
       8Ag     4.059683     4B3g    4.160506     4B2g    4.198308  
       2B1g    4.944335     9Ag     4.944476     8B1u    5.063403  
       5B2u    5.088017     5B3u    5.116621     6B2u    5.257761  
       6B3u    5.257875    10Ag     5.470314     5B3g    5.625250  
       5B2g    5.625265     9B1u    6.064705     2Au     6.328596  
      10B1u    6.328909     3B1g    6.457561    11Ag     6.457600  
       3Au     6.697441    11B1u    6.698016     6B3g    6.736992  
       6B2g    6.769969     7B2u    6.941991     7B3u    6.976311  
      12B1u    7.411018    12Ag     7.510055     7B3g    7.948687  
       7B2g    7.979112    13Ag     8.034356    13B1u   15.206707  

    Beta Occupied:                                                        

       1Ag   -18.784554     1B1u  -18.784042     2Ag    -0.917782  
       2B1u   -0.329678     1B3u   -0.131375     3Ag    -0.122524  
       1B2u   -0.102418     1B2g    0.202951  

    Beta Virtual:                                                         

       1B3g    0.312825     3B1u    0.611130     2B3u    0.847508  
       2B2u    0.851553     4Ag     0.859217     2B2g    0.968650  
       2B3g    0.984715     4B1u    0.992530     5Ag     1.039312  
       5B1u    1.543373     1B1g    1.600928     6Ag     1.602086  
       3B3u    1.771574     3B2u    1.772269     1Au     2.074691  
       6B1u    2.076271     7Ag     2.570194     7B1u    2.571209  
       3B2g    2.618490     3B3g    2.621500     4B3u    3.872853  
       4B2u    3.888350     8Ag     4.071133     4B2g    4.209726  
       4B3g    4.221826     2B1g    4.962419     9Ag     4.963500  
       8B1u    5.082532     5B2u    5.116230     5B3u    5.120704  
       6B3u    5.290163     6B2u    5.290428    10Ag     5.485040  
       5B2g    5.661109     5B3g    5.661384     9B1u    6.084547  
       2Au     6.358537    10B1u    6.360358     3B1g    6.507308  
      11Ag     6.510690     3Au     6.741342    11B1u    6.744361  
       6B2g    6.776370     6B3g    6.786376     7B3u    6.982234  
       7B2u    6.988273    12B1u    7.426236    12Ag     7.538605  
       7B3g    7.981196     7B2g    7.983148    13Ag     8.045882  
      13B1u   15.227480  

    Final Occupation by Irrep:
             Ag   B1g   B2g   B3g    Au   B1u   B2u   B3u 
    DOCC [     3,    0,    1,    0,    0,    2,    1,    1 ]
    SOCC [     0,    0,    0,    1,    0,    0,    0,    0 ]
    NA   [     3,    0,    1,    1,    0,    2,    1,    1 ]
    NB   [     3,    0,    1,    0,    0,    2,    1,    1 ]

  @DF-UKS Final Energy:  -150.30201412618794

   => Energetics <=

    Nuclear Repulsion Energy =             30.5250334683017606
    One-Electron Energy =                -273.4606707183129402
    Two-Electron Energy =                 106.8172651718668220
    DFT Exchange-Correlation Energy =     -14.1836420480435983
    Empirical Dispersion Energy =           0.0000000000000000
    VV10 Nonlocal Energy =                  0.0000000000000000
    Total Energy =                       -150.3020141261879701

  UHF NO Occupations:
  HONO-2 :    2B1u 1.9997231
  HONO-1 :    1B2u 1.9990502
  HONO-0 :    1B3g 1.0000000
  LUNO+0 :    2B2u 0.0009498
  LUNO+1 :    3B1u 0.0002769
  LUNO+2 :    4 Ag 0.0001378
  LUNO+3 :    2B2g 0.0000569


Computation Completed


Properties will be evaluated at   0.000000,   0.000000,   0.000000 [a0]

Properties computed using the SCF density matrix


 Multipole Moments:

 ------------------------------------------------------------------------------------
     Multipole            Electronic (a.u.)      Nuclear  (a.u.)        Total (a.u.)
 ------------------------------------------------------------------------------------

 L = 1.  Multiply by 2.5417464519 to convert [e a0] to [Debye]
 Dipole X            :          0.0000000            0.0000000            0.0000000
 Dipole Y            :          0.0000000            0.0000000            0.0000000
 Dipole Z            :          0.0000000            0.0000000            0.0000000
 Magnitude           :                                                    0.0000000

 ------------------------------------------------------------------------------------

*** tstop() called on Mac.lan at Wed Aug 27 00:20:05 2025
Module time:
	user time   =      51.82 seconds =       0.86 minutes
	system time =       2.49 seconds =       0.04 minutes
	total time  =          6 seconds =       0.10 minutes
Total time:
	user time   =      51.82 seconds =       0.86 minutes
	system time =       2.49 seconds =       0.04 minutes
	total time  =          6 seconds =       0.10 minutes

*** tstart() called on Mac.lan
*** at Wed Aug 27 00:20:05 2025

   => Libint2 <=

    Primary   basis highest AM E, G, H:  6, 6, 3
    Auxiliary basis highest AM E, G, H:  7, 7, 4
    Onebody   basis highest AM E, G, H:  -, -, -
    Solid Harmonics ordering:            Gaussian
   => Loading Basis Set <=

    Name: CC-PVTZ
    Role: ORBITAL
    Keyword: BASIS
    atoms 1-2 entry O          line   262 file /Users/joseantoniorodriguesromero/anaconda3/share/psi4/basis/cc-pvtz.gbs 


         ---------------------------------------------------------
                                   SCF
               by Justin Turney, Rob Parrish, Andy Simmonett
                          and Daniel G. A. Smith
                              UKS Reference
                        1 Threads,    500 MiB Core
         ---------------------------------------------------------

  ==> Geometry <==

    Molecular point group: d2h
    Full point group: D_inf_h

    Geometry (in Angstrom), charge = -1, multiplicity = 2:

       Center              X                  Y                   Z               Mass       
    ------------   -----------------  -----------------  -----------------  -----------------
         O            0.000000000000     0.000000000000    -0.554747000000    15.994914619570
         O            0.000000000000     0.000000000000     0.554747000000    15.994914619570

  Running in d2h symmetry.

  Rotational constants: A = ************  B =      1.71236  C =      1.71236 [cm^-1]
  Rotational constants: A = ************  B =  51335.21117  C =  51335.21117 [MHz]
  Nuclear repulsion =   30.525033468301761

  Charge       = -1
  Multiplicity = 2
  Electrons    = 17
  Nalpha       = 9
  Nbeta        = 8

  ==> Algorithm <==

  SCF Algorithm Type is DF.
  DIIS enabled.
  MOM disabled.
  Fractional occupation disabled.
  Guess Type is READ.
  Energy threshold   = 1.00e-08
  Density threshold  = 1.00e-08
  Integral threshold = 1.00e-12

  ==> Primary Basis <==

  Basis Set: CC-PVTZ
    Blend: CC-PVTZ
    Number of shells: 20
    Number of basis functions: 60
    Number of Cartesian functions: 70
    Spherical Harmonics?: true
    Max angular momentum: 3

  ==> DFT Potential <==

   => LibXC <=

    Version 6.2.2
    S. Lehtola, C. Steigemann, M. J.T. Oliveira, and M. A.L. Marques.,  SoftwareX 7, 1–5 (2018) (10.1016/j.softx.2017.11.002)

   => Composite Functional: B3LYP <= 

    B3LYP Hyb-GGA Exchange-Correlation Functional

    P. J. Stephens, F. J. Devlin, C. F. Chabalowski, and M. J. Frisch.,  J. Phys. Chem. 98, 11623 (1994) (10.1021/j100096a001)

    Deriv               =              1
    GGA                 =           TRUE
    Meta                =          FALSE

    Exchange Hybrid     =           TRUE
    MP2 Hybrid          =          FALSE

   => Exchange Functionals <=

    0.0800   Slater exchange
    0.7200         Becke 88

   => Exact (HF) Exchange <=

    0.2000               HF 

   => Correlation Functionals <=

    0.1900   Vosko, Wilk & Nusair (VWN5_RPA)
    0.8100   Lee, Yang & Parr

   => LibXC Density Thresholds  <==

    XC_HYB_GGA_XC_B3LYP:  1.00E-15 

   => Molecular Quadrature <=

    Radial Scheme          =       TREUTLER
    Pruning Scheme         =           NONE
    Nuclear Scheme         =       TREUTLER

    Blocking Scheme        =         OCTREE
    BS radius alpha        =              1
    Pruning alpha          =              1
    Radial Points          =             75
    Spherical Points       =            302
    Total Points           =          42388
    Total Blocks           =            374
    Max Points             =            255
    Max Functions          =             60
    Weights Tolerance      =       1.00E-15

   => Loading Basis Set <=

    Name: (CC-PVTZ AUX)
    Role: JKFIT
    Keyword: DF_BASIS_SCF
    atoms 1-2 entry O          line   229 file /Users/joseantoniorodriguesromero/anaconda3/share/psi4/basis/cc-pvtz-jkfit.gbs 

   => Loading Basis Set <=

    Name: CC-PVTZ
    Role: ORBITAL
    Keyword: BASIS
    atoms 1-2 entry O          line   262 file /Users/joseantoniorodriguesromero/anaconda3/share/psi4/basis/cc-pvtz.gbs 

  Reading orbitals from file /tmp/scan_OO_16.default.64847.180.npy, no projection.

  ==> Integral Setup <==

  DFHelper Memory: AOs need 0.005 GiB; user supplied 0.296 GiB. 
  Using in-core AOs.

  ==> MemDFJK: Density-Fitted J/K Matrices <==

    J tasked:                   Yes
    K tasked:                   Yes
    wK tasked:                   No
    OpenMP threads:               1
    Memory [MiB]:               303
    Algorithm:                 Core
    Schwarz Cutoff:           1E-12
    Mask sparsity (%):       0.0000
    Fitting Condition:        1E-10

   => Auxiliary Basis Set <=

  Basis Set: (CC-PVTZ AUX)
    Blend: CC-PVTZ-JKFIT
    Number of shells: 50
    Number of basis functions: 158
    Number of Cartesian functions: 192
    Spherical Harmonics?: true
    Max angular momentum: 4

  Cached 100.0% of DFT collocation blocks in 0.070 [GiB].

  Minimum eigenvalue in the overlap matrix is 5.1010059577E-03.
  Reciprocal condition number of the overlap matrix is 1.4599493166E-03.
    Using symmetric orthogonalization.

  ==> Pre-Iterations <==

  SCF Guess: Orbitals guess was supplied from a previous computation.

   -------------------------------------------------------
    Irrep   Nso     Nmo     Nalpha   Nbeta   Ndocc  Nsocc
   -------------------------------------------------------
     Ag        13      13       3       3       3       0
     B1g        3       3       0       0       0       0
     B2g        7       7       1       1       1       0
     B3g        7       7       1       0       0       1
     Au         3       3       0       0       0       0
     B1u       13      13       2       2       2       0
     B2u        7       7       1       1       1       0
     B3u        7       7       1       1       1       0
   -------------------------------------------------------
    Total      60      60       9       8       8       1
   -------------------------------------------------------

  ==> Iterations <==

                           Total Energy        Delta E     RMS |[F,P]|

   @DF-UKS iter   0:  -150.30201412595136   -1.50302e+02   2.08205e-11 
   @DF-UKS iter   1:  -150.30201412595150   -1.42109e-13   2.43312e-11 DIIS
  Energy and wave function converged.


  ==> Post-Iterations <==

   Electrons on quadrature grid:
      Nalpha   =    9.0000006887 ; deviation = 6.887e-07
      Nbeta    =    8.0000005226 ; deviation = 5.226e-07
      Ntotal   =   17.0000012113 ; deviation = 1.211e-06 

   @Spin Contamination Metric:   2.929501756E-03
   @S^2 Expected:                7.500000000E-01
   @S^2 Observed:                7.529295018E-01
   @S   Expected:                5.000000000E-01
   @S   Observed:                5.000000000E-01

    Orbital Energies [Eh]
    ---------------------

    Alpha Occupied:                                                       

       1Ag   -18.798543     1B1u  -18.798107     2Ag    -0.942613  
       2B1u   -0.371473     1B2u   -0.182108     1B3u   -0.142825  
       3Ag    -0.142477     1B3g    0.146279     1B2g    0.188159  

    Alpha Virtual:                                                        

       3B1u    0.600630     2B2u    0.821252     2B3u    0.842861  
       4Ag     0.853929     2B3g    0.940744     2B2g    0.962126  
       4B1u    0.973866     5Ag     1.027681     5B1u    1.526238  
       1B1g    1.581264     6Ag     1.581517     3B2u    1.741541  
       3B3u    1.769259     1Au     2.044331     6B1u    2.044453  
       7Ag     2.556105     7B1u    2.560232     3B3g    2.588145  
       3B2g    2.614352     4B2u    3.826235     4B3u    3.862004  
       8Ag     4.059683     4B3g    4.160506     4B2g    4.198308  
       2B1g    4.944335     9Ag     4.944476     8B1u    5.063403  
       5B2u    5.088017     5B3u    5.116621     6B2u    5.257761  
       6B3u    5.257875    10Ag     5.470314     5B3g    5.625250  
       5B2g    5.625265     9B1u    6.064705     2Au     6.328596  
      10B1u    6.328909     3B1g    6.457561    11Ag     6.457600  
       3Au     6.697441    11B1u    6.698016     6B3g    6.736992  
       6B2g    6.769969     7B2u    6.941991     7B3u    6.976311  
      12B1u    7.411018    12Ag     7.510055     7B3g    7.948687  
       7B2g    7.979112    13Ag     8.034356    13B1u   15.206707  

    Beta Occupied:                                                        

       1Ag   -18.784554     1B1u  -18.784042     2Ag    -0.917782  
       2B1u   -0.329678     1B3u   -0.131375     3Ag    -0.122524  
       1B2u   -0.102418     1B2g    0.202951  

    Beta Virtual:                                                         

       1B3g    0.312825     3B1u    0.611130     2B3u    0.847508  
       2B2u    0.851553     4Ag     0.859217     2B2g    0.968650  
       2B3g    0.984715     4B1u    0.992530     5Ag     1.039312  
       5B1u    1.543373     1B1g    1.600928     6Ag     1.602086  
       3B3u    1.771574     3B2u    1.772269     1Au     2.074691  
       6B1u    2.076271     7Ag     2.570194     7B1u    2.571209  
       3B2g    2.618490     3B3g    2.621500     4B3u    3.872853  
       4B2u    3.888350     8Ag     4.071133     4B2g    4.209726  
       4B3g    4.221826     2B1g    4.962419     9Ag     4.963500  
       8B1u    5.082532     5B2u    5.116230     5B3u    5.120704  
       6B3u    5.290163     6B2u    5.290428    10Ag     5.485040  
       5B2g    5.661109     5B3g    5.661384     9B1u    6.084547  
       2Au     6.358537    10B1u    6.360358     3B1g    6.507308  
      11Ag     6.510690     3Au     6.741342    11B1u    6.744361  
       6B2g    6.776370     6B3g    6.786376     7B3u    6.982234  
       7B2u    6.988273    12B1u    7.426236    12Ag     7.538605  
       7B3g    7.981196     7B2g    7.983148    13Ag     8.045882  
      13B1u   15.227480  

    Final Occupation by Irrep:
             Ag   B1g   B2g   B3g    Au   B1u   B2u   B3u 
    DOCC [     3,    0,    1,    0,    0,    2,    1,    1 ]
    SOCC [     0,    0,    0,    1,    0,    0,    0,    0 ]
    NA   [     3,    0,    1,    1,    0,    2,    1,    1 ]
    NB   [     3,    0,    1,    0,    0,    2,    1,    1 ]

  @DF-UKS Final Energy:  -150.30201412595150

   => Energetics <=

    Nuclear Repulsion Energy =             30.5250334683017606
    One-Electron Energy =                -273.4606707035892441
    Two-Electron Energy =                 106.8172651559377471
    DFT Exchange-Correlation Energy =     -14.1836420466017632
    Empirical Dispersion Energy =           0.0000000000000000
    VV10 Nonlocal Energy =                  0.0000000000000000
    Total Energy =                       -150.3020141259515015

  UHF NO Occupations:
  HONO-2 :    2B1u 1.9997231
  HONO-1 :    1B2u 1.9990502
  HONO-0 :    1B3g 1.0000000
  LUNO+0 :    2B2u 0.0009498
  LUNO+1 :    3B1u 0.0002769
  LUNO+2 :    4 Ag 0.0001378
  LUNO+3 :    2B2g 0.0000569


Computation Completed


Properties will be evaluated at   0.000000,   0.000000,   0.000000 [a0]

Properties computed using the B3LYP density matrix


 Multipole Moments:

 ------------------------------------------------------------------------------------
     Multipole            Electronic (a.u.)      Nuclear  (a.u.)        Total (a.u.)
 ------------------------------------------------------------------------------------

 L = 1.  Multiply by 2.5417464519 to convert [e a0] to [Debye]
 Dipole X            :          0.0000000            0.0000000            0.0000000
 Dipole Y            :          0.0000000            0.0000000            0.0000000
 Dipole Z            :          0.0000000            0.0000000            0.0000000
 Magnitude           :                                                    0.0000000

 L = 2.  Multiply by 1.3450342976 to convert [e a0^2] to [Debye ang]
 Quadrupole XX       :         -9.3876300            0.0000000           -9.3876300
 Quadrupole XY       :          0.0000000            0.0000000            0.0000000
 Quadrupole XZ       :          0.0000000            0.0000000            0.0000000
 Quadrupole YY       :         -8.5247851            0.0000000           -8.5247851
 Quadrupole YZ       :          0.0000000            0.0000000            0.0000000
 Quadrupole ZZ       :        -28.8807055           17.5835938          -11.2971117
 Traceless XX        :          6.2100768           -5.8611979            0.3488789
 Traceless YY        :          7.0729218           -5.8611979            1.2117239
 Traceless ZZ        :        -13.2829986           11.7223958           -1.5606028

 ------------------------------------------------------------------------------------
  ==> Computing MBIS Charges <==

  Electron Count from Grid (Expected Number): 17.00000 (17.00000)
  Difference:  0.00000

  MBIS Charges: (a.u.)
   Center  Symbol  Z      Pop.       Charge
      1       O    8    8.500001   -0.500001
      2       O    8    8.500001   -0.500001

  MBIS Dipoles: [e a0]
   Center  Symbol  Z        X           Y           Z
      1       O    8    0.000000   -0.000000    0.303027
      2       O    8    0.000000    0.000000   -0.303027

  MBIS Quadrupoles: [e a0^2]
   Center  Symbol  Z      XX        XY        XZ        YY        YZ        ZZ
      1       O    8   -4.6938   -0.0000    0.0000   -4.2624   -0.0000   -4.4637
      2       O    8   -4.6938   -0.0000   -0.0000   -4.2624    0.0000   -4.4637

  MBIS Octupoles: [e a0^3]
   Center  Symbol  Z      XXX       XXY       XXZ       XYY       XYZ       XZZ       YYY       YYZ       YZZ       ZZZ
      1       O    8   -0.0000   -0.0000    0.5412    0.0000   -0.0000   -0.0000    0.0000    0.3607   -0.0000    0.1069
      2       O    8    0.0000   -0.0000   -0.5412    0.0000    0.0000   -0.0000   -0.0000   -0.3607    0.0000   -0.1069

  MBIS Radial Moments:
   Center  Symbol  Z      [a0^2]      [a0^3]      [a0^4]      
      1       O    8   13.419938   26.837313   64.196545
      2       O    8   13.419938   26.837313   64.196545

  MBIS Valence Widths: [a0]
   Center  Symbol  Z     Width
      1       O    8    0.404363
      2       O    8    0.404363

*** tstop() called on Mac.lan at Wed Aug 27 00:20:06 2025
Module time:
	user time   =      15.52 seconds =       0.26 minutes
	system time =       1.71 seconds =       0.03 minutes
	total time  =          1 seconds =       0.02 minutes
Total time:
	user time   =      67.42 seconds =       1.12 minutes
	system time =       4.30 seconds =       0.07 minutes
	total time  =          7 seconds =       0.12 minutes

    Psi4 stopped on: Wednesday, 27 August 2025 12:20AM
    Psi4 wall time for execution: 0:00:07.19

*** Psi4 exiting successfully. Buy a developer a beer!
