
    -----------------------------------------------------------------------
          Psi4: An Open-Source Ab Initio Electronic Structure Package
                               Psi4 1.9.1 release

                         Git: Rev {} zzzzzzz 


    D. G. A. Smith, L. A. Burns, A. C. Simmonett, R. M. Parrish,
    M. C. Schieber, R. Galvelis, P. Kraus, H. Kruse, R. Di Remigio,
    A. Alenaizan, A. M. James, S. Lehtola, J. P. Misiewicz, M. Scheurer,
    R. A. Shaw, J. B. Schriber, Y. Xie, Z. L. Glick, D. A. Sirianni,
    J. S. O'Brien, J. M. Waldrop, A. Kumar, E. G. Hohenstein,
    B. P. Pritchard, B. R. Brooks, H. F. Schaefer III, A. Yu. Sokolov,
    K. Patkowski, A. E. DePrince III, U. Bozkaya, R. A. King,
    F. A. Evangelista, J. M. Turney, T. D. Crawford, C. D. Sherrill,
    J. Chem. Phys. 152(18) 184108 (2020). https://doi.org/10.1063/5.0006002

                            Additional Code Authors
    E. T. Seidl, C. L. Janssen, E. F. Valeev, M. L. Leininger,
    J. F. Gonthier, R. M. Richard, H. R. McAlexander, M. Saitow, X. Wang,
    P. Verma, M. H. Lechner, A. Jiang, S. Behnle, A. G. Heide,
    M. F. Herbst, and D. L. Poole

             Previous Authors, Complete List of Code Contributors,
                       and Citations for Specific Modules
    https://github.com/psi4/psi4/blob/master/codemeta.json
    https://github.com/psi4/psi4/graphs/contributors
    http://psicode.org/psi4manual/master/introduction.html#citing-psifour

    -----------------------------------------------------------------------


    Psi4 started on: Wednesday, 27 August 2025 03:58AM

    Process ID: 66203
    Host:       Mac.lan
    PSIDATADIR: /Users/joseantoniorodriguesromero/anaconda3/share/psi4
    Memory:     500.0 MiB
    Threads:    1
    
  ==> Input File <==

--------------------------------------------------------------------------
molecule { 
-1 1
O           0.000000           0.000000           0.000000
H           0.000000           0.000000           1.672604
}

set { 
basis              cc-pvtz
reference          uks
maxiter            500
DAMPING_PERCENTAGE 1
E_CONVERGENCE      1.0E-8
D_CONVERGENCE      1.0E-8
DIIS_MAX_VECS      400
MBIS_MAXITER       8000
guess              read
}

E, wfn = energy('b3lyp', restart_file='last_wfn', return_wfn=True)
properties('b3lyp','MBIS_CHARGES', wfn=wfn)
wfn.to_file('last_wfn')
--------------------------------------------------------------------------

Scratch directory: /tmp/
 Found user provided orbital data. Setting orbital guess to READ 
 Copying restart file <last_wfn.npy> to </tmp/scan_HO_42.default.66203.180.npy> for internal processing
   => Libint2 <=

    Primary   basis highest AM E, G, H:  6, 6, 3
    Auxiliary basis highest AM E, G, H:  7, 7, 4
    Onebody   basis highest AM E, G, H:  -, -, -
    Solid Harmonics ordering:            Gaussian

*** tstart() called on Mac.lan
*** at Wed Aug 27 03:58:18 2025

   => Loading Basis Set <=

    Name: CC-PVTZ
    Role: ORBITAL
    Keyword: BASIS
    atoms 1 entry O          line   262 file /Users/joseantoniorodriguesromero/anaconda3/share/psi4/basis/cc-pvtz.gbs 
    atoms 2 entry H          line    23 file /Users/joseantoniorodriguesromero/anaconda3/share/psi4/basis/cc-pvtz.gbs 


         ---------------------------------------------------------
                                   SCF
               by Justin Turney, Rob Parrish, Andy Simmonett
                          and Daniel G. A. Smith
                              UKS Reference
                        1 Threads,    500 MiB Core
         ---------------------------------------------------------

  ==> Geometry <==

    Molecular point group: c2v
    Full point group: C_inf_v

    Geometry (in Angstrom), charge = -1, multiplicity = 1:

       Center              X                  Y                   Z               Mass       
    ------------   -----------------  -----------------  -----------------  -----------------
         O            0.000000000000     0.000000000000    -0.099142386152    15.994914619570
         H            0.000000000000     0.000000000000     1.573461613848     1.007825032230

  Running in c2v symmetry.

  Rotational constants: A = ************  B =      6.35568  C =      6.35568 [cm^-1]
  Rotational constants: A = ************  B = 190538.51443  C = 190538.51443 [MHz]
  Nuclear repulsion =    2.531034055496699

  Charge       = -1
  Multiplicity = 1
  Electrons    = 10
  Nalpha       = 5
  Nbeta        = 5

  ==> Algorithm <==

  SCF Algorithm Type is DF.
  DIIS enabled.
  MOM disabled.
  Fractional occupation disabled.
  Guess Type is READ.
  Energy threshold   = 1.00e-08
  Density threshold  = 1.00e-08
  Integral threshold = 1.00e-12

  ==> Primary Basis <==

  Basis Set: CC-PVTZ
    Blend: CC-PVTZ
    Number of shells: 16
    Number of basis functions: 44
    Number of Cartesian functions: 50
    Spherical Harmonics?: true
    Max angular momentum: 3

  ==> DFT Potential <==

   => LibXC <=

    Version 6.2.2
    S. Lehtola, C. Steigemann, M. J.T. Oliveira, and M. A.L. Marques.,  SoftwareX 7, 1–5 (2018) (10.1016/j.softx.2017.11.002)

   => Composite Functional: B3LYP <= 

    B3LYP Hyb-GGA Exchange-Correlation Functional

    P. J. Stephens, F. J. Devlin, C. F. Chabalowski, and M. J. Frisch.,  J. Phys. Chem. 98, 11623 (1994) (10.1021/j100096a001)

    Deriv               =              1
    GGA                 =           TRUE
    Meta                =          FALSE

    Exchange Hybrid     =           TRUE
    MP2 Hybrid          =          FALSE

   => Exchange Functionals <=

    0.0800   Slater exchange
    0.7200         Becke 88

   => Exact (HF) Exchange <=

    0.2000               HF 

   => Correlation Functionals <=

    0.1900   Vosko, Wilk & Nusair (VWN5_RPA)
    0.8100   Lee, Yang & Parr

   => LibXC Density Thresholds  <==

    XC_HYB_GGA_XC_B3LYP:  1.00E-15 

   => Molecular Quadrature <=

    Radial Scheme          =       TREUTLER
    Pruning Scheme         =           NONE
    Nuclear Scheme         =       TREUTLER

    Blocking Scheme        =         OCTREE
    BS radius alpha        =              1
    Pruning alpha          =              1
    Radial Points          =             75
    Spherical Points       =            302
    Total Points           =          44187
    Total Blocks           =            389
    Max Points             =            255
    Max Functions          =             44
    Weights Tolerance      =       1.00E-15

   => Loading Basis Set <=

    Name: (CC-PVTZ AUX)
    Role: JKFIT
    Keyword: DF_BASIS_SCF
    atoms 1 entry O          line   229 file /Users/joseantoniorodriguesromero/anaconda3/share/psi4/basis/cc-pvtz-jkfit.gbs 
    atoms 2 entry H          line    51 file /Users/joseantoniorodriguesromero/anaconda3/share/psi4/basis/cc-pvtz-jkfit.gbs 

   => Loading Basis Set <=

    Name: CC-PVTZ
    Role: ORBITAL
    Keyword: BASIS
    atoms 1 entry O          line   262 file /Users/joseantoniorodriguesromero/anaconda3/share/psi4/basis/cc-pvtz.gbs 
    atoms 2 entry H          line    23 file /Users/joseantoniorodriguesromero/anaconda3/share/psi4/basis/cc-pvtz.gbs 

  Reading orbitals from file /tmp/scan_HO_42.default.66203.180.npy, no projection.

  ==> Integral Setup <==

  DFHelper Memory: AOs need 0.002 GiB; user supplied 0.312 GiB. 
  Using in-core AOs.

  ==> MemDFJK: Density-Fitted J/K Matrices <==

    J tasked:                   Yes
    K tasked:                   Yes
    wK tasked:                   No
    OpenMP threads:               1
    Memory [MiB]:               319
    Algorithm:                 Core
    Schwarz Cutoff:           1E-12
    Mask sparsity (%):       0.0000
    Fitting Condition:        1E-10

   => Auxiliary Basis Set <=

  Basis Set: (CC-PVTZ AUX)
    Blend: CC-PVTZ-JKFIT
    Number of shells: 35
    Number of basis functions: 109
    Number of Cartesian functions: 131
    Spherical Harmonics?: true
    Max angular momentum: 4

  Cached 100.0% of DFT collocation blocks in 0.054 [GiB].

  Minimum eigenvalue in the overlap matrix is 2.9684670308E-02.
  Reciprocal condition number of the overlap matrix is 9.5969508367E-03.
    Using symmetric orthogonalization.

  ==> Pre-Iterations <==

  SCF Guess: Orbitals guess was supplied from a previous computation.

   -------------------------------------------------------
    Irrep   Nso     Nmo     Nalpha   Nbeta   Ndocc  Nsocc
   -------------------------------------------------------
     A1        20      20       3       3       3       0
     A2         4       4       0       0       0       0
     B1        10      10       1       1       1       0
     B2        10      10       1       1       1       0
   -------------------------------------------------------
    Total      44      44       5       5       5       0
   -------------------------------------------------------

  ==> Iterations <==

                           Total Energy        Delta E     RMS |[F,P]|

   @DF-UKS iter   0:   -75.68513461951338   -7.56851e+01   9.59706e-04 
   @DF-UKS iter   1:   -75.68687586311073   -1.74124e-03   6.08065e-04 ADIIS/DIIS
   @DF-UKS iter   2:   -75.68623938092945    6.36482e-04   1.57687e-03 ADIIS/DIIS/DAMP=1%
   @DF-UKS iter   3:   -75.68812132406055   -1.88194e-03   1.92686e-04 ADIIS/DIIS/DAMP=1%
   @DF-UKS iter   4:   -75.68692311129264    1.19821e-03   4.37934e-06 DIIS/DAMP=1%
   @DF-UKS iter   5:   -75.68700092247614   -7.78112e-05   1.66285e-06 DIIS/DAMP=1%
   @DF-UKS iter   6:   -75.68700186629847   -9.43822e-07   2.85573e-07 DIIS/DAMP=1%
   @DF-UKS iter   7:   -75.68700341563839   -1.54934e-06   6.47200e-08 DIIS/DAMP=1%
   @DF-UKS iter   8:   -75.68700313990762    2.75731e-07   2.23775e-09 DIIS/DAMP=1%
   @DF-UKS iter   9:   -75.68700318436632   -4.44587e-08   2.81348e-10 DIIS/DAMP=1%
   @DF-UKS iter  10:   -75.68700318283668    1.52964e-09   3.75149e-12 DIIS/DAMP=1%
  Energy and wave function converged.


  ==> Post-Iterations <==

   Electrons on quadrature grid:
      Nalpha   =    4.9999999107 ; deviation = -8.929e-08
      Nbeta    =    4.9999999107 ; deviation = -8.929e-08
      Ntotal   =    9.9999998214 ; deviation = -1.786e-07 

   @Spin Contamination Metric:  -1.776356839E-15
   @S^2 Expected:                0.000000000E+00
   @S^2 Observed:               -1.776356839E-15
   @S   Expected:                0.000000000E+00
   @S   Observed:                0.000000000E+00

    Orbital Energies [Eh]
    ---------------------

    Alpha Occupied:                                                       

       1A1   -18.781537     2A1    -0.510394     3A1    -0.016773  
       1B2     0.064185     1B1     0.064185  

    Alpha Virtual:                                                        

       4A1     0.198683     5A1     0.507700     2B2     0.836750  
       2B1     0.836750     6A1     0.911181     3B2     0.992550  
       3B1     0.992550     7A1     1.032214     8A1     1.374589  
       9A1     1.849394     1A2     1.849394     4B1     1.865686  
       4B2     1.865686    10A1     2.109245    11A1     2.681133  
      12A1     3.487992     2A2     3.488001    13A1     3.510832  
       5B2     3.555411     5B1     3.555411     6B1     3.917216  
       6B2     3.917216     7B1     3.977404     7B2     3.977404  
      14A1     4.034067    15A1     4.557908    16A1     5.503172  
       3A2     5.503172     8B2     5.529483     8B1     5.529483  
       9B1     5.548958     9B2     5.548958    17A1     5.744191  
       4A2     6.578878    18A1     6.578884    10B1     6.630539  
      10B2     6.630539    19A1     6.988119    20A1     7.845495  

    Beta Occupied:                                                        

       1A1   -18.781537     2A1    -0.510394     3A1    -0.016773  
       1B2     0.064185     1B1     0.064185  

    Beta Virtual:                                                         

       4A1     0.198683     5A1     0.507700     2B2     0.836750  
       2B1     0.836750     6A1     0.911181     3B2     0.992550  
       3B1     0.992550     7A1     1.032214     8A1     1.374589  
       9A1     1.849394     1A2     1.849394     4B2     1.865686  
       4B1     1.865686    10A1     2.109245    11A1     2.681133  
      12A1     3.487992     2A2     3.488001    13A1     3.510832  
       5B2     3.555411     5B1     3.555411     6B2     3.917216  
       6B1     3.917216     7B1     3.977404     7B2     3.977404  
      14A1     4.034067    15A1     4.557908    16A1     5.503172  
       3A2     5.503172     8B2     5.529483     8B1     5.529483  
       9B1     5.548958     9B2     5.548958    17A1     5.744191  
       4A2     6.578878    18A1     6.578884    10B1     6.630539  
      10B2     6.630539    19A1     6.988119    20A1     7.845495  

    Final Occupation by Irrep:
             A1    A2    B1    B2 
    DOCC [     3,    0,    1,    1 ]
    SOCC [     0,    0,    0,    0 ]
    NA   [     3,    0,    1,    1 ]
    NB   [     3,    0,    1,    1 ]

  @DF-UKS Final Energy:   -75.68700318283668

   => Energetics <=

    Nuclear Repulsion Energy =              2.5310340554966988
    One-Electron Energy =                -112.8228101739426990
    Two-Electron Energy =                  41.9071312610185842
    DFT Exchange-Correlation Energy =      -7.3023583254092728
    Empirical Dispersion Energy =           0.0000000000000000
    VV10 Nonlocal Energy =                  0.0000000000000000
    Total Energy =                        -75.6870031828366905

  UHF NO Occupations:
  HONO-2 :    1 A1 2.0000000
  HONO-1 :    2 A1 2.0000000
  HONO-0 :    3 A1 2.0000000
  LUNO+0 :    4 A1 0.0000000
  LUNO+1 :    5 A1 0.0000000
  LUNO+2 :    6 A1 0.0000000
  LUNO+3 :    7 A1 0.0000000


Computation Completed


Properties will be evaluated at   0.000000,   0.000000,   0.000000 [a0]

Properties computed using the SCF density matrix


 Multipole Moments:

 ------------------------------------------------------------------------------------
     Multipole            Electronic (a.u.)      Nuclear  (a.u.)        Total (a.u.)
 ------------------------------------------------------------------------------------

 L = 1.  Multiply by 2.5417464519 to convert [e a0] to [Debye]
 Dipole X            :          0.0000000            0.0000000            0.0000000
 Dipole Y            :          0.0000000            0.0000000            0.0000000
 Dipole Z            :         -1.9686350            1.4745959           -0.4940392
 Magnitude           :                                                    0.4940392

 ------------------------------------------------------------------------------------

*** tstop() called on Mac.lan at Wed Aug 27 03:58:27 2025
Module time:
	user time   =      90.13 seconds =       1.50 minutes
	system time =       5.22 seconds =       0.09 minutes
	total time  =          9 seconds =       0.15 minutes
Total time:
	user time   =      90.13 seconds =       1.50 minutes
	system time =       5.22 seconds =       0.09 minutes
	total time  =          9 seconds =       0.15 minutes

*** tstart() called on Mac.lan
*** at Wed Aug 27 03:58:27 2025

   => Libint2 <=

    Primary   basis highest AM E, G, H:  6, 6, 3
    Auxiliary basis highest AM E, G, H:  7, 7, 4
    Onebody   basis highest AM E, G, H:  -, -, -
    Solid Harmonics ordering:            Gaussian
   => Loading Basis Set <=

    Name: CC-PVTZ
    Role: ORBITAL
    Keyword: BASIS
    atoms 1 entry O          line   262 file /Users/joseantoniorodriguesromero/anaconda3/share/psi4/basis/cc-pvtz.gbs 
    atoms 2 entry H          line    23 file /Users/joseantoniorodriguesromero/anaconda3/share/psi4/basis/cc-pvtz.gbs 


         ---------------------------------------------------------
                                   SCF
               by Justin Turney, Rob Parrish, Andy Simmonett
                          and Daniel G. A. Smith
                              UKS Reference
                        1 Threads,    500 MiB Core
         ---------------------------------------------------------

  ==> Geometry <==

    Molecular point group: c2v
    Full point group: C_inf_v

    Geometry (in Angstrom), charge = -1, multiplicity = 1:

       Center              X                  Y                   Z               Mass       
    ------------   -----------------  -----------------  -----------------  -----------------
         O            0.000000000000     0.000000000000    -0.099142386152    15.994914619570
         H            0.000000000000     0.000000000000     1.573461613848     1.007825032230

  Running in c2v symmetry.

  Rotational constants: A = ************  B =      6.35568  C =      6.35568 [cm^-1]
  Rotational constants: A = ************  B = 190538.51443  C = 190538.51443 [MHz]
  Nuclear repulsion =    2.531034055496699

  Charge       = -1
  Multiplicity = 1
  Electrons    = 10
  Nalpha       = 5
  Nbeta        = 5

  ==> Algorithm <==

  SCF Algorithm Type is DF.
  DIIS enabled.
  MOM disabled.
  Fractional occupation disabled.
  Guess Type is READ.
  Energy threshold   = 1.00e-08
  Density threshold  = 1.00e-08
  Integral threshold = 1.00e-12

  ==> Primary Basis <==

  Basis Set: CC-PVTZ
    Blend: CC-PVTZ
    Number of shells: 16
    Number of basis functions: 44
    Number of Cartesian functions: 50
    Spherical Harmonics?: true
    Max angular momentum: 3

  ==> DFT Potential <==

   => LibXC <=

    Version 6.2.2
    S. Lehtola, C. Steigemann, M. J.T. Oliveira, and M. A.L. Marques.,  SoftwareX 7, 1–5 (2018) (10.1016/j.softx.2017.11.002)

   => Composite Functional: B3LYP <= 

    B3LYP Hyb-GGA Exchange-Correlation Functional

    P. J. Stephens, F. J. Devlin, C. F. Chabalowski, and M. J. Frisch.,  J. Phys. Chem. 98, 11623 (1994) (10.1021/j100096a001)

    Deriv               =              1
    GGA                 =           TRUE
    Meta                =          FALSE

    Exchange Hybrid     =           TRUE
    MP2 Hybrid          =          FALSE

   => Exchange Functionals <=

    0.0800   Slater exchange
    0.7200         Becke 88

   => Exact (HF) Exchange <=

    0.2000               HF 

   => Correlation Functionals <=

    0.1900   Vosko, Wilk & Nusair (VWN5_RPA)
    0.8100   Lee, Yang & Parr

   => LibXC Density Thresholds  <==

    XC_HYB_GGA_XC_B3LYP:  1.00E-15 

   => Molecular Quadrature <=

    Radial Scheme          =       TREUTLER
    Pruning Scheme         =           NONE
    Nuclear Scheme         =       TREUTLER

    Blocking Scheme        =         OCTREE
    BS radius alpha        =              1
    Pruning alpha          =              1
    Radial Points          =             75
    Spherical Points       =            302
    Total Points           =          44187
    Total Blocks           =            389
    Max Points             =            255
    Max Functions          =             44
    Weights Tolerance      =       1.00E-15

   => Loading Basis Set <=

    Name: (CC-PVTZ AUX)
    Role: JKFIT
    Keyword: DF_BASIS_SCF
    atoms 1 entry O          line   229 file /Users/joseantoniorodriguesromero/anaconda3/share/psi4/basis/cc-pvtz-jkfit.gbs 
    atoms 2 entry H          line    51 file /Users/joseantoniorodriguesromero/anaconda3/share/psi4/basis/cc-pvtz-jkfit.gbs 

   => Loading Basis Set <=

    Name: CC-PVTZ
    Role: ORBITAL
    Keyword: BASIS
    atoms 1 entry O          line   262 file /Users/joseantoniorodriguesromero/anaconda3/share/psi4/basis/cc-pvtz.gbs 
    atoms 2 entry H          line    23 file /Users/joseantoniorodriguesromero/anaconda3/share/psi4/basis/cc-pvtz.gbs 

  Reading orbitals from file /tmp/scan_HO_42.default.66203.180.npy, no projection.

  ==> Integral Setup <==

  DFHelper Memory: AOs need 0.002 GiB; user supplied 0.312 GiB. 
  Using in-core AOs.

  ==> MemDFJK: Density-Fitted J/K Matrices <==

    J tasked:                   Yes
    K tasked:                   Yes
    wK tasked:                   No
    OpenMP threads:               1
    Memory [MiB]:               319
    Algorithm:                 Core
    Schwarz Cutoff:           1E-12
    Mask sparsity (%):       0.0000
    Fitting Condition:        1E-10

   => Auxiliary Basis Set <=

  Basis Set: (CC-PVTZ AUX)
    Blend: CC-PVTZ-JKFIT
    Number of shells: 35
    Number of basis functions: 109
    Number of Cartesian functions: 131
    Spherical Harmonics?: true
    Max angular momentum: 4

  Cached 100.0% of DFT collocation blocks in 0.054 [GiB].

  Minimum eigenvalue in the overlap matrix is 2.9684670308E-02.
  Reciprocal condition number of the overlap matrix is 9.5969508367E-03.
    Using symmetric orthogonalization.

  ==> Pre-Iterations <==

  SCF Guess: Orbitals guess was supplied from a previous computation.

   -------------------------------------------------------
    Irrep   Nso     Nmo     Nalpha   Nbeta   Ndocc  Nsocc
   -------------------------------------------------------
     A1        20      20       3       3       3       0
     A2         4       4       0       0       0       0
     B1        10      10       1       1       1       0
     B2        10      10       1       1       1       0
   -------------------------------------------------------
    Total      44      44       5       5       5       0
   -------------------------------------------------------

  ==> Iterations <==

                           Total Energy        Delta E     RMS |[F,P]|

   @DF-UKS iter   0:   -75.68700318301461   -7.56870e+01   1.63476e-12 
   @DF-UKS iter   1:   -75.68700318301457    4.26326e-14   4.64483e-12 DIIS
  Energy and wave function converged.


  ==> Post-Iterations <==

   Electrons on quadrature grid:
      Nalpha   =    4.9999999107 ; deviation = -8.929e-08
      Nbeta    =    4.9999999107 ; deviation = -8.929e-08
      Ntotal   =    9.9999998214 ; deviation = -1.786e-07 

   @Spin Contamination Metric:   1.065814104E-14
   @S^2 Expected:                0.000000000E+00
   @S^2 Observed:                1.065814104E-14
   @S   Expected:                0.000000000E+00
   @S   Observed:                0.000000000E+00

    Orbital Energies [Eh]
    ---------------------

    Alpha Occupied:                                                       

       1A1   -18.781537     2A1    -0.510394     3A1    -0.016773  
       1B1     0.064185     1B2     0.064185  

    Alpha Virtual:                                                        

       4A1     0.198683     5A1     0.507700     2B2     0.836750  
       2B1     0.836750     6A1     0.911181     3B2     0.992550  
       3B1     0.992550     7A1     1.032214     8A1     1.374589  
       9A1     1.849394     1A2     1.849394     4B1     1.865686  
       4B2     1.865686    10A1     2.109245    11A1     2.681133  
      12A1     3.487992     2A2     3.488001    13A1     3.510832  
       5B2     3.555411     5B1     3.555411     6B1     3.917216  
       6B2     3.917216     7B1     3.977404     7B2     3.977404  
      14A1     4.034067    15A1     4.557908    16A1     5.503172  
       3A2     5.503172     8B2     5.529483     8B1     5.529483  
       9B1     5.548958     9B2     5.548958    17A1     5.744191  
       4A2     6.578878    18A1     6.578884    10B1     6.630539  
      10B2     6.630539    19A1     6.988119    20A1     7.845495  

    Beta Occupied:                                                        

       1A1   -18.781537     2A1    -0.510394     3A1    -0.016773  
       1B2     0.064185     1B1     0.064185  

    Beta Virtual:                                                         

       4A1     0.198683     5A1     0.507700     2B2     0.836750  
       2B1     0.836750     6A1     0.911181     3B2     0.992550  
       3B1     0.992550     7A1     1.032214     8A1     1.374589  
       9A1     1.849394     1A2     1.849394     4B1     1.865686  
       4B2     1.865686    10A1     2.109245    11A1     2.681133  
      12A1     3.487992     2A2     3.488001    13A1     3.510832  
       5B2     3.555411     5B1     3.555411     6B1     3.917216  
       6B2     3.917216     7B1     3.977404     7B2     3.977404  
      14A1     4.034067    15A1     4.557908    16A1     5.503172  
       3A2     5.503172     8B2     5.529483     8B1     5.529483  
       9B1     5.548958     9B2     5.548958    17A1     5.744191  
       4A2     6.578878    18A1     6.578884    10B1     6.630539  
      10B2     6.630539    19A1     6.988119    20A1     7.845495  

    Final Occupation by Irrep:
             A1    A2    B1    B2 
    DOCC [     3,    0,    1,    1 ]
    SOCC [     0,    0,    0,    0 ]
    NA   [     3,    0,    1,    1 ]
    NB   [     3,    0,    1,    1 ]

  @DF-UKS Final Energy:   -75.68700318301457

   => Energetics <=

    Nuclear Repulsion Energy =              2.5310340554966988
    One-Electron Energy =                -112.8228101744755918
    Two-Electron Energy =                  41.9071312614136886
    DFT Exchange-Correlation Energy =      -7.3023583254493776
    Empirical Dispersion Energy =           0.0000000000000000
    VV10 Nonlocal Energy =                  0.0000000000000000
    Total Energy =                        -75.6870031830145820

  UHF NO Occupations:
  HONO-2 :    1 B1 2.0000000
  HONO-1 :    2 A1 2.0000000
  HONO-0 :    3 A1 2.0000000
  LUNO+0 :    4 A1 0.0000000
  LUNO+1 :    5 A1 0.0000000
  LUNO+2 :    6 A1 0.0000000
  LUNO+3 :    7 A1 0.0000000


Computation Completed


Properties will be evaluated at   0.000000,   0.000000,   0.000000 [a0]

Properties computed using the B3LYP density matrix


 Multipole Moments:

 ------------------------------------------------------------------------------------
     Multipole            Electronic (a.u.)      Nuclear  (a.u.)        Total (a.u.)
 ------------------------------------------------------------------------------------

 L = 1.  Multiply by 2.5417464519 to convert [e a0] to [Debye]
 Dipole X            :          0.0000000            0.0000000            0.0000000
 Dipole Y            :          0.0000000            0.0000000            0.0000000
 Dipole Z            :         -1.9686350            1.4745959           -0.4940392
 Magnitude           :                                                    0.4940392

 L = 2.  Multiply by 1.3450342976 to convert [e a0^2] to [Debye ang]
 Quadrupole XX       :         -6.9141101            0.0000000           -6.9141101
 Quadrupole XY       :          0.0000000            0.0000000            0.0000000
 Quadrupole XZ       :          0.0000000            0.0000000            0.0000000
 Quadrupole YY       :         -6.9141101            0.0000000           -6.9141101
 Quadrupole YZ       :          0.0000000            0.0000000            0.0000000
 Quadrupole ZZ       :        -16.7495846            9.1219821           -7.6276025
 Traceless XX        :          3.2784915           -3.0406607            0.2378308
 Traceless YY        :          3.2784915           -3.0406607            0.2378308
 Traceless ZZ        :         -6.5569830            6.0813214           -0.4756616

 ------------------------------------------------------------------------------------
  ==> Computing MBIS Charges <==

  Electron Count from Grid (Expected Number): 10.00000 (10.00000)
  Difference: -0.00000

  MBIS Charges: (a.u.)
   Center  Symbol  Z      Pop.       Charge
      1       O    8    8.804501   -0.804501
      2       H    1    1.195499   -0.195499

  MBIS Dipoles: [e a0]
   Center  Symbol  Z        X           Y           Z
      1       O    8   -0.000000    0.000000   -0.088315
      2       H    1    0.000000    0.000000    0.024851

  MBIS Quadrupoles: [e a0^2]
   Center  Symbol  Z      XX        XY        XZ        YY        YZ        ZZ
      1       O    8   -5.4142    0.0000   -0.0000   -5.4142   -0.0000   -4.5889
      2       H    1   -1.4999    0.0000    0.0000   -1.4999    0.0000   -1.4629

  MBIS Octupoles: [e a0^3]
   Center  Symbol  Z      XXX       XXY       XXZ       XYY       XYZ       XZZ       YYY       YYZ       YZZ       ZZZ
      1       O    8   -0.0000   -0.0000   -0.2070   -0.0000   -0.0000    0.0000    0.0000   -0.2070    0.0000   -0.9716
      2       H    1   -0.0000    0.0000    0.0453    0.0000   -0.0000    0.0000    0.0000    0.0453    0.0000    0.0536

  MBIS Radial Moments:
   Center  Symbol  Z      [a0^2]      [a0^3]      [a0^4]      
      1       O    8   15.417285   32.256914   80.188533
      2       H    1    4.462733   12.251456   39.323437

  MBIS Valence Widths: [a0]
   Center  Symbol  Z     Width
      1       O    8    0.425382
      2       H    1    0.557826

*** tstop() called on Mac.lan at Wed Aug 27 04:15:34 2025
Module time:
	user time   =      11.57 seconds =       0.19 minutes
	system time =       2.21 seconds =       0.04 minutes
	total time  =       1027 seconds =      17.12 minutes
Total time:
	user time   =     101.73 seconds =       1.70 minutes
	system time =       7.59 seconds =       0.13 minutes
	total time  =       1036 seconds =      17.27 minutes

    Psi4 stopped on: Wednesday, 27 August 2025 04:15AM
    Psi4 wall time for execution: 0:17:16.75

*** Psi4 exiting successfully. Buy a developer a beer!
