
    -----------------------------------------------------------------------
          Psi4: An Open-Source Ab Initio Electronic Structure Package
                               Psi4 1.10 release

                         Git: Rev {} zzzzzzz 


    D. G. A. Smith, L. A. Burns, A. C. Simmonett, R. M. Parrish,
    M. C. Schieber, R. Galvelis, P. Kraus, H. Kruse, R. Di Remigio,
    A. Alenaizan, A. M. James, S. Lehtola, J. P. Misiewicz, M. Scheurer,
    R. A. Shaw, J. B. Schriber, Y. Xie, Z. L. Glick, D. A. Sirianni,
    J. S. O'Brien, J. M. Waldrop, A. Kumar, E. G. Hohenstein,
    B. P. Pritchard, B. R. Brooks, H. F. Schaefer III, A. Yu. Sokolov,
    K. Patkowski, A. E. DePrince III, U. Bozkaya, R. A. King,
    F. A. Evangelista, J. M. Turney, T. D. Crawford, C. D. Sherrill,
    J. Chem. Phys. 152(18) 184108 (2020). https://doi.org/10.1063/5.0006002

                            Additional Code Authors
    E. T. Seidl, C. L. Janssen, E. F. Valeev, M. L. Leininger,
    J. F. Gonthier, R. M. Richard, H. R. McAlexander, M. Saitow, X. Wang,
    P. Verma, M. H. Lechner, A. Jiang, S. Behnle, A. G. Heide,
    M. F. Herbst, D. L. Poole, T. Győri, E. C. Mitchell, J. P. Pederson,
    and A. M. Wallace

             Previous Authors, Complete List of Code Contributors,
                       and Citations for Specific Modules
    https://github.com/psi4/psi4/blob/master/codemeta.json
    https://github.com/psi4/psi4/graphs/contributors
    https://psicode.org/psi4manual/master/introduction.html#citing-psifour

    -----------------------------------------------------------------------


    Psi4 started on: Tuesday, 23 December 2025 01:38PM

    Process ID: 497466
    Host:       cics-quant-001
    PSIDATADIR: /home/jrodriguesro/psi4conda/share/psi4
    Memory:     500.0 MiB
    Threads:    6
    Addons:     adcc, a̶m̶b̶i̶t̶, b̶s̶e̶, c̶c̶t̶3̶, c̶f̶o̶u̶r̶, c̶h̶e̶m̶p̶s̶2̶, c̶p̶p̶e̶, ddx, dftd3, dftd4,
                dkh, ecpint, einsums, f̶o̶r̶t̶e̶, g̶a̶u̶x̶c̶, gcp, g̶d̶m̶a̶, geometric,
                g̶p̶u̶_̶d̶f̶c̶c̶, i̶n̶t̶e̶g̶r̶a̶t̶o̶r̶x̶x̶, i̶p̶i̶, libefp, m̶d̶i̶, m̶p̶2̶d̶,
                m̶r̶c̶c̶, ooo, o̶p̶e̶n̶f̶e̶r̶m̶i̶o̶n̶p̶s̶i̶4̶, pcmsolver, p̶s̶i̶4̶f̶o̶c̶k̶c̶i̶,
                p̶s̶i̶x̶a̶s̶, r̶e̶s̶p̶, s̶i̶m̶i̶n̶t̶, s̶n̶s̶m̶p̶2̶, v̶2̶r̶d̶m̶_̶c̶a̶s̶s̶c̶f̶

  ==> Input File <==

--------------------------------------------------------------------------
memory 8 Gb

molecule { 
-1 2
C           0.000000           0.000000           0.000000
C           0.000000           0.000000           2.338657
}

set { 
basis              cc-pvtz
reference          uks
maxiter            500
DAMPING_PERCENTAGE 1
E_CONVERGENCE      1.0E-8
D_CONVERGENCE      1.0E-8
DIIS_MAX_VECS      400
MBIS_MAXITER       8000
guess              read
}

E, wfn = energy('b3lyp', restart_file='last_wfn', return_wfn=True)
properties('b3lyp','MBIS_CHARGES', wfn=wfn)
wfn.to_file('last_wfn')
--------------------------------------------------------------------------

  Memory set to   7.451 GiB by Python driver.

Scratch directory: /tmp/
 Found user provided orbital data. Setting orbital guess to READ 
 Copying restart file <last_wfn.npy> to </tmp/scan_CC_46.default.497466.180.npy> for internal processing
   => Libint2 <=

    Primary   basis highest AM E, G, H:  6, 6, 3
    Auxiliary basis highest AM E, G, H:  7, 7, 4
    Onebody   basis highest AM E, G, H:  -, -, -
    Solid Harmonics ordering:            Gaussian

*** tstart() called on cics-quant-001
*** at Tue Dec 23 13:38:03 2025

   => Loading Basis Set <=

    Name: CC-PVTZ
    Role: ORBITAL
    Keyword: BASIS
    atoms 1-2 entry C          line   186 file /home/jrodriguesro/psi4conda/share/psi4/basis/cc-pvtz.gbs 


         ---------------------------------------------------------
                                   SCF
               by Justin Turney, Rob Parrish, Andy Simmonett
                          and Daniel G. A. Smith
                              UKS Reference
                        6 Threads,   7629 MiB Core
         ---------------------------------------------------------

  ==> Geometry <==

    Molecular point group: d2h
    Full point group: D_inf_h

    Geometry (in Angstrom), charge = -1, multiplicity = 2:

       Center              X                  Y                   Z               Mass       
    ------------   -----------------  -----------------  -----------------  -----------------
         C            0.000000000000     0.000000000000    -1.169328500000    12.000000000000
         C            0.000000000000     0.000000000000     1.169328500000    12.000000000000

  Running in d2h symmetry.

  Rotational constants: A = ************  B =      0.51370  C =      0.51370 [cm^-1]
  Rotational constants: A = ************  B =  15400.43145  C =  15400.43145 [MHz]
  Nuclear repulsion =    8.145863024855720

  Charge       = -1
  Multiplicity = 2
  Electrons    = 13
  Nalpha       = 7
  Nbeta        = 6

  ==> Algorithm <==

  SCF Algorithm Type is DF.
  DIIS enabled.
  MOM disabled.
  Fractional occupation disabled.
  Guess Type is READ.
  Energy threshold   = 1.00e-08
  Density threshold  = 1.00e-08
  Integral threshold = 1.00e-12

  ==> Primary Basis <==

  Basis Set: CC-PVTZ
    Blend: CC-PVTZ
    Number of shells: 20
    Number of basis functions: 60
    Number of Cartesian functions: 70
    Spherical Harmonics?: true
    Max angular momentum: 3

  ==> DFT Potential <==

   => LibXC <=

    Version 7.0.0
    S. Lehtola, C. Steigemann, M. J.T. Oliveira, and M. A.L. Marques.,  SoftwareX 7, 1–5 (2018) (10.1016/j.softx.2017.11.002)

   => Composite Functional: B3LYP <= 

    B3LYP Hyb-GGA Exchange-Correlation Functional

    P. J. Stephens, F. J. Devlin, C. F. Chabalowski, and M. J. Frisch.,  J. Phys. Chem. 98, 11623 (1994) (10.1021/j100096a001)

    Deriv               =              1
    GGA                 =           TRUE
    Meta                =          FALSE

    Exchange Hybrid     =           TRUE
    MP2 Hybrid          =          FALSE

   => Exchange Functionals <=

    0.0800   Slater exchange
    0.7200         Becke 88

   => Exact (HF) Exchange <=

    0.2000               HF 

   => Correlation Functionals <=

    0.1900   Vosko, Wilk & Nusair (VWN5_RPA)
    0.8100   Lee, Yang & Parr

   => LibXC Density Thresholds  <==

    XC_HYB_GGA_XC_B3LYP:  1.00E-15 

   => Molecular Quadrature <=

    Radial Scheme          =       TREUTLER
    Pruning Scheme         =           NONE
    Nuclear Scheme         =       TREUTLER

    Blocking Scheme        =         OCTREE
    BS radius alpha        =              1
    Pruning alpha          =              1
    Radial Points          =             75
    Spherical Points       =            302
    Total Points           =          43120
    Total Blocks           =            388
    Max Points             =            255
    Max Functions          =             60
    Weights Tolerance      =       1.00E-15

   => Loading Basis Set <=

    Name: (CC-PVTZ AUX)
    Role: JKFIT
    Keyword: DF_BASIS_SCF
    atoms 1-2 entry C          line   125 file /home/jrodriguesro/psi4conda/share/psi4/basis/cc-pvtz-jkfit.gbs 

   => Loading Basis Set <=

    Name: CC-PVTZ
    Role: ORBITAL
    Keyword: BASIS
    atoms 1-2 entry C          line   186 file /home/jrodriguesro/psi4conda/share/psi4/basis/cc-pvtz.gbs 

  Reading orbitals from file /tmp/scan_CC_46.default.497466.180.npy, no projection.

  ==> Integral Setup <==

  DFHelper Memory: AOs need 0.005 GiB; user supplied 5.516 GiB. 
  SCF_SUBTYPE=INCORE selected. In-core MEM_DF algorithm will be used.
  Using in-core AOs.

  ==> MemDFJK: Density-Fitted J/K Matrices <==

    J tasked:                   Yes
    K tasked:                   Yes
    wK tasked:                   No
    OpenMP threads:               6
    Memory [MiB]:              5648
    Algorithm:                 Core
    Schwarz Cutoff:           1E-12
    Mask sparsity (%):       0.0000
    Fitting Condition:        1E-10

   => Auxiliary Basis Set <=

  Basis Set: (CC-PVTZ AUX)
    Blend: CC-PVTZ-JKFIT
    Number of shells: 50
    Number of basis functions: 158
    Number of Cartesian functions: 192
    Spherical Harmonics?: true
    Max angular momentum: 4

  Cached 100.0% of DFT collocation blocks in 0.071 [GiB].

  Minimum eigenvalue in the overlap matrix is 1.9677296821E-02.
  Reciprocal condition number of the overlap matrix is 6.9751894150E-03.
    Using symmetric orthogonalization.

  ==> Pre-Iterations <==

  SCF Guess: Orbitals guess was supplied from a previous computation.

   -------------------------------------------------------
    Irrep   Nso     Nmo     Nalpha   Nbeta   Ndocc  Nsocc
   -------------------------------------------------------
     Ag        13      13       3       3       3       0
     B1g        3       3       0       0       0       0
     B2g        7       7       0       0       0       0
     B3g        7       7       0       0       0       0
     Au         3       3       0       0       0       0
     B1u       13      13       2       2       2       0
     B2u        7       7       1       1       1       0
     B3u        7       7       1       0       0       1
   -------------------------------------------------------
    Total      60      60       7       6       6       1
   -------------------------------------------------------

  ==> Iterations <==

                           Total Energy        Delta E     RMS |[F,P]|

   @DF-UKS iter   0:   -75.78753000435793   -7.57875e+01   9.32009e-04 
   @DF-UKS iter   1:   -75.78963519480135   -2.10519e-03   5.28660e-04 ADIIS/DIIS
   @DF-UKS iter   2:   -75.78968873284049   -5.35380e-05   4.06106e-04 ADIIS/DIIS/DAMP=1%
   @DF-UKS iter   3:   -75.78949808664925    1.90646e-04   2.45290e-05 DIIS/DAMP=1%
   @DF-UKS iter   4:   -75.78976277382594   -2.64687e-04   5.34669e-06 DIIS/DAMP=1%
   @DF-UKS iter   5:   -75.78974883804305    1.39358e-05   2.40623e-07 DIIS/DAMP=1%
   @DF-UKS iter   6:   -75.78975240280056   -3.56476e-06   8.08619e-08 DIIS/DAMP=1%
   @DF-UKS iter   7:   -75.78975240716159   -4.36103e-09   1.57199e-08 DIIS/DAMP=1%
   @DF-UKS iter   8:   -75.78975240213077    5.03081e-09   7.90773e-10 DIIS/DAMP=1%
  Energy and wave function converged.


  ==> Post-Iterations <==

   Electrons on quadrature grid:
      Nalpha   =    6.9999998098 ; deviation = -1.902e-07
      Nbeta    =    5.9999999853 ; deviation = -1.470e-08
      Ntotal   =   12.9999997951 ; deviation = -2.049e-07 

   @Spin Contamination Metric:   1.688540070E-03
   @S^2 Expected:                7.500000000E-01
   @S^2 Observed:                7.516885401E-01
   @S   Expected:                5.000000000E-01
   @S   Observed:                5.000000000E-01

    Orbital Energies [Eh]
    ---------------------

    Alpha Occupied:                                                       

       1Ag   -10.034880     1B1u  -10.034836     2Ag    -0.321392  
       2B1u   -0.252268     1B3u    0.013836     3Ag     0.014168  
       1B2u    0.037295  

    Alpha Virtual:                                                        

       1B2g    0.101685     1B3g    0.126075     3B1u    0.198226  
       4B1u    0.497715     2B3u    0.513864     2B2u    0.529851  
       4Ag     0.547176     2B2g    0.558909     2B3g    0.572831  
       5Ag     0.616362     5B1u    0.799671     3B3u    0.824235  
       3B2u    0.840005     6Ag     0.879340     1B1g    0.879468  
       1Au     0.957501     6B1u    0.957945     7Ag     1.001380  
       3B2g    1.139980     3B3g    1.157226     7B1u    1.441795  
       8Ag     2.137967     4B3u    2.161479     4B2u    2.181552  
       4B2g    2.209425     4B3g    2.230194     8B1u    2.364572  
       5B3u    2.804762     5B2u    2.823714     9Ag     2.824069  
       2B1g    2.892365    10Ag     2.894544     6B3u    2.916642  
       6B2u    2.916769     5B2g    2.922489     5B3g    2.922574  
       9B1u    2.963603     2Au     2.963913     6B2g    3.033643  
       6B3g    3.052913    10B1u    3.123998    11Ag     3.160586  
       3B1g    3.161016     7B3u    3.178089     7B2u    3.198399  
       3Au     3.215177    11B1u    3.215534    12Ag     3.367922  
       7B2g    3.438928     7B3g    3.458520    12B1u    3.845301  
      13Ag     4.090397    13B1u    4.511130  

    Beta Occupied:                                                        

       1Ag   -10.028641     1B1u  -10.028611     2Ag    -0.294032  
       2B1u   -0.226076     3Ag     0.021190     1B2u    0.043985  

    Beta Virtual:                                                         

       1B3u    0.115973     1B3g    0.133104     1B2g    0.166518  
       3B1u    0.208073     4B1u    0.501441     2B2u    0.533687  
       2B3u    0.546897     4Ag     0.553014     2B3g    0.575983  
       2B2g    0.586394     5Ag     0.629044     5B1u    0.813084  
       3B2u    0.841251     3B3u    0.846992     1B1g    0.900523  
       6Ag     0.902081     1Au     0.977834     6B1u    0.979544  
       7Ag     1.011469     3B3g    1.159116     3B2g    1.162978  
       7B1u    1.449359     8Ag     2.141804     4B2u    2.186520  
       4B3u    2.199109     4B3g    2.235581     4B2g    2.248111  
       8B1u    2.373713     5B2u    2.825451     5B3u    2.829779  
       9Ag     2.838445     2B1g    2.909601    10Ag     2.910889  
       6B2u    2.944005     6B3u    2.944523     5B3g    2.950265  
       5B2g    2.950702     2Au     2.982064     9B1u    2.983400  
       6B3g    3.054425     6B2g    3.060652    10B1u    3.134763  
       3B1g    3.193495    11Ag     3.196588     7B2u    3.200332  
       7B3u    3.210799     3Au     3.246510    11B1u    3.249876  
      12Ag     3.377060     7B3g    3.459953     7B2g    3.467774  
      12B1u    3.851722    13Ag     4.107691    13B1u    4.527116  

    Final Occupation by Irrep:
             Ag   B1g   B2g   B3g    Au   B1u   B2u   B3u 
    DOCC [     3,    0,    0,    0,    0,    2,    1,    0 ]
    SOCC [     0,    0,    0,    0,    0,    0,    0,    1 ]
    NA   [     3,    0,    0,    0,    0,    2,    1,    1 ]
    NB   [     3,    0,    0,    0,    0,    2,    1,    0 ]

  @DF-UKS Final Energy:   -75.78975240213077

   => Energetics <=

    Nuclear Repulsion Energy =              8.1458630248557196
    One-Electron Energy =                -120.6116163068834624
    Two-Electron Energy =                  45.2171549903135741
    DFT Exchange-Correlation Energy =      -8.5411541104165938
    Empirical Dispersion Energy =           0.0000000000000000
    VV10 Nonlocal Energy =                  0.0000000000000000
    Total Energy =                        -75.7897524021307731

  UHF NO Occupations:
  HONO-2 :    3 Ag 1.9997033
  HONO-1 :    2B1u 1.9995243
  HONO-0 :    1B3u 1.0000000
  LUNO+0 :    3B1u 0.0004757
  LUNO+1 :    4 Ag 0.0002967
  LUNO+2 :    2B2u 0.0000430
  LUNO+3 :    5 Ag 0.0000286


Computation Completed


Properties will be evaluated at   0.000000,   0.000000,   0.000000 [a0]

Properties computed using the SCF density matrix


 Multipole Moments:

 ------------------------------------------------------------------------------------
     Multipole            Electronic (a.u.)      Nuclear  (a.u.)        Total (a.u.)
 ------------------------------------------------------------------------------------

 L = 1.  Multiply by 2.5417464519 to convert [e a0] to [Debye]
 Dipole X            :          0.0000000            0.0000000            0.0000000
 Dipole Y            :          0.0000000            0.0000000            0.0000000
 Dipole Z            :          0.0000000            0.0000000            0.0000000
 Magnitude           :                                                    0.0000000

 ------------------------------------------------------------------------------------

*** tstop() called on cics-quant-001 at Tue Dec 23 13:38:03 2025
Module time:
	user time   =       1.02 seconds =       0.02 minutes
	system time =       0.06 seconds =       0.00 minutes
	total time  =          0 seconds =       0.00 minutes
Total time:
	user time   =       1.02 seconds =       0.02 minutes
	system time =       0.06 seconds =       0.00 minutes
	total time  =          0 seconds =       0.00 minutes

*** tstart() called on cics-quant-001
*** at Tue Dec 23 13:38:03 2025

   => Libint2 <=

    Primary   basis highest AM E, G, H:  6, 6, 3
    Auxiliary basis highest AM E, G, H:  7, 7, 4
    Onebody   basis highest AM E, G, H:  -, -, -
    Solid Harmonics ordering:            Gaussian
   => Loading Basis Set <=

    Name: CC-PVTZ
    Role: ORBITAL
    Keyword: BASIS
    atoms 1-2 entry C          line   186 file /home/jrodriguesro/psi4conda/share/psi4/basis/cc-pvtz.gbs 


         ---------------------------------------------------------
                                   SCF
               by Justin Turney, Rob Parrish, Andy Simmonett
                          and Daniel G. A. Smith
                              UKS Reference
                        6 Threads,   7629 MiB Core
         ---------------------------------------------------------

  ==> Geometry <==

    Molecular point group: d2h
    Full point group: D_inf_h

    Geometry (in Angstrom), charge = -1, multiplicity = 2:

       Center              X                  Y                   Z               Mass       
    ------------   -----------------  -----------------  -----------------  -----------------
         C            0.000000000000     0.000000000000    -1.169328500000    12.000000000000
         C            0.000000000000     0.000000000000     1.169328500000    12.000000000000

  Running in d2h symmetry.

  Rotational constants: A = ************  B =      0.51370  C =      0.51370 [cm^-1]
  Rotational constants: A = ************  B =  15400.43145  C =  15400.43145 [MHz]
  Nuclear repulsion =    8.145863024855720

  Charge       = -1
  Multiplicity = 2
  Electrons    = 13
  Nalpha       = 7
  Nbeta        = 6

  ==> Algorithm <==

  SCF Algorithm Type is DF.
  DIIS enabled.
  MOM disabled.
  Fractional occupation disabled.
  Guess Type is READ.
  Energy threshold   = 1.00e-08
  Density threshold  = 1.00e-08
  Integral threshold = 1.00e-12

  ==> Primary Basis <==

  Basis Set: CC-PVTZ
    Blend: CC-PVTZ
    Number of shells: 20
    Number of basis functions: 60
    Number of Cartesian functions: 70
    Spherical Harmonics?: true
    Max angular momentum: 3

  ==> DFT Potential <==

   => LibXC <=

    Version 7.0.0
    S. Lehtola, C. Steigemann, M. J.T. Oliveira, and M. A.L. Marques.,  SoftwareX 7, 1–5 (2018) (10.1016/j.softx.2017.11.002)

   => Composite Functional: B3LYP <= 

    B3LYP Hyb-GGA Exchange-Correlation Functional

    P. J. Stephens, F. J. Devlin, C. F. Chabalowski, and M. J. Frisch.,  J. Phys. Chem. 98, 11623 (1994) (10.1021/j100096a001)

    Deriv               =              1
    GGA                 =           TRUE
    Meta                =          FALSE

    Exchange Hybrid     =           TRUE
    MP2 Hybrid          =          FALSE

   => Exchange Functionals <=

    0.0800   Slater exchange
    0.7200         Becke 88

   => Exact (HF) Exchange <=

    0.2000               HF 

   => Correlation Functionals <=

    0.1900   Vosko, Wilk & Nusair (VWN5_RPA)
    0.8100   Lee, Yang & Parr

   => LibXC Density Thresholds  <==

    XC_HYB_GGA_XC_B3LYP:  1.00E-15 

   => Molecular Quadrature <=

    Radial Scheme          =       TREUTLER
    Pruning Scheme         =           NONE
    Nuclear Scheme         =       TREUTLER

    Blocking Scheme        =         OCTREE
    BS radius alpha        =              1
    Pruning alpha          =              1
    Radial Points          =             75
    Spherical Points       =            302
    Total Points           =          43120
    Total Blocks           =            388
    Max Points             =            255
    Max Functions          =             60
    Weights Tolerance      =       1.00E-15

   => Loading Basis Set <=

    Name: (CC-PVTZ AUX)
    Role: JKFIT
    Keyword: DF_BASIS_SCF
    atoms 1-2 entry C          line   125 file /home/jrodriguesro/psi4conda/share/psi4/basis/cc-pvtz-jkfit.gbs 

   => Loading Basis Set <=

    Name: CC-PVTZ
    Role: ORBITAL
    Keyword: BASIS
    atoms 1-2 entry C          line   186 file /home/jrodriguesro/psi4conda/share/psi4/basis/cc-pvtz.gbs 

  Reading orbitals from file /tmp/scan_CC_46.default.497466.180.npy, no projection.

  ==> Integral Setup <==

  DFHelper Memory: AOs need 0.005 GiB; user supplied 5.516 GiB. 
  SCF_SUBTYPE=INCORE selected. In-core MEM_DF algorithm will be used.
  Using in-core AOs.

  ==> MemDFJK: Density-Fitted J/K Matrices <==

    J tasked:                   Yes
    K tasked:                   Yes
    wK tasked:                   No
    OpenMP threads:               6
    Memory [MiB]:              5648
    Algorithm:                 Core
    Schwarz Cutoff:           1E-12
    Mask sparsity (%):       0.0000
    Fitting Condition:        1E-10

   => Auxiliary Basis Set <=

  Basis Set: (CC-PVTZ AUX)
    Blend: CC-PVTZ-JKFIT
    Number of shells: 50
    Number of basis functions: 158
    Number of Cartesian functions: 192
    Spherical Harmonics?: true
    Max angular momentum: 4

  Cached 100.0% of DFT collocation blocks in 0.071 [GiB].

  Minimum eigenvalue in the overlap matrix is 1.9677296821E-02.
  Reciprocal condition number of the overlap matrix is 6.9751894150E-03.
    Using symmetric orthogonalization.

  ==> Pre-Iterations <==

  SCF Guess: Orbitals guess was supplied from a previous computation.

   -------------------------------------------------------
    Irrep   Nso     Nmo     Nalpha   Nbeta   Ndocc  Nsocc
   -------------------------------------------------------
     Ag        13      13       3       3       3       0
     B1g        3       3       0       0       0       0
     B2g        7       7       0       0       0       0
     B3g        7       7       0       0       0       0
     Au         3       3       0       0       0       0
     B1u       13      13       2       2       2       0
     B2u        7       7       1       1       1       0
     B3u        7       7       1       0       0       1
   -------------------------------------------------------
    Total      60      60       7       6       6       1
   -------------------------------------------------------

  ==> Iterations <==

                           Total Energy        Delta E     RMS |[F,P]|

   @DF-UKS iter   0:   -75.78975240276793   -7.57898e+01   1.16312e-10 
   @DF-UKS iter   1:   -75.78975240276790    2.84217e-14   8.72265e-11 DIIS
  Energy and wave function converged.


  ==> Post-Iterations <==

   Electrons on quadrature grid:
      Nalpha   =    6.9999998098 ; deviation = -1.902e-07
      Nbeta    =    5.9999999853 ; deviation = -1.470e-08
      Ntotal   =   12.9999997951 ; deviation = -2.049e-07 

   @Spin Contamination Metric:   1.688540150E-03
   @S^2 Expected:                7.500000000E-01
   @S^2 Observed:                7.516885401E-01
   @S   Expected:                5.000000000E-01
   @S   Observed:                5.000000000E-01

    Orbital Energies [Eh]
    ---------------------

    Alpha Occupied:                                                       

       1Ag   -10.034880     1B1u  -10.034836     2Ag    -0.321392  
       2B1u   -0.252268     1B3u    0.013836     3Ag     0.014168  
       1B2u    0.037295  

    Alpha Virtual:                                                        

       1B2g    0.101685     1B3g    0.126075     3B1u    0.198226  
       4B1u    0.497715     2B3u    0.513864     2B2u    0.529851  
       4Ag     0.547176     2B2g    0.558909     2B3g    0.572831  
       5Ag     0.616362     5B1u    0.799671     3B3u    0.824235  
       3B2u    0.840005     6Ag     0.879340     1B1g    0.879468  
       1Au     0.957501     6B1u    0.957945     7Ag     1.001380  
       3B2g    1.139980     3B3g    1.157226     7B1u    1.441795  
       8Ag     2.137967     4B3u    2.161479     4B2u    2.181552  
       4B2g    2.209425     4B3g    2.230194     8B1u    2.364572  
       5B3u    2.804762     5B2u    2.823714     9Ag     2.824069  
       2B1g    2.892365    10Ag     2.894544     6B3u    2.916642  
       6B2u    2.916769     5B2g    2.922489     5B3g    2.922574  
       9B1u    2.963603     2Au     2.963913     6B2g    3.033643  
       6B3g    3.052913    10B1u    3.123998    11Ag     3.160586  
       3B1g    3.161016     7B3u    3.178089     7B2u    3.198399  
       3Au     3.215177    11B1u    3.215534    12Ag     3.367922  
       7B2g    3.438928     7B3g    3.458520    12B1u    3.845301  
      13Ag     4.090397    13B1u    4.511130  

    Beta Occupied:                                                        

       1Ag   -10.028641     1B1u  -10.028611     2Ag    -0.294032  
       2B1u   -0.226076     3Ag     0.021190     1B2u    0.043985  

    Beta Virtual:                                                         

       1B3u    0.115973     1B3g    0.133104     1B2g    0.166518  
       3B1u    0.208073     4B1u    0.501441     2B2u    0.533687  
       2B3u    0.546897     4Ag     0.553014     2B3g    0.575983  
       2B2g    0.586394     5Ag     0.629044     5B1u    0.813084  
       3B2u    0.841251     3B3u    0.846992     1B1g    0.900523  
       6Ag     0.902081     1Au     0.977834     6B1u    0.979544  
       7Ag     1.011469     3B3g    1.159116     3B2g    1.162978  
       7B1u    1.449359     8Ag     2.141804     4B2u    2.186520  
       4B3u    2.199109     4B3g    2.235581     4B2g    2.248111  
       8B1u    2.373713     5B2u    2.825451     5B3u    2.829779  
       9Ag     2.838445     2B1g    2.909601    10Ag     2.910889  
       6B2u    2.944005     6B3u    2.944523     5B3g    2.950265  
       5B2g    2.950702     2Au     2.982064     9B1u    2.983400  
       6B3g    3.054425     6B2g    3.060652    10B1u    3.134763  
       3B1g    3.193495    11Ag     3.196588     7B2u    3.200332  
       7B3u    3.210799     3Au     3.246510    11B1u    3.249876  
      12Ag     3.377060     7B3g    3.459953     7B2g    3.467774  
      12B1u    3.851722    13Ag     4.107691    13B1u    4.527116  

    Final Occupation by Irrep:
             Ag   B1g   B2g   B3g    Au   B1u   B2u   B3u 
    DOCC [     3,    0,    0,    0,    0,    2,    1,    0 ]
    SOCC [     0,    0,    0,    0,    0,    0,    0,    1 ]
    NA   [     3,    0,    0,    0,    0,    2,    1,    1 ]
    NB   [     3,    0,    0,    0,    0,    2,    1,    0 ]

  @DF-UKS Final Energy:   -75.78975240276790

   => Energetics <=

    Nuclear Repulsion Energy =              8.1458630248557196
    One-Electron Energy =                -120.6116162850172771
    Two-Electron Energy =                  45.2171549662009369
    DFT Exchange-Correlation Energy =      -8.5411541088072731
    Empirical Dispersion Energy =           0.0000000000000000
    VV10 Nonlocal Energy =                  0.0000000000000000
    Total Energy =                        -75.7897524027679026

  UHF NO Occupations:
  HONO-2 :    3 Ag 1.9997033
  HONO-1 :    2B1u 1.9995243
  HONO-0 :    1B3u 1.0000000
  LUNO+0 :    3B1u 0.0004757
  LUNO+1 :    4 Ag 0.0002967
  LUNO+2 :    2B2u 0.0000430
  LUNO+3 :    5 Ag 0.0000286


Computation Completed


Properties will be evaluated at   0.000000,   0.000000,   0.000000 [a0]

Properties computed using the B3LYP density matrix


 Multipole Moments:

 ------------------------------------------------------------------------------------
     Multipole            Electronic (a.u.)      Nuclear  (a.u.)        Total (a.u.)
 ------------------------------------------------------------------------------------

 L = 1.  Multiply by 2.5417464519 to convert [e a0] to [Debye]
 Dipole X            :          0.0000000            0.0000000            0.0000000
 Dipole Y            :          0.0000000            0.0000000            0.0000000
 Dipole Z            :          0.0000000            0.0000000            0.0000000
 Magnitude           :                                                    0.0000000

 L = 2.  Multiply by 1.3450342976 to convert [e a0^2] to [Debye ang]
 Quadrupole XX       :        -11.1558655            0.0000000          -11.1558655
 Quadrupole XY       :          0.0000000            0.0000000            0.0000000
 Quadrupole XZ       :          0.0000000            0.0000000            0.0000000
 Quadrupole YY       :        -13.2271150            0.0000000          -13.2271150
 Quadrupole YZ       :          0.0000000            0.0000000            0.0000000
 Quadrupole ZZ       :        -77.1452318           58.5938521          -18.5513798
 Traceless XX        :         22.6868720          -19.5312840            3.1555879
 Traceless YY        :         20.6156224          -19.5312840            1.0843384
 Traceless ZZ        :        -43.3024944           39.0625680           -4.2399263

 ------------------------------------------------------------------------------------
  ==> Computing MBIS Charges <==

  Electron Count from Grid (Expected Number): 13.00000 (13.00000)
  Difference: -0.00000

  MBIS Charges: (a.u.)
   Center  Symbol  Z      Pop.       Charge
      1       C    6    6.500000   -0.500000
      2       C    6    6.500000   -0.500000

  MBIS Dipoles: [e a0]
   Center  Symbol  Z        X           Y           Z
      1       C    6    0.000000   -0.000000    0.029126
      2       C    6    0.000000   -0.000000   -0.029126

  MBIS Quadrupoles: [e a0^2]
   Center  Symbol  Z      XX        XY        XZ        YY        YZ        ZZ
      1       C    6   -5.5779    0.0000    0.0000   -6.6136   -0.0000   -6.7056
      2       C    6   -5.5779    0.0000   -0.0000   -6.6136    0.0000   -6.7056

  MBIS Octupoles: [e a0^3]
   Center  Symbol  Z      XXX       XXY       XXZ       XYY       XYZ       XZZ       YYY       YYZ       YZZ       ZZZ
      1       C    6    0.0000   -0.0000   -0.2006    0.0000   -0.0000    0.0000   -0.0000   -0.4828   -0.0000   -0.5447
      2       C    6    0.0000   -0.0000    0.2006    0.0000    0.0000    0.0000   -0.0000    0.4828   -0.0000    0.5447

  MBIS Radial Moments:
   Center  Symbol  Z      [a0^2]      [a0^3]      [a0^4]      
      1       C    6   18.897047   52.143999   169.739295
      2       C    6   18.897047   52.143999   169.739295

  MBIS Valence Widths: [a0]
   Center  Symbol  Z     Width
      1       C    6    0.578662
      2       C    6    0.578662


  MBIS Valence Charges: (a.u.)
   Center  Symbol  Z     Charge
      1       C    6   -4.771079
      2       C    6   -4.771079

*** tstop() called on cics-quant-001 at Tue Dec 23 13:38:03 2025
Module time:
	user time   =       0.49 seconds =       0.01 minutes
	system time =       0.06 seconds =       0.00 minutes
	total time  =          0 seconds =       0.00 minutes
Total time:
	user time   =       1.53 seconds =       0.03 minutes
	system time =       0.12 seconds =       0.00 minutes
	total time  =          0 seconds =       0.00 minutes

    Psi4 stopped on: Tuesday, 23 December 2025 01:38PM
    Psi4 wall time for execution: 0:00:00.69

*** Psi4 exiting successfully. Buy a developer a beer!
