
    -----------------------------------------------------------------------
          Psi4: An Open-Source Ab Initio Electronic Structure Package
                               Psi4 1.10 release

                         Git: Rev {} zzzzzzz 


    D. G. A. Smith, L. A. Burns, A. C. Simmonett, R. M. Parrish,
    M. C. Schieber, R. Galvelis, P. Kraus, H. Kruse, R. Di Remigio,
    A. Alenaizan, A. M. James, S. Lehtola, J. P. Misiewicz, M. Scheurer,
    R. A. Shaw, J. B. Schriber, Y. Xie, Z. L. Glick, D. A. Sirianni,
    J. S. O'Brien, J. M. Waldrop, A. Kumar, E. G. Hohenstein,
    B. P. Pritchard, B. R. Brooks, H. F. Schaefer III, A. Yu. Sokolov,
    K. Patkowski, A. E. DePrince III, U. Bozkaya, R. A. King,
    F. A. Evangelista, J. M. Turney, T. D. Crawford, C. D. Sherrill,
    J. Chem. Phys. 152(18) 184108 (2020). https://doi.org/10.1063/5.0006002

                            Additional Code Authors
    E. T. Seidl, C. L. Janssen, E. F. Valeev, M. L. Leininger,
    J. F. Gonthier, R. M. Richard, H. R. McAlexander, M. Saitow, X. Wang,
    P. Verma, M. H. Lechner, A. Jiang, S. Behnle, A. G. Heide,
    M. F. Herbst, D. L. Poole, T. Győri, E. C. Mitchell, J. P. Pederson,
    and A. M. Wallace

             Previous Authors, Complete List of Code Contributors,
                       and Citations for Specific Modules
    https://github.com/psi4/psi4/blob/master/codemeta.json
    https://github.com/psi4/psi4/graphs/contributors
    https://psicode.org/psi4manual/master/introduction.html#citing-psifour

    -----------------------------------------------------------------------


    Psi4 started on: Tuesday, 23 December 2025 01:43PM

    Process ID: 533324
    Host:       cics-quant-001
    PSIDATADIR: /home/jrodriguesro/psi4conda/share/psi4
    Memory:     500.0 MiB
    Threads:    6
    Addons:     adcc, a̶m̶b̶i̶t̶, b̶s̶e̶, c̶c̶t̶3̶, c̶f̶o̶u̶r̶, c̶h̶e̶m̶p̶s̶2̶, c̶p̶p̶e̶, ddx, dftd3, dftd4,
                dkh, ecpint, einsums, f̶o̶r̶t̶e̶, g̶a̶u̶x̶c̶, gcp, g̶d̶m̶a̶, geometric,
                g̶p̶u̶_̶d̶f̶c̶c̶, i̶n̶t̶e̶g̶r̶a̶t̶o̶r̶x̶x̶, i̶p̶i̶, libefp, m̶d̶i̶, m̶p̶2̶d̶,
                m̶r̶c̶c̶, ooo, o̶p̶e̶n̶f̶e̶r̶m̶i̶o̶n̶p̶s̶i̶4̶, pcmsolver, p̶s̶i̶4̶f̶o̶c̶k̶c̶i̶,
                p̶s̶i̶x̶a̶s̶, r̶e̶s̶p̶, s̶i̶m̶i̶n̶t̶, s̶n̶s̶m̶p̶2̶, v̶2̶r̶d̶m̶_̶c̶a̶s̶s̶c̶f̶

  ==> Input File <==

--------------------------------------------------------------------------
memory 8 Gb

molecule { 
-1 2
O           0.000000           0.000000           0.000000
C           0.000000           0.000000           1.554381
}

set { 
basis              cc-pvtz
reference          uks
maxiter            500
DAMPING_PERCENTAGE 1
E_CONVERGENCE      1.0E-8
D_CONVERGENCE      1.0E-8
DIIS_MAX_VECS      400
MBIS_MAXITER       8000
guess              read
}

E, wfn = energy('b3lyp', restart_file='last_wfn', return_wfn=True)
properties('b3lyp','MBIS_CHARGES', wfn=wfn)
wfn.to_file('last_wfn')
--------------------------------------------------------------------------

  Memory set to   7.451 GiB by Python driver.

Scratch directory: /tmp/
 Found user provided orbital data. Setting orbital guess to READ 
 Copying restart file <last_wfn.npy> to </tmp/scan_CO_29.default.533324.180.npy> for internal processing
   => Libint2 <=

    Primary   basis highest AM E, G, H:  6, 6, 3
    Auxiliary basis highest AM E, G, H:  7, 7, 4
    Onebody   basis highest AM E, G, H:  -, -, -
    Solid Harmonics ordering:            Gaussian

*** tstart() called on cics-quant-001
*** at Tue Dec 23 13:43:37 2025

   => Loading Basis Set <=

    Name: CC-PVTZ
    Role: ORBITAL
    Keyword: BASIS
    atoms 1 entry O          line   262 file /home/jrodriguesro/psi4conda/share/psi4/basis/cc-pvtz.gbs 
    atoms 2 entry C          line   186 file /home/jrodriguesro/psi4conda/share/psi4/basis/cc-pvtz.gbs 


         ---------------------------------------------------------
                                   SCF
               by Justin Turney, Rob Parrish, Andy Simmonett
                          and Daniel G. A. Smith
                              UKS Reference
                        6 Threads,   7629 MiB Core
         ---------------------------------------------------------

  ==> Geometry <==

    Molecular point group: c2v
    Full point group: C_inf_v

    Geometry (in Angstrom), charge = -1, multiplicity = 2:

       Center              X                  Y                   Z               Mass       
    ------------   -----------------  -----------------  -----------------  -----------------
         O            0.000000000000     0.000000000000    -0.666284296754    15.994914619570
         C            0.000000000000     0.000000000000     0.888096703246    12.000000000000

  Running in c2v symmetry.

  Rotational constants: A = ************  B =      1.01765  C =      1.01765 [cm^-1]
  Rotational constants: A = ************  B =  30508.31461  C =  30508.31461 [MHz]
  Nuclear repulsion =   16.341235586487485

  Charge       = -1
  Multiplicity = 2
  Electrons    = 15
  Nalpha       = 8
  Nbeta        = 7

  ==> Algorithm <==

  SCF Algorithm Type is DF.
  DIIS enabled.
  MOM disabled.
  Fractional occupation disabled.
  Guess Type is READ.
  Energy threshold   = 1.00e-08
  Density threshold  = 1.00e-08
  Integral threshold = 1.00e-12

  ==> Primary Basis <==

  Basis Set: CC-PVTZ
    Blend: CC-PVTZ
    Number of shells: 20
    Number of basis functions: 60
    Number of Cartesian functions: 70
    Spherical Harmonics?: true
    Max angular momentum: 3

  ==> DFT Potential <==

   => LibXC <=

    Version 7.0.0
    S. Lehtola, C. Steigemann, M. J.T. Oliveira, and M. A.L. Marques.,  SoftwareX 7, 1–5 (2018) (10.1016/j.softx.2017.11.002)

   => Composite Functional: B3LYP <= 

    B3LYP Hyb-GGA Exchange-Correlation Functional

    P. J. Stephens, F. J. Devlin, C. F. Chabalowski, and M. J. Frisch.,  J. Phys. Chem. 98, 11623 (1994) (10.1021/j100096a001)

    Deriv               =              1
    GGA                 =           TRUE
    Meta                =          FALSE

    Exchange Hybrid     =           TRUE
    MP2 Hybrid          =          FALSE

   => Exchange Functionals <=

    0.0800   Slater exchange
    0.7200         Becke 88

   => Exact (HF) Exchange <=

    0.2000               HF 

   => Correlation Functionals <=

    0.1900   Vosko, Wilk & Nusair (VWN5_RPA)
    0.8100   Lee, Yang & Parr

   => LibXC Density Thresholds  <==

    XC_HYB_GGA_XC_B3LYP:  1.00E-15 

   => Molecular Quadrature <=

    Radial Scheme          =       TREUTLER
    Pruning Scheme         =           NONE
    Nuclear Scheme         =       TREUTLER

    Blocking Scheme        =         OCTREE
    BS radius alpha        =              1
    Pruning alpha          =              1
    Radial Points          =             75
    Spherical Points       =            302
    Total Points           =          43331
    Total Blocks           =            390
    Max Points             =            254
    Max Functions          =             60
    Weights Tolerance      =       1.00E-15

   => Loading Basis Set <=

    Name: (CC-PVTZ AUX)
    Role: JKFIT
    Keyword: DF_BASIS_SCF
    atoms 1 entry O          line   229 file /home/jrodriguesro/psi4conda/share/psi4/basis/cc-pvtz-jkfit.gbs 
    atoms 2 entry C          line   125 file /home/jrodriguesro/psi4conda/share/psi4/basis/cc-pvtz-jkfit.gbs 

   => Loading Basis Set <=

    Name: CC-PVTZ
    Role: ORBITAL
    Keyword: BASIS
    atoms 1 entry O          line   262 file /home/jrodriguesro/psi4conda/share/psi4/basis/cc-pvtz.gbs 
    atoms 2 entry C          line   186 file /home/jrodriguesro/psi4conda/share/psi4/basis/cc-pvtz.gbs 

  Reading orbitals from file /tmp/scan_CO_29.default.533324.180.npy, no projection.

  ==> Integral Setup <==

  DFHelper Memory: AOs need 0.005 GiB; user supplied 5.517 GiB. 
  SCF_SUBTYPE=INCORE selected. In-core MEM_DF algorithm will be used.
  Using in-core AOs.

  ==> MemDFJK: Density-Fitted J/K Matrices <==

    J tasked:                   Yes
    K tasked:                   Yes
    wK tasked:                   No
    OpenMP threads:               6
    Memory [MiB]:              5649
    Algorithm:                 Core
    Schwarz Cutoff:           1E-12
    Mask sparsity (%):       0.0000
    Fitting Condition:        1E-10

   => Auxiliary Basis Set <=

  Basis Set: (CC-PVTZ AUX)
    Blend: CC-PVTZ-JKFIT
    Number of shells: 50
    Number of basis functions: 158
    Number of Cartesian functions: 192
    Spherical Harmonics?: true
    Max angular momentum: 4

  Cached 100.0% of DFT collocation blocks in 0.071 [GiB].

  Minimum eigenvalue in the overlap matrix is 9.0537746968E-03.
  Reciprocal condition number of the overlap matrix is 2.5242889374E-03.
    Using symmetric orthogonalization.

  ==> Pre-Iterations <==

  SCF Guess: Orbitals guess was supplied from a previous computation.

   -------------------------------------------------------
    Irrep   Nso     Nmo     Nalpha   Nbeta   Ndocc  Nsocc
   -------------------------------------------------------
     A1        26      26       5       5       5       0
     A2         6       6       0       0       0       0
     B1        14      14       2       1       1       1
     B2        14      14       1       1       1       0
   -------------------------------------------------------
    Total      60      60       8       7       7       1
   -------------------------------------------------------

  ==> Iterations <==

                           Total Energy        Delta E     RMS |[F,P]|

   @DF-UKS iter   0:  -113.19594927267359   -1.13196e+02   2.31257e-03 
   @DF-UKS iter   1:  -113.21149130212098   -1.55420e-02   1.57214e-03 ADIIS/DIIS
   @DF-UKS iter   2:  -113.19697823390038    1.45131e-02   5.95010e-03 ADIIS/DIIS/DAMP=1%
   @DF-UKS iter   3:  -113.20943382548107   -1.24556e-02   3.07292e-04 ADIIS/DIIS/DAMP=1%
   @DF-UKS iter   4:  -113.21243573332491   -3.00191e-03   1.32544e-04 ADIIS/DIIS/DAMP=1%
   @DF-UKS iter   5:  -113.21268178225472   -2.46049e-04   1.56468e-05 DIIS/DAMP=1%
   @DF-UKS iter   6:  -113.21270381735127   -2.20351e-05   7.70296e-06 DIIS/DAMP=1%
   @DF-UKS iter   7:  -113.21272414244243   -2.03251e-05   3.33664e-06 DIIS/DAMP=1%
   @DF-UKS iter   8:  -113.21272144500661    2.69744e-06   2.24777e-06 DIIS/DAMP=1%
   @DF-UKS iter   9:  -113.21271965010037    1.79491e-06   2.99681e-07 DIIS/DAMP=1%
   @DF-UKS iter  10:  -113.21272085426038   -1.20416e-06   1.42091e-07 DIIS/DAMP=1%
   @DF-UKS iter  11:  -113.21272097830600   -1.24046e-07   1.06376e-08 DIIS/DAMP=1%
   @DF-UKS iter  12:  -113.21272089362358    8.46824e-08   4.06053e-09 DIIS/DAMP=1%
   @DF-UKS iter  13:  -113.21272088759871    6.02488e-09   6.38515e-10 DIIS/DAMP=1%
  Energy and wave function converged.


  ==> Post-Iterations <==

   Electrons on quadrature grid:
      Nalpha   =    7.9999995239 ; deviation = -4.761e-07
      Nbeta    =    6.9999995766 ; deviation = -4.234e-07
      Ntotal   =   14.9999991006 ; deviation = -8.994e-07 

   @Spin Contamination Metric:   5.952419655E-03
   @S^2 Expected:                7.500000000E-01
   @S^2 Observed:                7.559524197E-01
   @S   Expected:                5.000000000E-01
   @S   Observed:                5.000000000E-01

    Orbital Energies [Eh]
    ---------------------

    Alpha Occupied:                                                       

       1A1   -18.853760     2A1    -9.986658     3A1    -0.636337  
       4A1    -0.256007     1B1    -0.058911     5A1    -0.050750  
       1B2    -0.037187     2B1     0.094116  

    Alpha Virtual:                                                        

       2B2     0.184713     6A1     0.356832     3B1     0.545023  
       3B2     0.560191     7A1     0.573112     8A1     0.595410  
       9A1     0.822091     4B1     0.895505     4B2     0.898800  
       1A2     0.931195    10A1     0.933959     5B1     1.046986  
       5B2     1.047690    11A1     1.294777    12A1     1.504531  
       2A2     1.785697    13A1     1.786223     6B1     1.964857  
       6B2     1.967461    14A1     2.187862     7B1     2.280455  
       7B2     2.294728    15A1     2.583816     8B1     2.947233  
       8B2     2.948125     3A2     2.988606    16A1     2.991128  
       9B1     3.143512     9B2     3.149805    17A1     3.184812  
       4A2     3.216226    18A1     3.222824    10B1     3.415533  
      10B2     3.422897    19A1     3.510404    11B1     4.023229  
      20A1     4.025957    11B2     4.027270    21A1     5.163383  
      12B1     5.433837    12B2     5.433873     5A2     5.492168  
      22A1     5.492591    13B2     5.757077    13B1     5.760116  
      23A1     6.177889     6A2     6.519673    24A1     6.520717  
      14B1     6.845747    14B2     6.847809    25A1     7.457681  
      26A1     8.613198  

    Beta Occupied:                                                        

       1A1   -18.848514     2A1    -9.974087     3A1    -0.623573  
       4A1    -0.220555     5A1    -0.036690     1B2    -0.035033  
       1B1    -0.012129  

    Beta Virtual:                                                         

       2B2     0.197393     2B1     0.231653     6A1     0.367393  
       3B2     0.569443     7A1     0.582611     3B1     0.594851  
       8A1     0.612511     9A1     0.826997     4B2     0.898576  
       4B1     0.913003     1A2     0.964847    10A1     0.965089  
       5B2     1.050085     5B1     1.071776    11A1     1.305689  
      12A1     1.508956     2A2     1.794877    13A1     1.794987  
       6B2     1.968683     6B1     1.988141    14A1     2.196991  
       7B2     2.305975     7B1     2.340198    15A1     2.598518  
       8B2     2.993977     8B1     2.994125    16A1     3.017055  
       3A2     3.017645     9B2     3.155571     9B1     3.184262  
      17A1     3.199139    18A1     3.278580     4A2     3.278768  
      10B2     3.426917    10B1     3.457597    19A1     3.529823  
      11B2     4.028034    20A1     4.038393    11B1     4.049405  
      21A1     5.172363    12B2     5.445635    12B1     5.445641  
       5A2     5.499995    22A1     5.500227    13B2     5.756478  
      13B1     5.773945    23A1     6.184698     6A2     6.538867  
      24A1     6.538967    14B2     6.846865    14B1     6.866148  
      25A1     7.464967    26A1     8.622646  

    Final Occupation by Irrep:
             A1    A2    B1    B2 
    DOCC [     5,    0,    1,    1 ]
    SOCC [     0,    0,    1,    0 ]
    NA   [     5,    0,    2,    1 ]
    NB   [     5,    0,    1,    1 ]

  @DF-UKS Final Energy:  -113.21272088759871

   => Energetics <=

    Nuclear Repulsion Energy =             16.3412355864874854
    One-Electron Energy =                -191.4315982952377340
    Two-Electron Energy =                  73.1875542582831287
    DFT Exchange-Correlation Energy =     -11.3099124371315725
    Empirical Dispersion Energy =           0.0000000000000000
    VV10 Nonlocal Energy =                  0.0000000000000000
    Total Energy =                       -113.2127208875987066

  UHF NO Occupations:
  HONO-2 :    1 B1 1.9990470
  HONO-1 :    5 A1 1.9989823
  HONO-0 :    2 B1 1.0000000
  LUNO+0 :    6 A1 0.0010177
  LUNO+1 :    3 B1 0.0009530
  LUNO+2 :    2 B2 0.0009172
  LUNO+3 :    7 A1 0.0000634


Computation Completed


Properties will be evaluated at   0.000000,   0.000000,   0.000000 [a0]

Properties computed using the SCF density matrix


 Multipole Moments:

 ------------------------------------------------------------------------------------
     Multipole            Electronic (a.u.)      Nuclear  (a.u.)        Total (a.u.)
 ------------------------------------------------------------------------------------

 L = 1.  Multiply by 2.5417464519 to convert [e a0] to [Debye]
 Dipole X            :          0.0000000            0.0000000            0.0000000
 Dipole Y            :          0.0000000            0.0000000            0.0000000
 Dipole Z            :         -0.2864432           -0.0032015           -0.2896447
 Magnitude           :                                                    0.2896447

 ------------------------------------------------------------------------------------

*** tstop() called on cics-quant-001 at Tue Dec 23 13:43:38 2025
Module time:
	user time   =       1.83 seconds =       0.03 minutes
	system time =       0.08 seconds =       0.00 minutes
	total time  =          1 seconds =       0.02 minutes
Total time:
	user time   =       1.83 seconds =       0.03 minutes
	system time =       0.08 seconds =       0.00 minutes
	total time  =          1 seconds =       0.02 minutes

*** tstart() called on cics-quant-001
*** at Tue Dec 23 13:43:38 2025

   => Libint2 <=

    Primary   basis highest AM E, G, H:  6, 6, 3
    Auxiliary basis highest AM E, G, H:  7, 7, 4
    Onebody   basis highest AM E, G, H:  -, -, -
    Solid Harmonics ordering:            Gaussian
   => Loading Basis Set <=

    Name: CC-PVTZ
    Role: ORBITAL
    Keyword: BASIS
    atoms 1 entry O          line   262 file /home/jrodriguesro/psi4conda/share/psi4/basis/cc-pvtz.gbs 
    atoms 2 entry C          line   186 file /home/jrodriguesro/psi4conda/share/psi4/basis/cc-pvtz.gbs 


         ---------------------------------------------------------
                                   SCF
               by Justin Turney, Rob Parrish, Andy Simmonett
                          and Daniel G. A. Smith
                              UKS Reference
                        6 Threads,   7629 MiB Core
         ---------------------------------------------------------

  ==> Geometry <==

    Molecular point group: c2v
    Full point group: C_inf_v

    Geometry (in Angstrom), charge = -1, multiplicity = 2:

       Center              X                  Y                   Z               Mass       
    ------------   -----------------  -----------------  -----------------  -----------------
         O            0.000000000000     0.000000000000    -0.666284296754    15.994914619570
         C            0.000000000000     0.000000000000     0.888096703246    12.000000000000

  Running in c2v symmetry.

  Rotational constants: A = ************  B =      1.01765  C =      1.01765 [cm^-1]
  Rotational constants: A = ************  B =  30508.31461  C =  30508.31461 [MHz]
  Nuclear repulsion =   16.341235586487485

  Charge       = -1
  Multiplicity = 2
  Electrons    = 15
  Nalpha       = 8
  Nbeta        = 7

  ==> Algorithm <==

  SCF Algorithm Type is DF.
  DIIS enabled.
  MOM disabled.
  Fractional occupation disabled.
  Guess Type is READ.
  Energy threshold   = 1.00e-08
  Density threshold  = 1.00e-08
  Integral threshold = 1.00e-12

  ==> Primary Basis <==

  Basis Set: CC-PVTZ
    Blend: CC-PVTZ
    Number of shells: 20
    Number of basis functions: 60
    Number of Cartesian functions: 70
    Spherical Harmonics?: true
    Max angular momentum: 3

  ==> DFT Potential <==

   => LibXC <=

    Version 7.0.0
    S. Lehtola, C. Steigemann, M. J.T. Oliveira, and M. A.L. Marques.,  SoftwareX 7, 1–5 (2018) (10.1016/j.softx.2017.11.002)

   => Composite Functional: B3LYP <= 

    B3LYP Hyb-GGA Exchange-Correlation Functional

    P. J. Stephens, F. J. Devlin, C. F. Chabalowski, and M. J. Frisch.,  J. Phys. Chem. 98, 11623 (1994) (10.1021/j100096a001)

    Deriv               =              1
    GGA                 =           TRUE
    Meta                =          FALSE

    Exchange Hybrid     =           TRUE
    MP2 Hybrid          =          FALSE

   => Exchange Functionals <=

    0.0800   Slater exchange
    0.7200         Becke 88

   => Exact (HF) Exchange <=

    0.2000               HF 

   => Correlation Functionals <=

    0.1900   Vosko, Wilk & Nusair (VWN5_RPA)
    0.8100   Lee, Yang & Parr

   => LibXC Density Thresholds  <==

    XC_HYB_GGA_XC_B3LYP:  1.00E-15 

   => Molecular Quadrature <=

    Radial Scheme          =       TREUTLER
    Pruning Scheme         =           NONE
    Nuclear Scheme         =       TREUTLER

    Blocking Scheme        =         OCTREE
    BS radius alpha        =              1
    Pruning alpha          =              1
    Radial Points          =             75
    Spherical Points       =            302
    Total Points           =          43331
    Total Blocks           =            390
    Max Points             =            254
    Max Functions          =             60
    Weights Tolerance      =       1.00E-15

   => Loading Basis Set <=

    Name: (CC-PVTZ AUX)
    Role: JKFIT
    Keyword: DF_BASIS_SCF
    atoms 1 entry O          line   229 file /home/jrodriguesro/psi4conda/share/psi4/basis/cc-pvtz-jkfit.gbs 
    atoms 2 entry C          line   125 file /home/jrodriguesro/psi4conda/share/psi4/basis/cc-pvtz-jkfit.gbs 

   => Loading Basis Set <=

    Name: CC-PVTZ
    Role: ORBITAL
    Keyword: BASIS
    atoms 1 entry O          line   262 file /home/jrodriguesro/psi4conda/share/psi4/basis/cc-pvtz.gbs 
    atoms 2 entry C          line   186 file /home/jrodriguesro/psi4conda/share/psi4/basis/cc-pvtz.gbs 

  Reading orbitals from file /tmp/scan_CO_29.default.533324.180.npy, no projection.

  ==> Integral Setup <==

  DFHelper Memory: AOs need 0.005 GiB; user supplied 5.517 GiB. 
  SCF_SUBTYPE=INCORE selected. In-core MEM_DF algorithm will be used.
  Using in-core AOs.

  ==> MemDFJK: Density-Fitted J/K Matrices <==

    J tasked:                   Yes
    K tasked:                   Yes
    wK tasked:                   No
    OpenMP threads:               6
    Memory [MiB]:              5649
    Algorithm:                 Core
    Schwarz Cutoff:           1E-12
    Mask sparsity (%):       0.0000
    Fitting Condition:        1E-10

   => Auxiliary Basis Set <=

  Basis Set: (CC-PVTZ AUX)
    Blend: CC-PVTZ-JKFIT
    Number of shells: 50
    Number of basis functions: 158
    Number of Cartesian functions: 192
    Spherical Harmonics?: true
    Max angular momentum: 4

  Cached 100.0% of DFT collocation blocks in 0.071 [GiB].

  Minimum eigenvalue in the overlap matrix is 9.0537746968E-03.
  Reciprocal condition number of the overlap matrix is 2.5242889374E-03.
    Using symmetric orthogonalization.

  ==> Pre-Iterations <==

  SCF Guess: Orbitals guess was supplied from a previous computation.

   -------------------------------------------------------
    Irrep   Nso     Nmo     Nalpha   Nbeta   Ndocc  Nsocc
   -------------------------------------------------------
     A1        26      26       5       5       5       0
     A2         6       6       0       0       0       0
     B1        14      14       2       1       1       1
     B2        14      14       1       1       1       0
   -------------------------------------------------------
    Total      60      60       8       7       7       1
   -------------------------------------------------------

  ==> Iterations <==

                           Total Energy        Delta E     RMS |[F,P]|

   @DF-UKS iter   0:  -113.21272088928205   -1.13213e+02   7.14087e-11 
   @DF-UKS iter   1:  -113.21272088928202    2.84217e-14   2.39717e-10 DIIS
  Energy and wave function converged.


  ==> Post-Iterations <==

   Electrons on quadrature grid:
      Nalpha   =    7.9999995239 ; deviation = -4.761e-07
      Nbeta    =    6.9999995766 ; deviation = -4.234e-07
      Ntotal   =   14.9999991006 ; deviation = -8.994e-07 

   @Spin Contamination Metric:   5.952419051E-03
   @S^2 Expected:                7.500000000E-01
   @S^2 Observed:                7.559524191E-01
   @S   Expected:                5.000000000E-01
   @S   Observed:                5.000000000E-01

    Orbital Energies [Eh]
    ---------------------

    Alpha Occupied:                                                       

       1A1   -18.853760     2A1    -9.986658     3A1    -0.636337  
       4A1    -0.256007     1B1    -0.058911     5A1    -0.050750  
       1B2    -0.037187     2B1     0.094116  

    Alpha Virtual:                                                        

       2B2     0.184713     6A1     0.356832     3B1     0.545023  
       3B2     0.560191     7A1     0.573112     8A1     0.595410  
       9A1     0.822091     4B1     0.895505     4B2     0.898800  
       1A2     0.931195    10A1     0.933959     5B1     1.046986  
       5B2     1.047690    11A1     1.294777    12A1     1.504531  
       2A2     1.785697    13A1     1.786223     6B1     1.964857  
       6B2     1.967461    14A1     2.187862     7B1     2.280455  
       7B2     2.294728    15A1     2.583816     8B1     2.947233  
       8B2     2.948125     3A2     2.988606    16A1     2.991128  
       9B1     3.143512     9B2     3.149805    17A1     3.184812  
       4A2     3.216226    18A1     3.222824    10B1     3.415533  
      10B2     3.422897    19A1     3.510404    11B1     4.023229  
      20A1     4.025957    11B2     4.027270    21A1     5.163383  
      12B1     5.433837    12B2     5.433873     5A2     5.492168  
      22A1     5.492591    13B2     5.757077    13B1     5.760116  
      23A1     6.177889     6A2     6.519673    24A1     6.520717  
      14B1     6.845747    14B2     6.847809    25A1     7.457681  
      26A1     8.613198  

    Beta Occupied:                                                        

       1A1   -18.848514     2A1    -9.974087     3A1    -0.623573  
       4A1    -0.220555     5A1    -0.036690     1B2    -0.035033  
       1B1    -0.012129  

    Beta Virtual:                                                         

       2B2     0.197393     2B1     0.231653     6A1     0.367393  
       3B2     0.569443     7A1     0.582611     3B1     0.594851  
       8A1     0.612511     9A1     0.826997     4B2     0.898576  
       4B1     0.913003     1A2     0.964847    10A1     0.965089  
       5B2     1.050085     5B1     1.071776    11A1     1.305689  
      12A1     1.508956     2A2     1.794877    13A1     1.794987  
       6B2     1.968683     6B1     1.988141    14A1     2.196991  
       7B2     2.305975     7B1     2.340198    15A1     2.598518  
       8B2     2.993977     8B1     2.994125    16A1     3.017055  
       3A2     3.017645     9B2     3.155571     9B1     3.184262  
      17A1     3.199139    18A1     3.278580     4A2     3.278768  
      10B2     3.426917    10B1     3.457597    19A1     3.529823  
      11B2     4.028034    20A1     4.038393    11B1     4.049405  
      21A1     5.172363    12B2     5.445635    12B1     5.445641  
       5A2     5.499995    22A1     5.500227    13B2     5.756478  
      13B1     5.773945    23A1     6.184698     6A2     6.538867  
      24A1     6.538967    14B2     6.846865    14B1     6.866148  
      25A1     7.464967    26A1     8.622646  

    Final Occupation by Irrep:
             A1    A2    B1    B2 
    DOCC [     5,    0,    1,    1 ]
    SOCC [     0,    0,    1,    0 ]
    NA   [     5,    0,    2,    1 ]
    NB   [     5,    0,    1,    1 ]

  @DF-UKS Final Energy:  -113.21272088928202

   => Energetics <=

    Nuclear Repulsion Energy =             16.3412355864874854
    One-Electron Energy =                -191.4315983350390979
    Two-Electron Energy =                  73.1875543004675961
    DFT Exchange-Correlation Energy =     -11.3099124411979908
    Empirical Dispersion Energy =           0.0000000000000000
    VV10 Nonlocal Energy =                  0.0000000000000000
    Total Energy =                       -113.2127208892820249

  UHF NO Occupations:
  HONO-2 :    1 B1 1.9990470
  HONO-1 :    5 A1 1.9989823
  HONO-0 :    2 B1 1.0000000
  LUNO+0 :    6 A1 0.0010177
  LUNO+1 :    3 B1 0.0009530
  LUNO+2 :    2 B2 0.0009172
  LUNO+3 :    7 A1 0.0000634


Computation Completed


Properties will be evaluated at   0.000000,   0.000000,   0.000000 [a0]

Properties computed using the B3LYP density matrix


 Multipole Moments:

 ------------------------------------------------------------------------------------
     Multipole            Electronic (a.u.)      Nuclear  (a.u.)        Total (a.u.)
 ------------------------------------------------------------------------------------

 L = 1.  Multiply by 2.5417464519 to convert [e a0] to [Debye]
 Dipole X            :          0.0000000            0.0000000            0.0000000
 Dipole Y            :          0.0000000            0.0000000            0.0000000
 Dipole Z            :         -0.2864432           -0.0032015           -0.2896447
 Magnitude           :                                                    0.2896447

 L = 2.  Multiply by 1.3450342976 to convert [e a0^2] to [Debye ang]
 Quadrupole XX       :        -11.2297715            0.0000000          -11.2297715
 Quadrupole XY       :          0.0000000            0.0000000            0.0000000
 Quadrupole XZ       :          0.0000000            0.0000000            0.0000000
 Quadrupole YY       :         -9.8486145            0.0000000           -9.8486145
 Quadrupole YZ       :          0.0000000            0.0000000            0.0000000
 Quadrupole ZZ       :        -43.6340310           29.5818891          -14.0521419
 Traceless XX        :         10.3410341           -9.8606297            0.4804044
 Traceless YY        :         11.7221912           -9.8606297            1.8615615
 Traceless ZZ        :        -22.0632253           19.7212594           -2.3419659

 ------------------------------------------------------------------------------------
  ==> Computing MBIS Charges <==

  Electron Count from Grid (Expected Number): 15.00000 (15.00000)
  Difference: -0.00000

  MBIS Charges: (a.u.)
   Center  Symbol  Z      Pop.       Charge
      1       O    8    8.555628   -0.555628
      2       C    6    6.444371   -0.444371

  MBIS Dipoles: [e a0]
   Center  Symbol  Z        X           Y           Z
      1       O    8   -0.000000   -0.000000    0.055734
      2       C    6   -0.000000    0.000000   -0.299200

  MBIS Quadrupoles: [e a0^2]
   Center  Symbol  Z      XX        XY        XZ        YY        YZ        ZZ
      1       O    8   -4.7084   -0.0000    0.0000   -4.5016    0.0000   -4.5560
      2       C    6   -6.5214    0.0000    0.0000   -5.3470    0.0000   -6.2191

  MBIS Octupoles: [e a0^3]
   Center  Symbol  Z      XXX       XXY       XXZ       XYY       XYZ       XZZ       YYY       YYZ       YZZ       ZZZ
      1       O    8   -0.0000   -0.0000    0.0552   -0.0000    0.0000   -0.0000   -0.0000    0.0576   -0.0000   -0.0562
      2       C    6   -0.0000   -0.0000   -0.5464   -0.0000    0.0000   -0.0000    0.0000   -0.0678    0.0000   -0.0678

  MBIS Radial Moments:
   Center  Symbol  Z      [a0^2]      [a0^3]      [a0^4]      
      1       O    8   13.765958   27.564226   65.894636
      2       C    6   18.087506   48.899047   155.504641

  MBIS Valence Widths: [a0]
   Center  Symbol  Z     Width
      1       O    8    0.409049
      2       C    6    0.569478


  MBIS Valence Charges: (a.u.)
   Center  Symbol  Z     Charge
      1       O    8   -6.892618
      2       C    6   -4.722825

*** tstop() called on cics-quant-001 at Tue Dec 23 13:43:38 2025
Module time:
	user time   =       0.53 seconds =       0.01 minutes
	system time =       0.04 seconds =       0.00 minutes
	total time  =          0 seconds =       0.00 minutes
Total time:
	user time   =       2.37 seconds =       0.04 minutes
	system time =       0.12 seconds =       0.00 minutes
	total time  =          1 seconds =       0.02 minutes

    Psi4 stopped on: Tuesday, 23 December 2025 01:43PM
    Psi4 wall time for execution: 0:00:00.85

*** Psi4 exiting successfully. Buy a developer a beer!
