
    -----------------------------------------------------------------------
          Psi4: An Open-Source Ab Initio Electronic Structure Package
                               Psi4 1.9.1 release

                         Git: Rev {} zzzzzzz 


    D. G. A. Smith, L. A. Burns, A. C. Simmonett, R. M. Parrish,
    M. C. Schieber, R. Galvelis, P. Kraus, H. Kruse, R. Di Remigio,
    A. Alenaizan, A. M. James, S. Lehtola, J. P. Misiewicz, M. Scheurer,
    R. A. Shaw, J. B. Schriber, Y. Xie, Z. L. Glick, D. A. Sirianni,
    J. S. O'Brien, J. M. Waldrop, A. Kumar, E. G. Hohenstein,
    B. P. Pritchard, B. R. Brooks, H. F. Schaefer III, A. Yu. Sokolov,
    K. Patkowski, A. E. DePrince III, U. Bozkaya, R. A. King,
    F. A. Evangelista, J. M. Turney, T. D. Crawford, C. D. Sherrill,
    J. Chem. Phys. 152(18) 184108 (2020). https://doi.org/10.1063/5.0006002

                            Additional Code Authors
    E. T. Seidl, C. L. Janssen, E. F. Valeev, M. L. Leininger,
    J. F. Gonthier, R. M. Richard, H. R. McAlexander, M. Saitow, X. Wang,
    P. Verma, M. H. Lechner, A. Jiang, S. Behnle, A. G. Heide,
    M. F. Herbst, and D. L. Poole

             Previous Authors, Complete List of Code Contributors,
                       and Citations for Specific Modules
    https://github.com/psi4/psi4/blob/master/codemeta.json
    https://github.com/psi4/psi4/graphs/contributors
    http://psicode.org/psi4manual/master/introduction.html#citing-psifour

    -----------------------------------------------------------------------


    Psi4 started on: Wednesday, 27 August 2025 10:04AM

    Process ID: 66803
    Host:       Mac.lan
    PSIDATADIR: /Users/joseantoniorodriguesromero/anaconda3/share/psi4
    Memory:     500.0 MiB
    Threads:    1
    
  ==> Input File <==

--------------------------------------------------------------------------
molecule { 
-1 2
O           0.000000           0.000000           0.000000
C           0.000000           0.000000           0.663668
}

set { 
basis              cc-pvtz
reference          uks
maxiter            500
DAMPING_PERCENTAGE 1
E_CONVERGENCE      1.0E-8
D_CONVERGENCE      1.0E-8
DIIS_MAX_VECS      400
MBIS_MAXITER       8000
guess              read
}

E, wfn = energy('b3lyp', restart_file='last_wfn', return_wfn=True)
properties('b3lyp','MBIS_CHARGES', wfn=wfn)
wfn.to_file('last_wfn')
--------------------------------------------------------------------------

Scratch directory: /tmp/
 Found user provided orbital data. Setting orbital guess to READ 
 Copying restart file <last_wfn.npy> to </tmp/scan_CO_8.default.66803.180.npy> for internal processing
   => Libint2 <=

    Primary   basis highest AM E, G, H:  6, 6, 3
    Auxiliary basis highest AM E, G, H:  7, 7, 4
    Onebody   basis highest AM E, G, H:  -, -, -
    Solid Harmonics ordering:            Gaussian

*** tstart() called on Mac.lan
*** at Wed Aug 27 10:04:23 2025

   => Loading Basis Set <=

    Name: CC-PVTZ
    Role: ORBITAL
    Keyword: BASIS
    atoms 1 entry O          line   262 file /Users/joseantoniorodriguesromero/anaconda3/share/psi4/basis/cc-pvtz.gbs 
    atoms 2 entry C          line   186 file /Users/joseantoniorodriguesromero/anaconda3/share/psi4/basis/cc-pvtz.gbs 


         ---------------------------------------------------------
                                   SCF
               by Justin Turney, Rob Parrish, Andy Simmonett
                          and Daniel G. A. Smith
                              UKS Reference
                        1 Threads,    500 MiB Core
         ---------------------------------------------------------

  ==> Geometry <==

    Molecular point group: c2v
    Full point group: C_inf_v

    Geometry (in Angstrom), charge = -1, multiplicity = 2:

       Center              X                  Y                   Z               Mass       
    ------------   -----------------  -----------------  -----------------  -----------------
         O            0.000000000000     0.000000000000    -0.284480810470    15.994914619570
         C            0.000000000000     0.000000000000     0.379187189530    12.000000000000

  Running in c2v symmetry.

  Rotational constants: A = ************  B =      5.58227  C =      5.58227 [cm^-1]
  Rotational constants: A = ************  B = 167352.19724  C = 167352.19724 [MHz]
  Nuclear repulsion =   38.272910720661535

  Charge       = -1
  Multiplicity = 2
  Electrons    = 15
  Nalpha       = 8
  Nbeta        = 7

  ==> Algorithm <==

  SCF Algorithm Type is DF.
  DIIS enabled.
  MOM disabled.
  Fractional occupation disabled.
  Guess Type is READ.
  Energy threshold   = 1.00e-08
  Density threshold  = 1.00e-08
  Integral threshold = 1.00e-12

  ==> Primary Basis <==

  Basis Set: CC-PVTZ
    Blend: CC-PVTZ
    Number of shells: 20
    Number of basis functions: 60
    Number of Cartesian functions: 70
    Spherical Harmonics?: true
    Max angular momentum: 3

  ==> DFT Potential <==

   => LibXC <=

    Version 6.2.2
    S. Lehtola, C. Steigemann, M. J.T. Oliveira, and M. A.L. Marques.,  SoftwareX 7, 1–5 (2018) (10.1016/j.softx.2017.11.002)

   => Composite Functional: B3LYP <= 

    B3LYP Hyb-GGA Exchange-Correlation Functional

    P. J. Stephens, F. J. Devlin, C. F. Chabalowski, and M. J. Frisch.,  J. Phys. Chem. 98, 11623 (1994) (10.1021/j100096a001)

    Deriv               =              1
    GGA                 =           TRUE
    Meta                =          FALSE

    Exchange Hybrid     =           TRUE
    MP2 Hybrid          =          FALSE

   => Exchange Functionals <=

    0.0800   Slater exchange
    0.7200         Becke 88

   => Exact (HF) Exchange <=

    0.2000               HF 

   => Correlation Functionals <=

    0.1900   Vosko, Wilk & Nusair (VWN5_RPA)
    0.8100   Lee, Yang & Parr

   => LibXC Density Thresholds  <==

    XC_HYB_GGA_XC_B3LYP:  1.00E-15 

   => Molecular Quadrature <=

    Radial Scheme          =       TREUTLER
    Pruning Scheme         =           NONE
    Nuclear Scheme         =       TREUTLER

    Blocking Scheme        =         OCTREE
    BS radius alpha        =              1
    Pruning alpha          =              1
    Radial Points          =             75
    Spherical Points       =            302
    Total Points           =          43181
    Total Blocks           =            385
    Max Points             =            256
    Max Functions          =             60
    Weights Tolerance      =       1.00E-15

   => Loading Basis Set <=

    Name: (CC-PVTZ AUX)
    Role: JKFIT
    Keyword: DF_BASIS_SCF
    atoms 1 entry O          line   229 file /Users/joseantoniorodriguesromero/anaconda3/share/psi4/basis/cc-pvtz-jkfit.gbs 
    atoms 2 entry C          line   125 file /Users/joseantoniorodriguesromero/anaconda3/share/psi4/basis/cc-pvtz-jkfit.gbs 

   => Loading Basis Set <=

    Name: CC-PVTZ
    Role: ORBITAL
    Keyword: BASIS
    atoms 1 entry O          line   262 file /Users/joseantoniorodriguesromero/anaconda3/share/psi4/basis/cc-pvtz.gbs 
    atoms 2 entry C          line   186 file /Users/joseantoniorodriguesromero/anaconda3/share/psi4/basis/cc-pvtz.gbs 

  Reading orbitals from file /tmp/scan_CO_8.default.66803.180.npy, no projection.

  ==> Integral Setup <==

  DFHelper Memory: AOs need 0.005 GiB; user supplied 0.294 GiB. 
  Using in-core AOs.

  ==> MemDFJK: Density-Fitted J/K Matrices <==

    J tasked:                   Yes
    K tasked:                   Yes
    wK tasked:                   No
    OpenMP threads:               1
    Memory [MiB]:               301
    Algorithm:                 Core
    Schwarz Cutoff:           1E-12
    Mask sparsity (%):       0.0000
    Fitting Condition:        1E-10

   => Auxiliary Basis Set <=

  Basis Set: (CC-PVTZ AUX)
    Blend: CC-PVTZ-JKFIT
    Number of shells: 50
    Number of basis functions: 158
    Number of Cartesian functions: 192
    Spherical Harmonics?: true
    Max angular momentum: 4

  Cached 100.0% of DFT collocation blocks in 0.072 [GiB].

  Minimum eigenvalue in the overlap matrix is 1.9770450668E-03.
  Reciprocal condition number of the overlap matrix is 4.5649570241E-04.
    Using symmetric orthogonalization.

  ==> Pre-Iterations <==

  SCF Guess: Orbitals guess was supplied from a previous computation.

   -------------------------------------------------------
    Irrep   Nso     Nmo     Nalpha   Nbeta   Ndocc  Nsocc
   -------------------------------------------------------
     A1        26      26       5       5       5       0
     A2         6       6       0       0       0       0
     B1        14      14       2       1       1       1
     B2        14      14       1       1       1       0
   -------------------------------------------------------
    Total      60      60       8       7       7       1
   -------------------------------------------------------

  ==> Iterations <==

                           Total Energy        Delta E     RMS |[F,P]|

   @DF-UKS iter   0:  -111.43513510943593   -1.11435e+02   1.52066e-02 
   @DF-UKS iter   1:  -111.40865170303567    2.64834e-02   3.85309e-03 ADIIS/DIIS
   @DF-UKS iter   2:  -111.40972325528173   -1.07155e-03   3.28041e-03 ADIIS/DIIS/DAMP=1%
   @DF-UKS iter   3:  -111.41035874884250   -6.35494e-04   1.28822e-04 ADIIS/DIIS/DAMP=1%
   @DF-UKS iter   4:  -111.41391517102487   -3.55642e-03   7.26871e-05 DIIS/DAMP=1%
   @DF-UKS iter   5:  -111.41377459217624    1.40579e-04   1.01948e-05 DIIS/DAMP=1%
   @DF-UKS iter   6:  -111.41378219595808   -7.60378e-06   1.07052e-06 DIIS/DAMP=1%
   @DF-UKS iter   7:  -111.41379210029893   -9.90434e-06   7.53560e-08 DIIS/DAMP=1%
   @DF-UKS iter   8:  -111.41379160396444    4.96334e-07   2.66304e-08 DIIS/DAMP=1%
   @DF-UKS iter   9:  -111.41379151545610    8.85083e-08   5.17216e-09 DIIS/DAMP=1%
   @DF-UKS iter  10:  -111.41379154413114   -2.86750e-08   5.30029e-10 DIIS/DAMP=1%
   @DF-UKS iter  11:  -111.41379153989706    4.23408e-09   8.41456e-11 DIIS/DAMP=1%
  Energy and wave function converged.


  ==> Post-Iterations <==

   Electrons on quadrature grid:
      Nalpha   =    8.0000001473 ; deviation = 1.473e-07
      Nbeta    =    7.0000001452 ; deviation = 1.452e-07
      Ntotal   =   15.0000002925 ; deviation = 2.925e-07 

   @Spin Contamination Metric:   1.522361373E-03
   @S^2 Expected:                7.500000000E-01
   @S^2 Observed:                7.515223614E-01
   @S   Expected:                5.000000000E-01
   @S   Observed:                5.000000000E-01

    Orbital Energies [Eh]
    ---------------------

    Alpha Occupied:                                                       

       1A1   -18.923674     2A1    -9.955787     3A1    -0.991418  
       1B2    -0.456271     1B1    -0.455654     4A1    -0.282055  
       5A1    -0.038742     2B1     0.308158  

    Alpha Virtual:                                                        

       2B2     0.369384     6A1     0.384967     7A1     0.534267  
       3B2     0.592442     3B1     0.600721     8A1     0.789865  
       4B1     0.873291     4B2     0.874213     1A2     0.903844  
       9A1     0.906256    10A1     1.146976     5B2     1.384184  
       5B1     1.386018    11A1     1.631142     6B2     1.843076  
       6B1     1.849930     2A2     1.916899    12A1     1.918179  
      13A1     2.044770    14A1     2.633747     7B2     2.663986  
       7B1     2.667705     8B1     2.929175     8B2     2.929232  
      15A1     3.122302     3A2     3.157124    16A1     3.158097  
       9B2     3.370882     9B1     3.376341    17A1     3.529193  
       4A2     3.530502    18A1     3.545295    10B2     4.368715  
      10B1     4.371227    11B2     4.605367    11B1     4.609754  
      19A1     4.845636    12B1     5.595811    12B2     5.595820  
      20A1     6.214218     5A2     6.471327    21A1     6.471716  
       6A2     6.944456    22A1     6.944610    13B2     6.962830  
      13B1     6.965948    23A1     7.052303    24A1     8.212737  
      14B2     8.322413    14B1     8.323579    25A1    10.580059  
      26A1    18.601755  

    Beta Occupied:                                                        

       1A1   -18.919731     2A1    -9.956927     3A1    -0.986184  
       1B2    -0.454676     1B1    -0.441586     4A1    -0.278101  
       5A1    -0.029413  

    Beta Virtual:                                                         

       2B2     0.382356     6A1     0.395987     2B1     0.407965  
       7A1     0.551115     3B2     0.589780     3B1     0.602142  
       8A1     0.797146     4B2     0.876247     4B1     0.891630  
       1A2     0.922099     9A1     0.922832    10A1     1.153081  
       5B2     1.385517     5B1     1.405349    11A1     1.633771  
       6B2     1.842733     6B1     1.858264    12A1     1.927829  
       2A2     1.927865    13A1     2.049142    14A1     2.638731  
       7B2     2.663746     7B1     2.673468     8B2     2.934226  
       8B1     2.934240    15A1     3.122055     3A2     3.161235  
      16A1     3.162315     9B2     3.368362     9B1     3.382841  
      17A1     3.529438     4A2     3.533298    18A1     3.547758  
      10B2     4.370891    10B1     4.385251    11B2     4.604566  
      11B1     4.616322    19A1     4.849699    12B2     5.601718  
      12B1     5.601721    20A1     6.215982     5A2     6.482667  
      21A1     6.482747    22A1     6.949408     6A2     6.949538  
      13B2     6.963550    13B1     6.972886    23A1     7.054938  
      24A1     8.214322    14B2     8.323426    14B1     8.332345  
      25A1    10.584266    26A1    18.606086  

    Final Occupation by Irrep:
             A1    A2    B1    B2 
    DOCC [     5,    0,    1,    1 ]
    SOCC [     0,    0,    1,    0 ]
    NA   [     5,    0,    2,    1 ]
    NB   [     5,    0,    1,    1 ]

  @DF-UKS Final Energy:  -111.41379153989706

   => Energetics <=

    Nuclear Repulsion Energy =             38.2729107206615353
    One-Electron Energy =                -228.8039710809778171
    Two-Electron Energy =                  91.2565829130669215
    DFT Exchange-Correlation Energy =     -12.1393140926477123
    Empirical Dispersion Energy =           0.0000000000000000
    VV10 Nonlocal Energy =                  0.0000000000000000
    Total Energy =                       -111.4137915398970620

  UHF NO Occupations:
  HONO-2 :    1 B1 1.9999536
  HONO-1 :    5 A1 1.9993006
  HONO-0 :    2 B1 1.0000000
  LUNO+0 :    6 A1 0.0006994
  LUNO+1 :    3 B1 0.0000464
  LUNO+2 :    7 A1 0.0000109
  LUNO+3 :    2 B2 0.0000035


Computation Completed


Properties will be evaluated at   0.000000,   0.000000,   0.000000 [a0]

Properties computed using the SCF density matrix


 Multipole Moments:

 ------------------------------------------------------------------------------------
     Multipole            Electronic (a.u.)      Nuclear  (a.u.)        Total (a.u.)
 ------------------------------------------------------------------------------------

 L = 1.  Multiply by 2.5417464519 to convert [e a0] to [Debye]
 Dipole X            :          0.0000000            0.0000000            0.0000000
 Dipole Y            :          0.0000000            0.0000000            0.0000000
 Dipole Z            :         -1.7489961           -0.0013669           -1.7503630
 Magnitude           :                                                    1.7503630

 ------------------------------------------------------------------------------------

*** tstop() called on Mac.lan at Wed Aug 27 10:04:29 2025
Module time:
	user time   =      58.45 seconds =       0.97 minutes
	system time =       2.67 seconds =       0.04 minutes
	total time  =          6 seconds =       0.10 minutes
Total time:
	user time   =      58.45 seconds =       0.97 minutes
	system time =       2.67 seconds =       0.04 minutes
	total time  =          6 seconds =       0.10 minutes

*** tstart() called on Mac.lan
*** at Wed Aug 27 10:04:29 2025

   => Libint2 <=

    Primary   basis highest AM E, G, H:  6, 6, 3
    Auxiliary basis highest AM E, G, H:  7, 7, 4
    Onebody   basis highest AM E, G, H:  -, -, -
    Solid Harmonics ordering:            Gaussian
   => Loading Basis Set <=

    Name: CC-PVTZ
    Role: ORBITAL
    Keyword: BASIS
    atoms 1 entry O          line   262 file /Users/joseantoniorodriguesromero/anaconda3/share/psi4/basis/cc-pvtz.gbs 
    atoms 2 entry C          line   186 file /Users/joseantoniorodriguesromero/anaconda3/share/psi4/basis/cc-pvtz.gbs 


         ---------------------------------------------------------
                                   SCF
               by Justin Turney, Rob Parrish, Andy Simmonett
                          and Daniel G. A. Smith
                              UKS Reference
                        1 Threads,    500 MiB Core
         ---------------------------------------------------------

  ==> Geometry <==

    Molecular point group: c2v
    Full point group: C_inf_v

    Geometry (in Angstrom), charge = -1, multiplicity = 2:

       Center              X                  Y                   Z               Mass       
    ------------   -----------------  -----------------  -----------------  -----------------
         O            0.000000000000     0.000000000000    -0.284480810470    15.994914619570
         C            0.000000000000     0.000000000000     0.379187189530    12.000000000000

  Running in c2v symmetry.

  Rotational constants: A = ************  B =      5.58227  C =      5.58227 [cm^-1]
  Rotational constants: A = ************  B = 167352.19724  C = 167352.19724 [MHz]
  Nuclear repulsion =   38.272910720661535

  Charge       = -1
  Multiplicity = 2
  Electrons    = 15
  Nalpha       = 8
  Nbeta        = 7

  ==> Algorithm <==

  SCF Algorithm Type is DF.
  DIIS enabled.
  MOM disabled.
  Fractional occupation disabled.
  Guess Type is READ.
  Energy threshold   = 1.00e-08
  Density threshold  = 1.00e-08
  Integral threshold = 1.00e-12

  ==> Primary Basis <==

  Basis Set: CC-PVTZ
    Blend: CC-PVTZ
    Number of shells: 20
    Number of basis functions: 60
    Number of Cartesian functions: 70
    Spherical Harmonics?: true
    Max angular momentum: 3

  ==> DFT Potential <==

   => LibXC <=

    Version 6.2.2
    S. Lehtola, C. Steigemann, M. J.T. Oliveira, and M. A.L. Marques.,  SoftwareX 7, 1–5 (2018) (10.1016/j.softx.2017.11.002)

   => Composite Functional: B3LYP <= 

    B3LYP Hyb-GGA Exchange-Correlation Functional

    P. J. Stephens, F. J. Devlin, C. F. Chabalowski, and M. J. Frisch.,  J. Phys. Chem. 98, 11623 (1994) (10.1021/j100096a001)

    Deriv               =              1
    GGA                 =           TRUE
    Meta                =          FALSE

    Exchange Hybrid     =           TRUE
    MP2 Hybrid          =          FALSE

   => Exchange Functionals <=

    0.0800   Slater exchange
    0.7200         Becke 88

   => Exact (HF) Exchange <=

    0.2000               HF 

   => Correlation Functionals <=

    0.1900   Vosko, Wilk & Nusair (VWN5_RPA)
    0.8100   Lee, Yang & Parr

   => LibXC Density Thresholds  <==

    XC_HYB_GGA_XC_B3LYP:  1.00E-15 

   => Molecular Quadrature <=

    Radial Scheme          =       TREUTLER
    Pruning Scheme         =           NONE
    Nuclear Scheme         =       TREUTLER

    Blocking Scheme        =         OCTREE
    BS radius alpha        =              1
    Pruning alpha          =              1
    Radial Points          =             75
    Spherical Points       =            302
    Total Points           =          43181
    Total Blocks           =            385
    Max Points             =            256
    Max Functions          =             60
    Weights Tolerance      =       1.00E-15

   => Loading Basis Set <=

    Name: (CC-PVTZ AUX)
    Role: JKFIT
    Keyword: DF_BASIS_SCF
    atoms 1 entry O          line   229 file /Users/joseantoniorodriguesromero/anaconda3/share/psi4/basis/cc-pvtz-jkfit.gbs 
    atoms 2 entry C          line   125 file /Users/joseantoniorodriguesromero/anaconda3/share/psi4/basis/cc-pvtz-jkfit.gbs 

   => Loading Basis Set <=

    Name: CC-PVTZ
    Role: ORBITAL
    Keyword: BASIS
    atoms 1 entry O          line   262 file /Users/joseantoniorodriguesromero/anaconda3/share/psi4/basis/cc-pvtz.gbs 
    atoms 2 entry C          line   186 file /Users/joseantoniorodriguesromero/anaconda3/share/psi4/basis/cc-pvtz.gbs 

  Reading orbitals from file /tmp/scan_CO_8.default.66803.180.npy, no projection.

  ==> Integral Setup <==

  DFHelper Memory: AOs need 0.005 GiB; user supplied 0.294 GiB. 
  Using in-core AOs.

  ==> MemDFJK: Density-Fitted J/K Matrices <==

    J tasked:                   Yes
    K tasked:                   Yes
    wK tasked:                   No
    OpenMP threads:               1
    Memory [MiB]:               301
    Algorithm:                 Core
    Schwarz Cutoff:           1E-12
    Mask sparsity (%):       0.0000
    Fitting Condition:        1E-10

   => Auxiliary Basis Set <=

  Basis Set: (CC-PVTZ AUX)
    Blend: CC-PVTZ-JKFIT
    Number of shells: 50
    Number of basis functions: 158
    Number of Cartesian functions: 192
    Spherical Harmonics?: true
    Max angular momentum: 4

  Cached 100.0% of DFT collocation blocks in 0.072 [GiB].

  Minimum eigenvalue in the overlap matrix is 1.9770450668E-03.
  Reciprocal condition number of the overlap matrix is 4.5649570241E-04.
    Using symmetric orthogonalization.

  ==> Pre-Iterations <==

  SCF Guess: Orbitals guess was supplied from a previous computation.

   -------------------------------------------------------
    Irrep   Nso     Nmo     Nalpha   Nbeta   Ndocc  Nsocc
   -------------------------------------------------------
     A1        26      26       5       5       5       0
     A2         6       6       0       0       0       0
     B1        14      14       2       1       1       1
     B2        14      14       1       1       1       0
   -------------------------------------------------------
    Total      60      60       8       7       7       1
   -------------------------------------------------------

  ==> Iterations <==

                           Total Energy        Delta E     RMS |[F,P]|

   @DF-UKS iter   0:  -111.41379153995035   -1.11414e+02   1.36158e-11 
   @DF-UKS iter   1:  -111.41379153995034    1.42109e-14   8.75838e-12 DIIS
  Energy and wave function converged.


  ==> Post-Iterations <==

   Electrons on quadrature grid:
      Nalpha   =    8.0000001473 ; deviation = 1.473e-07
      Nbeta    =    7.0000001452 ; deviation = 1.452e-07
      Ntotal   =   15.0000002925 ; deviation = 2.925e-07 

   @Spin Contamination Metric:   1.522361399E-03
   @S^2 Expected:                7.500000000E-01
   @S^2 Observed:                7.515223614E-01
   @S   Expected:                5.000000000E-01
   @S   Observed:                5.000000000E-01

    Orbital Energies [Eh]
    ---------------------

    Alpha Occupied:                                                       

       1A1   -18.923674     2A1    -9.955787     3A1    -0.991418  
       1B2    -0.456271     1B1    -0.455654     4A1    -0.282055  
       5A1    -0.038742     2B1     0.308158  

    Alpha Virtual:                                                        

       2B2     0.369384     6A1     0.384967     7A1     0.534267  
       3B2     0.592442     3B1     0.600721     8A1     0.789865  
       4B1     0.873291     4B2     0.874213     1A2     0.903844  
       9A1     0.906256    10A1     1.146976     5B2     1.384184  
       5B1     1.386018    11A1     1.631142     6B2     1.843076  
       6B1     1.849930     2A2     1.916899    12A1     1.918179  
      13A1     2.044770    14A1     2.633747     7B2     2.663986  
       7B1     2.667705     8B1     2.929175     8B2     2.929232  
      15A1     3.122302     3A2     3.157124    16A1     3.158097  
       9B2     3.370882     9B1     3.376341    17A1     3.529193  
       4A2     3.530502    18A1     3.545295    10B2     4.368715  
      10B1     4.371227    11B2     4.605367    11B1     4.609754  
      19A1     4.845636    12B1     5.595811    12B2     5.595820  
      20A1     6.214218     5A2     6.471327    21A1     6.471716  
       6A2     6.944456    22A1     6.944610    13B2     6.962830  
      13B1     6.965948    23A1     7.052303    24A1     8.212737  
      14B2     8.322413    14B1     8.323579    25A1    10.580059  
      26A1    18.601755  

    Beta Occupied:                                                        

       1A1   -18.919731     2A1    -9.956927     3A1    -0.986184  
       1B2    -0.454676     1B1    -0.441586     4A1    -0.278101  
       5A1    -0.029413  

    Beta Virtual:                                                         

       2B2     0.382356     6A1     0.395987     2B1     0.407965  
       7A1     0.551115     3B2     0.589780     3B1     0.602142  
       8A1     0.797146     4B2     0.876247     4B1     0.891630  
       1A2     0.922099     9A1     0.922832    10A1     1.153081  
       5B2     1.385517     5B1     1.405349    11A1     1.633771  
       6B2     1.842733     6B1     1.858264    12A1     1.927829  
       2A2     1.927865    13A1     2.049142    14A1     2.638731  
       7B2     2.663746     7B1     2.673468     8B2     2.934226  
       8B1     2.934240    15A1     3.122055     3A2     3.161235  
      16A1     3.162315     9B2     3.368362     9B1     3.382841  
      17A1     3.529438     4A2     3.533298    18A1     3.547758  
      10B2     4.370891    10B1     4.385251    11B2     4.604566  
      11B1     4.616322    19A1     4.849699    12B2     5.601718  
      12B1     5.601721    20A1     6.215982     5A2     6.482667  
      21A1     6.482747    22A1     6.949408     6A2     6.949538  
      13B2     6.963550    13B1     6.972886    23A1     7.054938  
      24A1     8.214322    14B2     8.323426    14B1     8.332345  
      25A1    10.584266    26A1    18.606086  

    Final Occupation by Irrep:
             A1    A2    B1    B2 
    DOCC [     5,    0,    1,    1 ]
    SOCC [     0,    0,    1,    0 ]
    NA   [     5,    0,    2,    1 ]
    NB   [     5,    0,    1,    1 ]

  @DF-UKS Final Energy:  -111.41379153995034

   => Energetics <=

    Nuclear Repulsion Energy =             38.2729107206615353
    One-Electron Energy =                -228.8039710757337843
    Two-Electron Energy =                  91.2565829073052583
    DFT Exchange-Correlation Energy =     -12.1393140921833513
    Empirical Dispersion Energy =           0.0000000000000000
    VV10 Nonlocal Energy =                  0.0000000000000000
    Total Energy =                       -111.4137915399503385

  UHF NO Occupations:
  HONO-2 :    1 B1 1.9999536
  HONO-1 :    5 A1 1.9993006
  HONO-0 :    2 B1 1.0000000
  LUNO+0 :    6 A1 0.0006994
  LUNO+1 :    3 B1 0.0000464
  LUNO+2 :    7 A1 0.0000109
  LUNO+3 :    2 B2 0.0000035


Computation Completed


Properties will be evaluated at   0.000000,   0.000000,   0.000000 [a0]

Properties computed using the B3LYP density matrix


 Multipole Moments:

 ------------------------------------------------------------------------------------
     Multipole            Electronic (a.u.)      Nuclear  (a.u.)        Total (a.u.)
 ------------------------------------------------------------------------------------

 L = 1.  Multiply by 2.5417464519 to convert [e a0] to [Debye]
 Dipole X            :          0.0000000            0.0000000            0.0000000
 Dipole Y            :          0.0000000            0.0000000            0.0000000
 Dipole Z            :         -1.7489961           -0.0013669           -1.7503630
 Magnitude           :                                                    1.7503630

 L = 2.  Multiply by 1.3450342976 to convert [e a0^2] to [Debye ang]
 Quadrupole XX       :        -14.2937818            0.0000000          -14.2937818
 Quadrupole XY       :          0.0000000            0.0000000            0.0000000
 Quadrupole XZ       :          0.0000000            0.0000000            0.0000000
 Quadrupole YY       :         -9.3064305            0.0000000           -9.3064305
 Quadrupole YZ       :          0.0000000            0.0000000            0.0000000
 Quadrupole ZZ       :        -17.8666702            5.3927800          -12.4738902
 Traceless XX        :         -0.4714877           -1.7975933           -2.2690810
 Traceless YY        :          4.5158637           -1.7975933            2.7182704
 Traceless ZZ        :         -4.0443760            3.5951867           -0.4491894

 ------------------------------------------------------------------------------------
  ==> Computing MBIS Charges <==

  Electron Count from Grid (Expected Number): 15.00000 (15.00000)
  Difference: -0.00000

  MBIS Charges: (a.u.)
   Center  Symbol  Z      Pop.       Charge
      1       O    8    7.645224    0.354776
      2       C    6    7.354775   -1.354775

  MBIS Dipoles: [e a0]
   Center  Symbol  Z        X           Y           Z
      1       O    8    0.000000   -0.000000   -0.109859
      2       C    6   -0.000000    0.000000   -0.479003

  MBIS Quadrupoles: [e a0^2]
   Center  Symbol  Z      XX        XY        XZ        YY        YZ        ZZ
      1       O    8   -2.3880   -0.0000   -0.0000   -2.2877   -0.0000   -2.7735
      2       C    6   -11.9058    0.0000   -0.0000   -7.0187    0.0000   -8.5390

  MBIS Octupoles: [e a0^3]
   Center  Symbol  Z      XXX       XXY       XXZ       XYY       XYZ       XZZ       YYY       YYZ       YZZ       ZZZ
      1       O    8   -0.0000   -0.0000   -0.0549   -0.0000    0.0000    0.0000   -0.0000    0.0024   -0.0000    0.1819
      2       C    6    0.0000    0.0000   -3.8074   -0.0000    0.0000    0.0000    0.0000   -1.3663    0.0000   -1.9439

  MBIS Radial Moments:
   Center  Symbol  Z      [a0^2]      [a0^3]      [a0^4]      
      1       O    8    7.449112   11.423195   21.186146
      2       C    6   27.463551   87.464563   322.404146

  MBIS Valence Widths: [a0]
   Center  Symbol  Z     Width
      1       O    8    0.319564
      2       C    6    0.641766

*** tstop() called on Mac.lan at Wed Aug 27 10:04:31 2025
Module time:
	user time   =      16.18 seconds =       0.27 minutes
	system time =       2.55 seconds =       0.04 minutes
	total time  =          2 seconds =       0.03 minutes
Total time:
	user time   =      74.73 seconds =       1.25 minutes
	system time =       5.37 seconds =       0.09 minutes
	total time  =          8 seconds =       0.13 minutes

    Psi4 stopped on: Wednesday, 27 August 2025 10:04AM
    Psi4 wall time for execution: 0:00:08.04

*** Psi4 exiting successfully. Buy a developer a beer!
