
    -----------------------------------------------------------------------
          Psi4: An Open-Source Ab Initio Electronic Structure Package
                               Psi4 1.9.1 release

                         Git: Rev {} zzzzzzz 


    D. G. A. Smith, L. A. Burns, A. C. Simmonett, R. M. Parrish,
    M. C. Schieber, R. Galvelis, P. Kraus, H. Kruse, R. Di Remigio,
    A. Alenaizan, A. M. James, S. Lehtola, J. P. Misiewicz, M. Scheurer,
    R. A. Shaw, J. B. Schriber, Y. Xie, Z. L. Glick, D. A. Sirianni,
    J. S. O'Brien, J. M. Waldrop, A. Kumar, E. G. Hohenstein,
    B. P. Pritchard, B. R. Brooks, H. F. Schaefer III, A. Yu. Sokolov,
    K. Patkowski, A. E. DePrince III, U. Bozkaya, R. A. King,
    F. A. Evangelista, J. M. Turney, T. D. Crawford, C. D. Sherrill,
    J. Chem. Phys. 152(18) 184108 (2020). https://doi.org/10.1063/5.0006002

                            Additional Code Authors
    E. T. Seidl, C. L. Janssen, E. F. Valeev, M. L. Leininger,
    J. F. Gonthier, R. M. Richard, H. R. McAlexander, M. Saitow, X. Wang,
    P. Verma, M. H. Lechner, A. Jiang, S. Behnle, A. G. Heide,
    M. F. Herbst, and D. L. Poole

             Previous Authors, Complete List of Code Contributors,
                       and Citations for Specific Modules
    https://github.com/psi4/psi4/blob/master/codemeta.json
    https://github.com/psi4/psi4/graphs/contributors
    http://psicode.org/psi4manual/master/introduction.html#citing-psifour

    -----------------------------------------------------------------------


    Psi4 started on: Wednesday, 27 August 2025 12:54AM

    Process ID: 65953
    Host:       Mac.lan
    PSIDATADIR: /Users/joseantoniorodriguesromero/anaconda3/share/psi4
    Memory:     500.0 MiB
    Threads:    1
    
  ==> Input File <==

--------------------------------------------------------------------------
molecule { 
-1 1
O           0.000000           0.000000           0.000000
H           0.000000           0.000000           0.897736
}

set { 
basis              cc-pvtz
reference          uks
maxiter            500
DAMPING_PERCENTAGE 1
E_CONVERGENCE      1.0E-8
D_CONVERGENCE      1.0E-8
DIIS_MAX_VECS      400
MBIS_MAXITER       8000
guess              read
}

E, wfn = energy('b3lyp', restart_file='last_wfn', return_wfn=True)
properties('b3lyp','MBIS_CHARGES', wfn=wfn)
wfn.to_file('last_wfn')
--------------------------------------------------------------------------

Scratch directory: /tmp/
 Found user provided orbital data. Setting orbital guess to READ 
 Copying restart file <last_wfn.npy> to </tmp/scan_HO_19.default.65953.180.npy> for internal processing
   => Libint2 <=

    Primary   basis highest AM E, G, H:  6, 6, 3
    Auxiliary basis highest AM E, G, H:  7, 7, 4
    Onebody   basis highest AM E, G, H:  -, -, -
    Solid Harmonics ordering:            Gaussian

*** tstart() called on Mac.lan
*** at Wed Aug 27 00:54:50 2025

   => Loading Basis Set <=

    Name: CC-PVTZ
    Role: ORBITAL
    Keyword: BASIS
    atoms 1 entry O          line   262 file /Users/joseantoniorodriguesromero/anaconda3/share/psi4/basis/cc-pvtz.gbs 
    atoms 2 entry H          line    23 file /Users/joseantoniorodriguesromero/anaconda3/share/psi4/basis/cc-pvtz.gbs 


         ---------------------------------------------------------
                                   SCF
               by Justin Turney, Rob Parrish, Andy Simmonett
                          and Daniel G. A. Smith
                              UKS Reference
                        1 Threads,    500 MiB Core
         ---------------------------------------------------------

  ==> Geometry <==

    Molecular point group: c2v
    Full point group: C_inf_v

    Geometry (in Angstrom), charge = -1, multiplicity = 1:

       Center              X                  Y                   Z               Mass       
    ------------   -----------------  -----------------  -----------------  -----------------
         O            0.000000000000     0.000000000000    -0.053212648765    15.994914619570
         H            0.000000000000     0.000000000000     0.844523351235     1.007825032230

  Running in c2v symmetry.

  Rotational constants: A = ************  B =     22.06231  C =     22.06231 [cm^-1]
  Rotational constants: A = ************  B = 661411.51974  C = 661411.51974 [MHz]
  Nuclear repulsion =    4.715659932719642

  Charge       = -1
  Multiplicity = 1
  Electrons    = 10
  Nalpha       = 5
  Nbeta        = 5

  ==> Algorithm <==

  SCF Algorithm Type is DF.
  DIIS enabled.
  MOM disabled.
  Fractional occupation disabled.
  Guess Type is READ.
  Energy threshold   = 1.00e-08
  Density threshold  = 1.00e-08
  Integral threshold = 1.00e-12

  ==> Primary Basis <==

  Basis Set: CC-PVTZ
    Blend: CC-PVTZ
    Number of shells: 16
    Number of basis functions: 44
    Number of Cartesian functions: 50
    Spherical Harmonics?: true
    Max angular momentum: 3

  ==> DFT Potential <==

   => LibXC <=

    Version 6.2.2
    S. Lehtola, C. Steigemann, M. J.T. Oliveira, and M. A.L. Marques.,  SoftwareX 7, 1–5 (2018) (10.1016/j.softx.2017.11.002)

   => Composite Functional: B3LYP <= 

    B3LYP Hyb-GGA Exchange-Correlation Functional

    P. J. Stephens, F. J. Devlin, C. F. Chabalowski, and M. J. Frisch.,  J. Phys. Chem. 98, 11623 (1994) (10.1021/j100096a001)

    Deriv               =              1
    GGA                 =           TRUE
    Meta                =          FALSE

    Exchange Hybrid     =           TRUE
    MP2 Hybrid          =          FALSE

   => Exchange Functionals <=

    0.0800   Slater exchange
    0.7200         Becke 88

   => Exact (HF) Exchange <=

    0.2000               HF 

   => Correlation Functionals <=

    0.1900   Vosko, Wilk & Nusair (VWN5_RPA)
    0.8100   Lee, Yang & Parr

   => LibXC Density Thresholds  <==

    XC_HYB_GGA_XC_B3LYP:  1.00E-15 

   => Molecular Quadrature <=

    Radial Scheme          =       TREUTLER
    Pruning Scheme         =           NONE
    Nuclear Scheme         =       TREUTLER

    Blocking Scheme        =         OCTREE
    BS radius alpha        =              1
    Pruning alpha          =              1
    Radial Points          =             75
    Spherical Points       =            302
    Total Points           =          44120
    Total Blocks           =            390
    Max Points             =            256
    Max Functions          =             44
    Weights Tolerance      =       1.00E-15

   => Loading Basis Set <=

    Name: (CC-PVTZ AUX)
    Role: JKFIT
    Keyword: DF_BASIS_SCF
    atoms 1 entry O          line   229 file /Users/joseantoniorodriguesromero/anaconda3/share/psi4/basis/cc-pvtz-jkfit.gbs 
    atoms 2 entry H          line    51 file /Users/joseantoniorodriguesromero/anaconda3/share/psi4/basis/cc-pvtz-jkfit.gbs 

   => Loading Basis Set <=

    Name: CC-PVTZ
    Role: ORBITAL
    Keyword: BASIS
    atoms 1 entry O          line   262 file /Users/joseantoniorodriguesromero/anaconda3/share/psi4/basis/cc-pvtz.gbs 
    atoms 2 entry H          line    23 file /Users/joseantoniorodriguesromero/anaconda3/share/psi4/basis/cc-pvtz.gbs 

  Reading orbitals from file /tmp/scan_HO_19.default.65953.180.npy, no projection.

  ==> Integral Setup <==

  DFHelper Memory: AOs need 0.002 GiB; user supplied 0.312 GiB. 
  Using in-core AOs.

  ==> MemDFJK: Density-Fitted J/K Matrices <==

    J tasked:                   Yes
    K tasked:                   Yes
    wK tasked:                   No
    OpenMP threads:               1
    Memory [MiB]:               319
    Algorithm:                 Core
    Schwarz Cutoff:           1E-12
    Mask sparsity (%):       0.0000
    Fitting Condition:        1E-10

   => Auxiliary Basis Set <=

  Basis Set: (CC-PVTZ AUX)
    Blend: CC-PVTZ-JKFIT
    Number of shells: 35
    Number of basis functions: 109
    Number of Cartesian functions: 131
    Spherical Harmonics?: true
    Max angular momentum: 4

  Cached 100.0% of DFT collocation blocks in 0.055 [GiB].

  Minimum eigenvalue in the overlap matrix is 3.1409077280E-03.
  Reciprocal condition number of the overlap matrix is 7.7912834518E-04.
    Using symmetric orthogonalization.

  ==> Pre-Iterations <==

  SCF Guess: Orbitals guess was supplied from a previous computation.

   -------------------------------------------------------
    Irrep   Nso     Nmo     Nalpha   Nbeta   Ndocc  Nsocc
   -------------------------------------------------------
     A1        20      20       3       3       3       0
     A2         4       4       0       0       0       0
     B1        10      10       1       1       1       0
     B2        10      10       1       1       1       0
   -------------------------------------------------------
    Total      44      44       5       5       5       0
   -------------------------------------------------------

  ==> Iterations <==

                           Total Energy        Delta E     RMS |[F,P]|

   @DF-UKS iter   0:   -75.79138707539609   -7.57914e+01   3.37516e-03 
   @DF-UKS iter   1:   -75.78497781676802    6.40926e-03   4.92284e-04 DIIS/ADIIS
   @DF-UKS iter   2:   -75.78502019060487   -4.23738e-05   2.73823e-04 DIIS/ADIIS/DAMP=1%
   @DF-UKS iter   3:   -75.78497149222198    4.86984e-05   6.34304e-05 DIIS/DAMP=1%
   @DF-UKS iter   4:   -75.78507846160920   -1.06969e-04   8.72462e-06 DIIS/DAMP=1%
   @DF-UKS iter   5:   -75.78503333908640    4.51225e-05   7.88152e-07 DIIS/DAMP=1%
   @DF-UKS iter   6:   -75.78503687122975   -3.53214e-06   6.52063e-08 DIIS/DAMP=1%
   @DF-UKS iter   7:   -75.78503728087074   -4.09641e-07   8.92793e-09 DIIS/DAMP=1%
   @DF-UKS iter   8:   -75.78503731147910   -3.06084e-08   6.22654e-10 DIIS/DAMP=1%
   @DF-UKS iter   9:   -75.78503731578201   -4.30290e-09   1.59586e-11 DIIS/DAMP=1%
  Energy and wave function converged.


  ==> Post-Iterations <==

   Electrons on quadrature grid:
      Nalpha   =    4.9999999795 ; deviation = -2.046e-08
      Nbeta    =    4.9999999795 ; deviation = -2.046e-08
      Ntotal   =    9.9999999591 ; deviation = -4.093e-08 

   @Spin Contamination Metric:   5.329070518E-15
   @S^2 Expected:                0.000000000E+00
   @S^2 Observed:                5.329070518E-15
   @S   Expected:                0.000000000E+00
   @S   Observed:                0.000000000E+00

    Orbital Energies [Eh]
    ---------------------

    Alpha Occupied:                                                       

       1A1   -18.657011     2A1    -0.535178     3A1    -0.025373  
       1B1     0.120152     1B2     0.120152  

    Alpha Virtual:                                                        

       4A1     0.321334     5A1     0.768108     6A1     0.851431  
       2B2     0.947248     2B1     0.947248     3B1     1.068158  
       3B2     1.068158     7A1     1.232839     8A1     1.729097  
       1A2     1.887941     9A1     1.887941     4B1     2.215290  
       4B2     2.215290    10A1     2.237309    11A1     2.907534  
       2A2     3.625965    12A1     3.625965     5B2     3.821114  
       5B1     3.821114     6B2     4.047681     6B1     4.047681  
      13A1     4.159559     7B1     4.564250     7B2     4.564250  
      14A1     4.932679    15A1     5.189842     8B2     5.589944  
       8B1     5.589944    16A1     5.930140     3A2     5.930140  
       4A2     6.681161    17A1     6.681161     9B1     6.862014  
       9B2     6.862014    18A1     7.026764    10B2     7.282866  
      10B1     7.282866    19A1     7.593621    20A1    11.323248  

    Beta Occupied:                                                        

       1A1   -18.657011     2A1    -0.535178     3A1    -0.025373  
       1B1     0.120152     1B2     0.120152  

    Beta Virtual:                                                         

       4A1     0.321334     5A1     0.768108     6A1     0.851431  
       2B2     0.947248     2B1     0.947248     3B1     1.068158  
       3B2     1.068158     7A1     1.232839     8A1     1.729097  
       1A2     1.887941     9A1     1.887941     4B1     2.215290  
       4B2     2.215290    10A1     2.237309    11A1     2.907534  
       2A2     3.625965    12A1     3.625965     5B2     3.821114  
       5B1     3.821114     6B2     4.047681     6B1     4.047681  
      13A1     4.159559     7B1     4.564250     7B2     4.564250  
      14A1     4.932679    15A1     5.189842     8B2     5.589944  
       8B1     5.589944    16A1     5.930140     3A2     5.930140  
       4A2     6.681161    17A1     6.681161     9B1     6.862014  
       9B2     6.862014    18A1     7.026764    10B2     7.282866  
      10B1     7.282866    19A1     7.593621    20A1    11.323248  

    Final Occupation by Irrep:
             A1    A2    B1    B2 
    DOCC [     3,    0,    1,    1 ]
    SOCC [     0,    0,    0,    0 ]
    NA   [     3,    0,    1,    1 ]
    NB   [     3,    0,    1,    1 ]

  @DF-UKS Final Energy:   -75.78503731578201

   => Energetics <=

    Nuclear Repulsion Energy =              4.7156599327196416
    One-Electron Energy =                -117.6635661059491440
    Two-Electron Energy =                  44.6590102744801385
    DFT Exchange-Correlation Energy =      -7.4961414170326393
    Empirical Dispersion Energy =           0.0000000000000000
    VV10 Nonlocal Energy =                  0.0000000000000000
    Total Energy =                        -75.7850373157820059

  UHF NO Occupations:
  HONO-2 :    2 A1 2.0000000
  HONO-1 :    1 B2 2.0000000
  HONO-0 :    3 A1 2.0000000
  LUNO+0 :    4 A1 0.0000000
  LUNO+1 :    5 A1 0.0000000
  LUNO+2 :    6 A1 0.0000000
  LUNO+3 :    2 B2 0.0000000


Computation Completed


Properties will be evaluated at   0.000000,   0.000000,   0.000000 [a0]

Properties computed using the SCF density matrix


 Multipole Moments:

 ------------------------------------------------------------------------------------
     Multipole            Electronic (a.u.)      Nuclear  (a.u.)        Total (a.u.)
 ------------------------------------------------------------------------------------

 L = 1.  Multiply by 2.5417464519 to convert [e a0] to [Debye]
 Dipole X            :          0.0000000            0.0000000            0.0000000
 Dipole Y            :          0.0000000            0.0000000            0.0000000
 Dipole Z            :         -0.3052411            0.7914592            0.4862181
 Magnitude           :                                                    0.4862181

 ------------------------------------------------------------------------------------

*** tstop() called on Mac.lan at Wed Aug 27 00:54:56 2025
Module time:
	user time   =      53.37 seconds =       0.89 minutes
	system time =       2.34 seconds =       0.04 minutes
	total time  =          6 seconds =       0.10 minutes
Total time:
	user time   =      53.37 seconds =       0.89 minutes
	system time =       2.34 seconds =       0.04 minutes
	total time  =          6 seconds =       0.10 minutes

*** tstart() called on Mac.lan
*** at Wed Aug 27 00:54:56 2025

   => Libint2 <=

    Primary   basis highest AM E, G, H:  6, 6, 3
    Auxiliary basis highest AM E, G, H:  7, 7, 4
    Onebody   basis highest AM E, G, H:  -, -, -
    Solid Harmonics ordering:            Gaussian
   => Loading Basis Set <=

    Name: CC-PVTZ
    Role: ORBITAL
    Keyword: BASIS
    atoms 1 entry O          line   262 file /Users/joseantoniorodriguesromero/anaconda3/share/psi4/basis/cc-pvtz.gbs 
    atoms 2 entry H          line    23 file /Users/joseantoniorodriguesromero/anaconda3/share/psi4/basis/cc-pvtz.gbs 


         ---------------------------------------------------------
                                   SCF
               by Justin Turney, Rob Parrish, Andy Simmonett
                          and Daniel G. A. Smith
                              UKS Reference
                        1 Threads,    500 MiB Core
         ---------------------------------------------------------

  ==> Geometry <==

    Molecular point group: c2v
    Full point group: C_inf_v

    Geometry (in Angstrom), charge = -1, multiplicity = 1:

       Center              X                  Y                   Z               Mass       
    ------------   -----------------  -----------------  -----------------  -----------------
         O            0.000000000000     0.000000000000    -0.053212648765    15.994914619570
         H            0.000000000000     0.000000000000     0.844523351235     1.007825032230

  Running in c2v symmetry.

  Rotational constants: A = ************  B =     22.06231  C =     22.06231 [cm^-1]
  Rotational constants: A = ************  B = 661411.51974  C = 661411.51974 [MHz]
  Nuclear repulsion =    4.715659932719642

  Charge       = -1
  Multiplicity = 1
  Electrons    = 10
  Nalpha       = 5
  Nbeta        = 5

  ==> Algorithm <==

  SCF Algorithm Type is DF.
  DIIS enabled.
  MOM disabled.
  Fractional occupation disabled.
  Guess Type is READ.
  Energy threshold   = 1.00e-08
  Density threshold  = 1.00e-08
  Integral threshold = 1.00e-12

  ==> Primary Basis <==

  Basis Set: CC-PVTZ
    Blend: CC-PVTZ
    Number of shells: 16
    Number of basis functions: 44
    Number of Cartesian functions: 50
    Spherical Harmonics?: true
    Max angular momentum: 3

  ==> DFT Potential <==

   => LibXC <=

    Version 6.2.2
    S. Lehtola, C. Steigemann, M. J.T. Oliveira, and M. A.L. Marques.,  SoftwareX 7, 1–5 (2018) (10.1016/j.softx.2017.11.002)

   => Composite Functional: B3LYP <= 

    B3LYP Hyb-GGA Exchange-Correlation Functional

    P. J. Stephens, F. J. Devlin, C. F. Chabalowski, and M. J. Frisch.,  J. Phys. Chem. 98, 11623 (1994) (10.1021/j100096a001)

    Deriv               =              1
    GGA                 =           TRUE
    Meta                =          FALSE

    Exchange Hybrid     =           TRUE
    MP2 Hybrid          =          FALSE

   => Exchange Functionals <=

    0.0800   Slater exchange
    0.7200         Becke 88

   => Exact (HF) Exchange <=

    0.2000               HF 

   => Correlation Functionals <=

    0.1900   Vosko, Wilk & Nusair (VWN5_RPA)
    0.8100   Lee, Yang & Parr

   => LibXC Density Thresholds  <==

    XC_HYB_GGA_XC_B3LYP:  1.00E-15 

   => Molecular Quadrature <=

    Radial Scheme          =       TREUTLER
    Pruning Scheme         =           NONE
    Nuclear Scheme         =       TREUTLER

    Blocking Scheme        =         OCTREE
    BS radius alpha        =              1
    Pruning alpha          =              1
    Radial Points          =             75
    Spherical Points       =            302
    Total Points           =          44120
    Total Blocks           =            390
    Max Points             =            256
    Max Functions          =             44
    Weights Tolerance      =       1.00E-15

   => Loading Basis Set <=

    Name: (CC-PVTZ AUX)
    Role: JKFIT
    Keyword: DF_BASIS_SCF
    atoms 1 entry O          line   229 file /Users/joseantoniorodriguesromero/anaconda3/share/psi4/basis/cc-pvtz-jkfit.gbs 
    atoms 2 entry H          line    51 file /Users/joseantoniorodriguesromero/anaconda3/share/psi4/basis/cc-pvtz-jkfit.gbs 

   => Loading Basis Set <=

    Name: CC-PVTZ
    Role: ORBITAL
    Keyword: BASIS
    atoms 1 entry O          line   262 file /Users/joseantoniorodriguesromero/anaconda3/share/psi4/basis/cc-pvtz.gbs 
    atoms 2 entry H          line    23 file /Users/joseantoniorodriguesromero/anaconda3/share/psi4/basis/cc-pvtz.gbs 

  Reading orbitals from file /tmp/scan_HO_19.default.65953.180.npy, no projection.

  ==> Integral Setup <==

  DFHelper Memory: AOs need 0.002 GiB; user supplied 0.312 GiB. 
  Using in-core AOs.

  ==> MemDFJK: Density-Fitted J/K Matrices <==

    J tasked:                   Yes
    K tasked:                   Yes
    wK tasked:                   No
    OpenMP threads:               1
    Memory [MiB]:               319
    Algorithm:                 Core
    Schwarz Cutoff:           1E-12
    Mask sparsity (%):       0.0000
    Fitting Condition:        1E-10

   => Auxiliary Basis Set <=

  Basis Set: (CC-PVTZ AUX)
    Blend: CC-PVTZ-JKFIT
    Number of shells: 35
    Number of basis functions: 109
    Number of Cartesian functions: 131
    Spherical Harmonics?: true
    Max angular momentum: 4

  Cached 100.0% of DFT collocation blocks in 0.055 [GiB].

  Minimum eigenvalue in the overlap matrix is 3.1409077280E-03.
  Reciprocal condition number of the overlap matrix is 7.7912834518E-04.
    Using symmetric orthogonalization.

  ==> Pre-Iterations <==

  SCF Guess: Orbitals guess was supplied from a previous computation.

   -------------------------------------------------------
    Irrep   Nso     Nmo     Nalpha   Nbeta   Ndocc  Nsocc
   -------------------------------------------------------
     A1        20      20       3       3       3       0
     A2         4       4       0       0       0       0
     B1        10      10       1       1       1       0
     B2        10      10       1       1       1       0
   -------------------------------------------------------
    Total      44      44       5       5       5       0
   -------------------------------------------------------

  ==> Iterations <==

                           Total Energy        Delta E     RMS |[F,P]|

   @DF-UKS iter   0:   -75.78503731616249   -7.57850e+01   7.15138e-12 
   @DF-UKS iter   1:   -75.78503731616239    9.94760e-14   1.18313e-11 DIIS
  Energy and wave function converged.


  ==> Post-Iterations <==

   Electrons on quadrature grid:
      Nalpha   =    4.9999999795 ; deviation = -2.046e-08
      Nbeta    =    4.9999999795 ; deviation = -2.046e-08
      Ntotal   =    9.9999999591 ; deviation = -4.093e-08 

   @Spin Contamination Metric:   3.552713679E-15
   @S^2 Expected:                0.000000000E+00
   @S^2 Observed:                3.552713679E-15
   @S   Expected:                0.000000000E+00
   @S   Observed:                0.000000000E+00

    Orbital Energies [Eh]
    ---------------------

    Alpha Occupied:                                                       

       1A1   -18.657011     2A1    -0.535178     3A1    -0.025373  
       1B1     0.120152     1B2     0.120152  

    Alpha Virtual:                                                        

       4A1     0.321334     5A1     0.768108     6A1     0.851431  
       2B2     0.947248     2B1     0.947248     3B1     1.068158  
       3B2     1.068158     7A1     1.232839     8A1     1.729097  
       1A2     1.887941     9A1     1.887941     4B1     2.215290  
       4B2     2.215290    10A1     2.237309    11A1     2.907534  
       2A2     3.625965    12A1     3.625965     5B2     3.821114  
       5B1     3.821114     6B2     4.047681     6B1     4.047681  
      13A1     4.159559     7B1     4.564250     7B2     4.564250  
      14A1     4.932679    15A1     5.189842     8B2     5.589944  
       8B1     5.589944    16A1     5.930140     3A2     5.930140  
       4A2     6.681161    17A1     6.681161     9B1     6.862014  
       9B2     6.862014    18A1     7.026764    10B2     7.282866  
      10B1     7.282866    19A1     7.593621    20A1    11.323248  

    Beta Occupied:                                                        

       1A1   -18.657011     2A1    -0.535178     3A1    -0.025373  
       1B1     0.120152     1B2     0.120152  

    Beta Virtual:                                                         

       4A1     0.321334     5A1     0.768108     6A1     0.851431  
       2B2     0.947248     2B1     0.947248     3B1     1.068158  
       3B2     1.068158     7A1     1.232839     8A1     1.729097  
       1A2     1.887941     9A1     1.887941     4B1     2.215290  
       4B2     2.215290    10A1     2.237309    11A1     2.907534  
       2A2     3.625965    12A1     3.625965     5B2     3.821114  
       5B1     3.821114     6B2     4.047681     6B1     4.047681  
      13A1     4.159559     7B1     4.564250     7B2     4.564250  
      14A1     4.932679    15A1     5.189842     8B2     5.589944  
       8B1     5.589944    16A1     5.930140     3A2     5.930140  
       4A2     6.681161    17A1     6.681161     9B2     6.862014  
       9B1     6.862014    18A1     7.026764    10B2     7.282866  
      10B1     7.282866    19A1     7.593621    20A1    11.323248  

    Final Occupation by Irrep:
             A1    A2    B1    B2 
    DOCC [     3,    0,    1,    1 ]
    SOCC [     0,    0,    0,    0 ]
    NA   [     3,    0,    1,    1 ]
    NB   [     3,    0,    1,    1 ]

  @DF-UKS Final Energy:   -75.78503731616239

   => Energetics <=

    Nuclear Repulsion Energy =              4.7156599327196416
    One-Electron Energy =                -117.6635661083828381
    Two-Electron Energy =                  44.6590102767924932
    DFT Exchange-Correlation Energy =      -7.4961414172916951
    Empirical Dispersion Energy =           0.0000000000000000
    VV10 Nonlocal Energy =                  0.0000000000000000
    Total Energy =                        -75.7850373161623878

  UHF NO Occupations:
  HONO-2 :    2 A1 2.0000000
  HONO-1 :    1 B2 2.0000000
  HONO-0 :    3 A1 2.0000000
  LUNO+0 :    4 A1 0.0000000
  LUNO+1 :    5 A1 0.0000000
  LUNO+2 :    6 A1 0.0000000
  LUNO+3 :    7 A1 0.0000000


Computation Completed


Properties will be evaluated at   0.000000,   0.000000,   0.000000 [a0]

Properties computed using the B3LYP density matrix


 Multipole Moments:

 ------------------------------------------------------------------------------------
     Multipole            Electronic (a.u.)      Nuclear  (a.u.)        Total (a.u.)
 ------------------------------------------------------------------------------------

 L = 1.  Multiply by 2.5417464519 to convert [e a0] to [Debye]
 Dipole X            :          0.0000000            0.0000000            0.0000000
 Dipole Y            :          0.0000000            0.0000000            0.0000000
 Dipole Z            :         -0.3052411            0.7914592            0.4862181
 Magnitude           :                                                    0.4862181

 L = 2.  Multiply by 1.3450342976 to convert [e a0^2] to [Debye ang]
 Quadrupole XX       :         -6.2418187            0.0000000           -6.2418187
 Quadrupole XY       :          0.0000000            0.0000000            0.0000000
 Quadrupole XZ       :          0.0000000            0.0000000            0.0000000
 Quadrupole YY       :         -6.2418187            0.0000000           -6.2418187
 Quadrupole YZ       :          0.0000000            0.0000000            0.0000000
 Quadrupole ZZ       :         -7.7101940            2.6278480           -5.0823460
 Traceless XX        :          0.4894584           -0.8759493           -0.3864909
 Traceless YY        :          0.4894584           -0.8759493           -0.3864909
 Traceless ZZ        :         -0.9789168            1.7518986            0.7729818

 ------------------------------------------------------------------------------------
  ==> Computing MBIS Charges <==

  Electron Count from Grid (Expected Number): 10.00000 (10.00000)
  Difference: -0.00000

  MBIS Charges: (a.u.)
   Center  Symbol  Z      Pop.       Charge
      1       O    8    9.293602   -1.293602
      2       H    1    0.706398    0.293602

  MBIS Dipoles: [e a0]
   Center  Symbol  Z        X           Y           Z
      1       O    8    0.000000   -0.000000   -0.124318
      2       H    1    0.000000   -0.000000    0.011890

  MBIS Quadrupoles: [e a0^2]
   Center  Symbol  Z      XX        XY        XZ        YY        YZ        ZZ
      1       O    8   -5.8135   -0.0000    0.0000   -5.8135   -0.0000   -5.4513
      2       H    1   -0.4283   -0.0000    0.0000   -0.4283    0.0000   -0.4287

  MBIS Octupoles: [e a0^3]
   Center  Symbol  Z      XXX       XXY       XXZ       XYY       XYZ       XZZ       YYY       YYZ       YZZ       ZZZ
      1       O    8    0.0000   -0.0000   -0.1459    0.0000   -0.0000    0.0000   -0.0000   -0.1459   -0.0000   -0.8555
      2       H    1    0.0000   -0.0000    0.0015    0.0000    0.0000    0.0000   -0.0000    0.0015   -0.0000   -0.0097

  MBIS Radial Moments:
   Center  Symbol  Z      [a0^2]      [a0^3]      [a0^4]      
      1       O    8   17.078286   36.182406   90.647944
      2       H    1    1.285361    2.507542    5.811335

  MBIS Valence Widths: [a0]
   Center  Symbol  Z     Width
      1       O    8    0.433726
      2       H    1    0.387921

*** tstop() called on Mac.lan at Wed Aug 27 00:54:57 2025
Module time:
	user time   =      14.06 seconds =       0.23 minutes
	system time =       2.41 seconds =       0.04 minutes
	total time  =          1 seconds =       0.02 minutes
Total time:
	user time   =      67.53 seconds =       1.13 minutes
	system time =       4.81 seconds =       0.08 minutes
	total time  =          7 seconds =       0.12 minutes

    Psi4 stopped on: Wednesday, 27 August 2025 12:54AM
    Psi4 wall time for execution: 0:00:07.26

*** Psi4 exiting successfully. Buy a developer a beer!
