
    -----------------------------------------------------------------------
          Psi4: An Open-Source Ab Initio Electronic Structure Package
                               Psi4 1.9.1 release

                         Git: Rev {} zzzzzzz 


    D. G. A. Smith, L. A. Burns, A. C. Simmonett, R. M. Parrish,
    M. C. Schieber, R. Galvelis, P. Kraus, H. Kruse, R. Di Remigio,
    A. Alenaizan, A. M. James, S. Lehtola, J. P. Misiewicz, M. Scheurer,
    R. A. Shaw, J. B. Schriber, Y. Xie, Z. L. Glick, D. A. Sirianni,
    J. S. O'Brien, J. M. Waldrop, A. Kumar, E. G. Hohenstein,
    B. P. Pritchard, B. R. Brooks, H. F. Schaefer III, A. Yu. Sokolov,
    K. Patkowski, A. E. DePrince III, U. Bozkaya, R. A. King,
    F. A. Evangelista, J. M. Turney, T. D. Crawford, C. D. Sherrill,
    J. Chem. Phys. 152(18) 184108 (2020). https://doi.org/10.1063/5.0006002

                            Additional Code Authors
    E. T. Seidl, C. L. Janssen, E. F. Valeev, M. L. Leininger,
    J. F. Gonthier, R. M. Richard, H. R. McAlexander, M. Saitow, X. Wang,
    P. Verma, M. H. Lechner, A. Jiang, S. Behnle, A. G. Heide,
    M. F. Herbst, and D. L. Poole

             Previous Authors, Complete List of Code Contributors,
                       and Citations for Specific Modules
    https://github.com/psi4/psi4/blob/master/codemeta.json
    https://github.com/psi4/psi4/graphs/contributors
    http://psicode.org/psi4manual/master/introduction.html#citing-psifour

    -----------------------------------------------------------------------


    Psi4 started on: Wednesday, 27 August 2025 12:29AM

    Process ID: 65163
    Host:       Mac.lan
    PSIDATADIR: /Users/joseantoniorodriguesromero/anaconda3/share/psi4
    Memory:     500.0 MiB
    Threads:    1
    
  ==> Input File <==

--------------------------------------------------------------------------
molecule { 
-1 2
C           0.000000           0.000000           0.000000
C           0.000000           0.000000           0.507735
}

set { 
basis              cc-pvtz
reference          uks
maxiter            500
DAMPING_PERCENTAGE 1
E_CONVERGENCE      1.0E-8
D_CONVERGENCE      1.0E-8
DIIS_MAX_VECS      400
MBIS_MAXITER       8000
guess              read
}

E, wfn = energy('b3lyp', restart_file='last_wfn', return_wfn=True)
properties('b3lyp','MBIS_CHARGES', wfn=wfn)
wfn.to_file('last_wfn')
--------------------------------------------------------------------------

Scratch directory: /tmp/
 Found user provided orbital data. Setting orbital guess to READ 
 Copying restart file <last_wfn.npy> to </tmp/scan_CC_4.default.65163.180.npy> for internal processing
   => Libint2 <=

    Primary   basis highest AM E, G, H:  6, 6, 3
    Auxiliary basis highest AM E, G, H:  7, 7, 4
    Onebody   basis highest AM E, G, H:  -, -, -
    Solid Harmonics ordering:            Gaussian

*** tstart() called on Mac.lan
*** at Wed Aug 27 00:29:42 2025

   => Loading Basis Set <=

    Name: CC-PVTZ
    Role: ORBITAL
    Keyword: BASIS
    atoms 1-2 entry C          line   186 file /Users/joseantoniorodriguesromero/anaconda3/share/psi4/basis/cc-pvtz.gbs 


         ---------------------------------------------------------
                                   SCF
               by Justin Turney, Rob Parrish, Andy Simmonett
                          and Daniel G. A. Smith
                              UKS Reference
                        1 Threads,    500 MiB Core
         ---------------------------------------------------------

  ==> Geometry <==

    Molecular point group: d2h
    Full point group: D_inf_h

    Geometry (in Angstrom), charge = -1, multiplicity = 2:

       Center              X                  Y                   Z               Mass       
    ------------   -----------------  -----------------  -----------------  -----------------
         C            0.000000000000     0.000000000000    -0.253867500000    12.000000000000
         C            0.000000000000     0.000000000000     0.253867500000    12.000000000000

  Running in d2h symmetry.

  Rotational constants: A = ************  B =     10.89861  C =     10.89861 [cm^-1]
  Rotational constants: A = ************  B = 326732.05562  C = 326732.05562 [MHz]
  Nuclear repulsion =   37.520319820615093

  Charge       = -1
  Multiplicity = 2
  Electrons    = 13
  Nalpha       = 7
  Nbeta        = 6

  ==> Algorithm <==

  SCF Algorithm Type is DF.
  DIIS enabled.
  MOM disabled.
  Fractional occupation disabled.
  Guess Type is READ.
  Energy threshold   = 1.00e-08
  Density threshold  = 1.00e-08
  Integral threshold = 1.00e-12

  ==> Primary Basis <==

  Basis Set: CC-PVTZ
    Blend: CC-PVTZ
    Number of shells: 20
    Number of basis functions: 60
    Number of Cartesian functions: 70
    Spherical Harmonics?: true
    Max angular momentum: 3

  ==> DFT Potential <==

   => LibXC <=

    Version 6.2.2
    S. Lehtola, C. Steigemann, M. J.T. Oliveira, and M. A.L. Marques.,  SoftwareX 7, 1–5 (2018) (10.1016/j.softx.2017.11.002)

   => Composite Functional: B3LYP <= 

    B3LYP Hyb-GGA Exchange-Correlation Functional

    P. J. Stephens, F. J. Devlin, C. F. Chabalowski, and M. J. Frisch.,  J. Phys. Chem. 98, 11623 (1994) (10.1021/j100096a001)

    Deriv               =              1
    GGA                 =           TRUE
    Meta                =          FALSE

    Exchange Hybrid     =           TRUE
    MP2 Hybrid          =          FALSE

   => Exchange Functionals <=

    0.0800   Slater exchange
    0.7200         Becke 88

   => Exact (HF) Exchange <=

    0.2000               HF 

   => Correlation Functionals <=

    0.1900   Vosko, Wilk & Nusair (VWN5_RPA)
    0.8100   Lee, Yang & Parr

   => LibXC Density Thresholds  <==

    XC_HYB_GGA_XC_B3LYP:  1.00E-15 

   => Molecular Quadrature <=

    Radial Scheme          =       TREUTLER
    Pruning Scheme         =           NONE
    Nuclear Scheme         =       TREUTLER

    Blocking Scheme        =         OCTREE
    BS radius alpha        =              1
    Pruning alpha          =              1
    Radial Points          =             75
    Spherical Points       =            302
    Total Points           =          42712
    Total Blocks           =            386
    Max Points             =            252
    Max Functions          =             60
    Weights Tolerance      =       1.00E-15

   => Loading Basis Set <=

    Name: (CC-PVTZ AUX)
    Role: JKFIT
    Keyword: DF_BASIS_SCF
    atoms 1-2 entry C          line   125 file /Users/joseantoniorodriguesromero/anaconda3/share/psi4/basis/cc-pvtz-jkfit.gbs 

   => Loading Basis Set <=

    Name: CC-PVTZ
    Role: ORBITAL
    Keyword: BASIS
    atoms 1-2 entry C          line   186 file /Users/joseantoniorodriguesromero/anaconda3/share/psi4/basis/cc-pvtz.gbs 

  Reading orbitals from file /tmp/scan_CC_4.default.65163.180.npy, no projection.

  ==> Integral Setup <==

  DFHelper Memory: AOs need 0.005 GiB; user supplied 0.293 GiB. 
  Using in-core AOs.

  ==> MemDFJK: Density-Fitted J/K Matrices <==

    J tasked:                   Yes
    K tasked:                   Yes
    wK tasked:                   No
    OpenMP threads:               1
    Memory [MiB]:               300
    Algorithm:                 Core
    Schwarz Cutoff:           1E-12
    Mask sparsity (%):       0.0000
    Fitting Condition:        1E-10

   => Auxiliary Basis Set <=

  Basis Set: (CC-PVTZ AUX)
    Blend: CC-PVTZ-JKFIT
    Number of shells: 50
    Number of basis functions: 158
    Number of Cartesian functions: 192
    Spherical Harmonics?: true
    Max angular momentum: 4

  Cached 100.0% of DFT collocation blocks in 0.073 [GiB].

  Minimum eigenvalue in the overlap matrix is 5.3802445563E-04.
  Reciprocal condition number of the overlap matrix is 1.2737747914E-04.
    Using symmetric orthogonalization.

  ==> Pre-Iterations <==

  SCF Guess: Orbitals guess was supplied from a previous computation.

   -------------------------------------------------------
    Irrep   Nso     Nmo     Nalpha   Nbeta   Ndocc  Nsocc
   -------------------------------------------------------
     Ag        13      13       3       2       2       1
     B1g        3       3       0       0       0       0
     B2g        7       7       0       0       0       0
     B3g        7       7       0       0       0       0
     Au         3       3       0       0       0       0
     B1u       13      13       2       2       2       0
     B2u        7       7       1       1       1       0
     B3u        7       7       1       1       1       0
   -------------------------------------------------------
    Total      60      60       7       6       6       1
   -------------------------------------------------------

  ==> Iterations <==

                           Total Energy        Delta E     RMS |[F,P]|

   @DF-UKS iter   0:   -71.17122628395936   -7.11712e+01   1.73002e-02 
   @DF-UKS iter   1:   -71.44491135688715   -2.73685e-01   1.15290e-02 ADIIS/DIIS
   @DF-UKS iter   2:   -71.41625742539092    2.86539e-02   1.73557e-02 ADIIS/DIIS/DAMP=1%
   @DF-UKS iter   3:   -71.50946687078279   -9.32094e-02   1.39483e-03 ADIIS/DIIS/DAMP=1%
   @DF-UKS iter   4:   -71.49791807415241    1.15488e-02   1.81466e-04 ADIIS/DIIS/DAMP=1%
   @DF-UKS iter   5:   -71.49626672082385    1.65135e-03   9.52554e-05 DIIS/DAMP=1%
   @DF-UKS iter   6:   -71.49618893841622    7.77824e-05   1.02741e-05 DIIS/DAMP=1%
   @DF-UKS iter   7:   -71.49621958357019   -3.06452e-05   1.03119e-06 DIIS/DAMP=1%
   @DF-UKS iter   8:   -71.49622870582881   -9.12226e-06   2.56808e-07 DIIS/DAMP=1%
   @DF-UKS iter   9:   -71.49622844203316    2.63796e-07   8.47260e-09 DIIS/DAMP=1%
   @DF-UKS iter  10:   -71.49622828284433    1.59189e-07   6.15944e-10 DIIS/DAMP=1%
   @DF-UKS iter  11:   -71.49622827878017    4.06416e-09   1.12087e-10 DIIS/DAMP=1%
  Energy and wave function converged.


  ==> Post-Iterations <==

   Electrons on quadrature grid:
      Nalpha   =    7.0000000745 ; deviation = 7.451e-08
      Nbeta    =    6.0000000704 ; deviation = 7.043e-08
      Ntotal   =   13.0000001449 ; deviation = 1.449e-07 

   @Spin Contamination Metric:   1.725913624E-03
   @S^2 Expected:                7.500000000E-01
   @S^2 Observed:                7.517259136E-01
   @S   Expected:                5.000000000E-01
   @S   Observed:                5.000000000E-01

    Orbital Energies [Eh]
    ---------------------

    Alpha Occupied:                                                       

       1Ag   -11.045748     1B1u  -10.081172     1B3u   -0.448554  
       1B2u   -0.448554     2Ag    -0.388057     2B1u    0.034141  
       3Ag     0.246159  

    Alpha Virtual:                                                        

       3B1u    0.390583     2B2u    0.414974     2B3u    0.414974  
       1B3g    0.427124     1B2g    0.427124     4Ag     0.531202  
       5Ag     0.644866     2B3g    0.869937     2B2g    0.869937  
       6Ag     0.886415     1B1g    0.886415     4B1u    0.986769  
       3B2u    1.244183     3B3u    1.244183     5B1u    1.258126  
       1Au     1.258126     6B1u    1.264880     7Ag     1.422606  
       3B2g    1.634602     3B3g    1.634602     4B2u    1.699619  
       4B3u    1.699619     8Ag     2.428016     2B1g    2.741672  
       9Ag     2.741672     5B3u    2.771274     5B2u    2.771274  
       7B1u    2.786801     8B1u    2.997399     9B1u    3.084316  
       2Au     3.084316     6B2u    3.099520     6B3u    3.099520  
       4B2g    3.136774     4B3g    3.136774    10Ag     3.630931  
       5B2g    3.666683     5B3g    3.666683    11Ag     3.669537  
       3B1g    3.669537     6B2g    3.725036     6B3g    3.725036  
      12Ag     3.733241    13Ag     5.210785    10B1u    5.271546  
      11B1u    5.694738     3Au     5.694739     7B3u    5.895836  
       7B2u    5.895836     7B3g    7.402021     7B2g    7.402021  
      12B1u    9.375809    13B1u   25.098175  

    Beta Occupied:                                                        

       1Ag   -11.024203     1B1u  -10.063270     1B3u   -0.425369  
       1B2u   -0.425369     2Ag    -0.369085     2B1u    0.061924  

    Beta Virtual:                                                         

       3Ag     0.353142     3B1u    0.410748     2B2u    0.419666  
       2B3u    0.419666     1B3g    0.438523     1B2g    0.438523  
       4Ag     0.584222     5Ag     0.648670     2B3g    0.875313  
       2B2g    0.875313     1B1g    0.887722     6Ag     0.887722  
       4B1u    0.997736     5B1u    1.260249     1Au     1.260249  
       3B2u    1.262816     3B3u    1.262816     6B1u    1.293865  
       7Ag     1.459778     3B2g    1.647080     3B3g    1.647080  
       4B2u    1.711312     4B3u    1.711312     8Ag     2.446475  
       2B1g    2.759590     9Ag     2.759591     5B3u    2.777704  
       5B2u    2.777704     7B1u    2.804254     8B1u    3.023087  
       9B1u    3.083829     2Au     3.083829     6B2u    3.115872  
       6B3u    3.115872     4B2g    3.141962     4B3g    3.141962  
      10Ag     3.645115     5B2g    3.663410     5B3g    3.663410  
      11Ag     3.673177     3B1g    3.673177     6B2g    3.740152  
       6B3g    3.740152    12Ag     3.748312    13Ag     5.252055  
      10B1u    5.292775     3Au     5.698840    11B1u    5.698840  
       7B3u    5.918603     7B2u    5.918603     7B3g    7.407785  
       7B2g    7.407785    12B1u    9.404835    13B1u   25.113495  

    Final Occupation by Irrep:
             Ag   B1g   B2g   B3g    Au   B1u   B2u   B3u 
    DOCC [     2,    0,    0,    0,    0,    2,    1,    1 ]
    SOCC [     1,    0,    0,    0,    0,    0,    0,    0 ]
    NA   [     3,    0,    0,    0,    0,    2,    1,    1 ]
    NB   [     2,    0,    0,    0,    0,    2,    1,    1 ]

  @DF-UKS Final Energy:   -71.49622827878017

   => Energetics <=

    Nuclear Repulsion Energy =             37.5203198206150930
    One-Electron Energy =                -166.7476623367661830
    Two-Electron Energy =                  67.3481752643827889
    DFT Exchange-Correlation Energy =      -9.6170610270118733
    Empirical Dispersion Energy =           0.0000000000000000
    VV10 Nonlocal Energy =                  0.0000000000000000
    Total Energy =                        -71.4962282787801655

  UHF NO Occupations:
  HONO-2 :    2 Ag 1.9997884
  HONO-1 :    2B1u 1.9994842
  HONO-0 :    3 Ag 1.0000000
  LUNO+0 :    3B1u 0.0005158
  LUNO+1 :    4 Ag 0.0002116
  LUNO+2 :    2B2u 0.0000676
  LUNO+3 :    2B3u 0.0000676


Computation Completed


Properties will be evaluated at   0.000000,   0.000000,   0.000000 [a0]

Properties computed using the SCF density matrix


 Multipole Moments:

 ------------------------------------------------------------------------------------
     Multipole            Electronic (a.u.)      Nuclear  (a.u.)        Total (a.u.)
 ------------------------------------------------------------------------------------

 L = 1.  Multiply by 2.5417464519 to convert [e a0] to [Debye]
 Dipole X            :          0.0000000            0.0000000            0.0000000
 Dipole Y            :          0.0000000            0.0000000            0.0000000
 Dipole Z            :          0.0000000            0.0000000            0.0000000
 Magnitude           :                                                    0.0000000

 ------------------------------------------------------------------------------------

*** tstop() called on Mac.lan at Wed Aug 27 00:29:46 2025
Module time:
	user time   =      40.87 seconds =       0.68 minutes
	system time =       2.21 seconds =       0.04 minutes
	total time  =          4 seconds =       0.07 minutes
Total time:
	user time   =      40.87 seconds =       0.68 minutes
	system time =       2.21 seconds =       0.04 minutes
	total time  =          4 seconds =       0.07 minutes

*** tstart() called on Mac.lan
*** at Wed Aug 27 00:29:46 2025

   => Libint2 <=

    Primary   basis highest AM E, G, H:  6, 6, 3
    Auxiliary basis highest AM E, G, H:  7, 7, 4
    Onebody   basis highest AM E, G, H:  -, -, -
    Solid Harmonics ordering:            Gaussian
   => Loading Basis Set <=

    Name: CC-PVTZ
    Role: ORBITAL
    Keyword: BASIS
    atoms 1-2 entry C          line   186 file /Users/joseantoniorodriguesromero/anaconda3/share/psi4/basis/cc-pvtz.gbs 


         ---------------------------------------------------------
                                   SCF
               by Justin Turney, Rob Parrish, Andy Simmonett
                          and Daniel G. A. Smith
                              UKS Reference
                        1 Threads,    500 MiB Core
         ---------------------------------------------------------

  ==> Geometry <==

    Molecular point group: d2h
    Full point group: D_inf_h

    Geometry (in Angstrom), charge = -1, multiplicity = 2:

       Center              X                  Y                   Z               Mass       
    ------------   -----------------  -----------------  -----------------  -----------------
         C            0.000000000000     0.000000000000    -0.253867500000    12.000000000000
         C            0.000000000000     0.000000000000     0.253867500000    12.000000000000

  Running in d2h symmetry.

  Rotational constants: A = ************  B =     10.89861  C =     10.89861 [cm^-1]
  Rotational constants: A = ************  B = 326732.05562  C = 326732.05562 [MHz]
  Nuclear repulsion =   37.520319820615093

  Charge       = -1
  Multiplicity = 2
  Electrons    = 13
  Nalpha       = 7
  Nbeta        = 6

  ==> Algorithm <==

  SCF Algorithm Type is DF.
  DIIS enabled.
  MOM disabled.
  Fractional occupation disabled.
  Guess Type is READ.
  Energy threshold   = 1.00e-08
  Density threshold  = 1.00e-08
  Integral threshold = 1.00e-12

  ==> Primary Basis <==

  Basis Set: CC-PVTZ
    Blend: CC-PVTZ
    Number of shells: 20
    Number of basis functions: 60
    Number of Cartesian functions: 70
    Spherical Harmonics?: true
    Max angular momentum: 3

  ==> DFT Potential <==

   => LibXC <=

    Version 6.2.2
    S. Lehtola, C. Steigemann, M. J.T. Oliveira, and M. A.L. Marques.,  SoftwareX 7, 1–5 (2018) (10.1016/j.softx.2017.11.002)

   => Composite Functional: B3LYP <= 

    B3LYP Hyb-GGA Exchange-Correlation Functional

    P. J. Stephens, F. J. Devlin, C. F. Chabalowski, and M. J. Frisch.,  J. Phys. Chem. 98, 11623 (1994) (10.1021/j100096a001)

    Deriv               =              1
    GGA                 =           TRUE
    Meta                =          FALSE

    Exchange Hybrid     =           TRUE
    MP2 Hybrid          =          FALSE

   => Exchange Functionals <=

    0.0800   Slater exchange
    0.7200         Becke 88

   => Exact (HF) Exchange <=

    0.2000               HF 

   => Correlation Functionals <=

    0.1900   Vosko, Wilk & Nusair (VWN5_RPA)
    0.8100   Lee, Yang & Parr

   => LibXC Density Thresholds  <==

    XC_HYB_GGA_XC_B3LYP:  1.00E-15 

   => Molecular Quadrature <=

    Radial Scheme          =       TREUTLER
    Pruning Scheme         =           NONE
    Nuclear Scheme         =       TREUTLER

    Blocking Scheme        =         OCTREE
    BS radius alpha        =              1
    Pruning alpha          =              1
    Radial Points          =             75
    Spherical Points       =            302
    Total Points           =          42712
    Total Blocks           =            386
    Max Points             =            252
    Max Functions          =             60
    Weights Tolerance      =       1.00E-15

   => Loading Basis Set <=

    Name: (CC-PVTZ AUX)
    Role: JKFIT
    Keyword: DF_BASIS_SCF
    atoms 1-2 entry C          line   125 file /Users/joseantoniorodriguesromero/anaconda3/share/psi4/basis/cc-pvtz-jkfit.gbs 

   => Loading Basis Set <=

    Name: CC-PVTZ
    Role: ORBITAL
    Keyword: BASIS
    atoms 1-2 entry C          line   186 file /Users/joseantoniorodriguesromero/anaconda3/share/psi4/basis/cc-pvtz.gbs 

  Reading orbitals from file /tmp/scan_CC_4.default.65163.180.npy, no projection.

  ==> Integral Setup <==

  DFHelper Memory: AOs need 0.005 GiB; user supplied 0.293 GiB. 
  Using in-core AOs.

  ==> MemDFJK: Density-Fitted J/K Matrices <==

    J tasked:                   Yes
    K tasked:                   Yes
    wK tasked:                   No
    OpenMP threads:               1
    Memory [MiB]:               300
    Algorithm:                 Core
    Schwarz Cutoff:           1E-12
    Mask sparsity (%):       0.0000
    Fitting Condition:        1E-10

   => Auxiliary Basis Set <=

  Basis Set: (CC-PVTZ AUX)
    Blend: CC-PVTZ-JKFIT
    Number of shells: 50
    Number of basis functions: 158
    Number of Cartesian functions: 192
    Spherical Harmonics?: true
    Max angular momentum: 4

  Cached 100.0% of DFT collocation blocks in 0.073 [GiB].

  Minimum eigenvalue in the overlap matrix is 5.3802445563E-04.
  Reciprocal condition number of the overlap matrix is 1.2737747914E-04.
    Using symmetric orthogonalization.

  ==> Pre-Iterations <==

  SCF Guess: Orbitals guess was supplied from a previous computation.

   -------------------------------------------------------
    Irrep   Nso     Nmo     Nalpha   Nbeta   Ndocc  Nsocc
   -------------------------------------------------------
     Ag        13      13       3       2       2       1
     B1g        3       3       0       0       0       0
     B2g        7       7       0       0       0       0
     B3g        7       7       0       0       0       0
     Au         3       3       0       0       0       0
     B1u       13      13       2       2       2       0
     B2u        7       7       1       1       1       0
     B3u        7       7       1       1       1       0
   -------------------------------------------------------
    Total      60      60       7       6       6       1
   -------------------------------------------------------

  ==> Iterations <==

                           Total Energy        Delta E     RMS |[F,P]|

   @DF-UKS iter   0:   -71.49622827834335   -7.14962e+01   8.30084e-12 
   @DF-UKS iter   1:   -71.49622827834347   -1.13687e-13   1.09158e-11 DIIS
  Energy and wave function converged.


  ==> Post-Iterations <==

   Electrons on quadrature grid:
      Nalpha   =    7.0000000745 ; deviation = 7.451e-08
      Nbeta    =    6.0000000704 ; deviation = 7.043e-08
      Ntotal   =   13.0000001449 ; deviation = 1.449e-07 

   @Spin Contamination Metric:   1.725913629E-03
   @S^2 Expected:                7.500000000E-01
   @S^2 Observed:                7.517259136E-01
   @S   Expected:                5.000000000E-01
   @S   Observed:                5.000000000E-01

    Orbital Energies [Eh]
    ---------------------

    Alpha Occupied:                                                       

       1Ag   -11.045748     1B1u  -10.081172     1B3u   -0.448554  
       1B2u   -0.448554     2Ag    -0.388057     2B1u    0.034141  
       3Ag     0.246159  

    Alpha Virtual:                                                        

       3B1u    0.390583     2B2u    0.414974     2B3u    0.414974  
       1B3g    0.427124     1B2g    0.427124     4Ag     0.531202  
       5Ag     0.644866     2B3g    0.869937     2B2g    0.869937  
       6Ag     0.886415     1B1g    0.886415     4B1u    0.986769  
       3B2u    1.244183     3B3u    1.244183     5B1u    1.258126  
       1Au     1.258126     6B1u    1.264880     7Ag     1.422606  
       3B2g    1.634602     3B3g    1.634602     4B2u    1.699619  
       4B3u    1.699619     8Ag     2.428016     2B1g    2.741672  
       9Ag     2.741672     5B3u    2.771274     5B2u    2.771274  
       7B1u    2.786801     8B1u    2.997399     9B1u    3.084316  
       2Au     3.084316     6B2u    3.099520     6B3u    3.099520  
       4B2g    3.136774     4B3g    3.136774    10Ag     3.630931  
       5B2g    3.666683     5B3g    3.666683    11Ag     3.669537  
       3B1g    3.669537     6B2g    3.725036     6B3g    3.725036  
      12Ag     3.733241    13Ag     5.210785    10B1u    5.271546  
      11B1u    5.694738     3Au     5.694739     7B3u    5.895836  
       7B2u    5.895836     7B3g    7.402021     7B2g    7.402021  
      12B1u    9.375809    13B1u   25.098175  

    Beta Occupied:                                                        

       1Ag   -11.024203     1B1u  -10.063270     1B3u   -0.425369  
       1B2u   -0.425369     2Ag    -0.369085     2B1u    0.061924  

    Beta Virtual:                                                         

       3Ag     0.353142     3B1u    0.410748     2B2u    0.419666  
       2B3u    0.419666     1B3g    0.438523     1B2g    0.438523  
       4Ag     0.584222     5Ag     0.648670     2B3g    0.875313  
       2B2g    0.875313     1B1g    0.887722     6Ag     0.887722  
       4B1u    0.997736     5B1u    1.260249     1Au     1.260249  
       3B2u    1.262816     3B3u    1.262816     6B1u    1.293865  
       7Ag     1.459778     3B2g    1.647080     3B3g    1.647080  
       4B2u    1.711312     4B3u    1.711312     8Ag     2.446475  
       2B1g    2.759590     9Ag     2.759591     5B3u    2.777704  
       5B2u    2.777704     7B1u    2.804254     8B1u    3.023087  
       9B1u    3.083829     2Au     3.083829     6B2u    3.115872  
       6B3u    3.115872     4B2g    3.141962     4B3g    3.141962  
      10Ag     3.645115     5B2g    3.663410     5B3g    3.663410  
      11Ag     3.673177     3B1g    3.673177     6B2g    3.740152  
       6B3g    3.740152    12Ag     3.748312    13Ag     5.252055  
      10B1u    5.292775     3Au     5.698840    11B1u    5.698840  
       7B3u    5.918603     7B2u    5.918603     7B3g    7.407785  
       7B2g    7.407785    12B1u    9.404835    13B1u   25.113495  

    Final Occupation by Irrep:
             Ag   B1g   B2g   B3g    Au   B1u   B2u   B3u 
    DOCC [     2,    0,    0,    0,    0,    2,    1,    1 ]
    SOCC [     1,    0,    0,    0,    0,    0,    0,    0 ]
    NA   [     3,    0,    0,    0,    0,    2,    1,    1 ]
    NB   [     2,    0,    0,    0,    0,    2,    1,    1 ]

  @DF-UKS Final Energy:   -71.49622827834347

   => Energetics <=

    Nuclear Repulsion Energy =             37.5203198206150930
    One-Electron Energy =                -166.7476623524778176
    Two-Electron Energy =                  67.3481752820060962
    DFT Exchange-Correlation Energy =      -9.6170610284868392
    Empirical Dispersion Energy =           0.0000000000000000
    VV10 Nonlocal Energy =                  0.0000000000000000
    Total Energy =                        -71.4962282783434659

  UHF NO Occupations:
  HONO-2 :    2 Ag 1.9997884
  HONO-1 :    2B1u 1.9994842
  HONO-0 :    3 Ag 1.0000000
  LUNO+0 :    3B1u 0.0005158
  LUNO+1 :    4 Ag 0.0002116
  LUNO+2 :    2B2u 0.0000676
  LUNO+3 :    2B3u 0.0000676


Computation Completed


Properties will be evaluated at   0.000000,   0.000000,   0.000000 [a0]

Properties computed using the B3LYP density matrix


 Multipole Moments:

 ------------------------------------------------------------------------------------
     Multipole            Electronic (a.u.)      Nuclear  (a.u.)        Total (a.u.)
 ------------------------------------------------------------------------------------

 L = 1.  Multiply by 2.5417464519 to convert [e a0] to [Debye]
 Dipole X            :          0.0000000            0.0000000            0.0000000
 Dipole Y            :          0.0000000            0.0000000            0.0000000
 Dipole Z            :          0.0000000            0.0000000            0.0000000
 Magnitude           :                                                    0.0000000

 L = 2.  Multiply by 1.3450342976 to convert [e a0^2] to [Debye ang]
 Quadrupole XX       :         -8.4506073            0.0000000           -8.4506073
 Quadrupole XY       :          0.0000000            0.0000000            0.0000000
 Quadrupole XZ       :          0.0000000            0.0000000            0.0000000
 Quadrupole YY       :         -8.4506073            0.0000000           -8.4506073
 Quadrupole YZ       :          0.0000000            0.0000000            0.0000000
 Quadrupole ZZ       :        -19.5927187            2.7618062          -16.8309125
 Traceless XX        :          3.7140371           -0.9206021            2.7934351
 Traceless YY        :          3.7140371           -0.9206021            2.7934351
 Traceless ZZ        :         -7.4280743            1.8412041           -5.5868702

 ------------------------------------------------------------------------------------
  ==> Computing MBIS Charges <==

  Electron Count from Grid (Expected Number): 13.00000 (13.00000)
  Difference: -0.00000

  MBIS Charges: (a.u.)
   Center  Symbol  Z      Pop.       Charge
      1       C    6    6.499999   -0.499999
      2       C    6    6.499999   -0.499999

  MBIS Dipoles: [e a0]
   Center  Symbol  Z        X           Y           Z
      1       C    6   -0.000000   -0.000000    0.479802
      2       C    6    0.000000    0.000000   -0.479802

  MBIS Quadrupoles: [e a0^2]
   Center  Symbol  Z      XX        XY        XZ        YY        YZ        ZZ
      1       C    6   -4.2253    0.0000   -0.0000   -4.2253   -0.0000   -7.8400
      2       C    6   -4.2253    0.0000    0.0000   -4.2253   -0.0000   -7.8400

  MBIS Octupoles: [e a0^3]
   Center  Symbol  Z      XXX       XXY       XXZ       XYY       XYZ       XZZ       YYY       YYZ       YZZ       ZZZ
      1       C    6   -0.0000   -0.0000    1.2892   -0.0000   -0.0000   -0.0000   -0.0000    1.2892   -0.0000    5.1541
      2       C    6   -0.0000   -0.0000   -1.2892   -0.0000   -0.0000   -0.0000   -0.0000   -1.2892    0.0000   -5.1541

  MBIS Radial Moments:
   Center  Symbol  Z      [a0^2]      [a0^3]      [a0^4]      
      1       C    6   16.290628   46.498952   163.475923
      2       C    6   16.290628   46.498952   163.475923

  MBIS Valence Widths: [a0]
   Center  Symbol  Z     Width
      1       C    6    0.517004
      2       C    6    0.517004

*** tstop() called on Mac.lan at Wed Aug 27 00:29:49 2025
Module time:
	user time   =      23.10 seconds =       0.39 minutes
	system time =       2.29 seconds =       0.04 minutes
	total time  =          3 seconds =       0.05 minutes
Total time:
	user time   =      64.06 seconds =       1.07 minutes
	system time =       4.66 seconds =       0.08 minutes
	total time  =          7 seconds =       0.12 minutes

    Psi4 stopped on: Wednesday, 27 August 2025 12:29AM
    Psi4 wall time for execution: 0:00:07.30

*** Psi4 exiting successfully. Buy a developer a beer!
