
    -----------------------------------------------------------------------
          Psi4: An Open-Source Ab Initio Electronic Structure Package
                               Psi4 1.10 release

                         Git: Rev {} zzzzzzz 


    D. G. A. Smith, L. A. Burns, A. C. Simmonett, R. M. Parrish,
    M. C. Schieber, R. Galvelis, P. Kraus, H. Kruse, R. Di Remigio,
    A. Alenaizan, A. M. James, S. Lehtola, J. P. Misiewicz, M. Scheurer,
    R. A. Shaw, J. B. Schriber, Y. Xie, Z. L. Glick, D. A. Sirianni,
    J. S. O'Brien, J. M. Waldrop, A. Kumar, E. G. Hohenstein,
    B. P. Pritchard, B. R. Brooks, H. F. Schaefer III, A. Yu. Sokolov,
    K. Patkowski, A. E. DePrince III, U. Bozkaya, R. A. King,
    F. A. Evangelista, J. M. Turney, T. D. Crawford, C. D. Sherrill,
    J. Chem. Phys. 152(18) 184108 (2020). https://doi.org/10.1063/5.0006002

                            Additional Code Authors
    E. T. Seidl, C. L. Janssen, E. F. Valeev, M. L. Leininger,
    J. F. Gonthier, R. M. Richard, H. R. McAlexander, M. Saitow, X. Wang,
    P. Verma, M. H. Lechner, A. Jiang, S. Behnle, A. G. Heide,
    M. F. Herbst, D. L. Poole, T. Győri, E. C. Mitchell, J. P. Pederson,
    and A. M. Wallace

             Previous Authors, Complete List of Code Contributors,
                       and Citations for Specific Modules
    https://github.com/psi4/psi4/blob/master/codemeta.json
    https://github.com/psi4/psi4/graphs/contributors
    https://psicode.org/psi4manual/master/introduction.html#citing-psifour

    -----------------------------------------------------------------------


    Psi4 started on: Tuesday, 23 December 2025 01:37PM

    Process ID: 496298
    Host:       cics-quant-001
    PSIDATADIR: /home/jrodriguesro/psi4conda/share/psi4
    Memory:     500.0 MiB
    Threads:    6
    Addons:     adcc, a̶m̶b̶i̶t̶, b̶s̶e̶, c̶c̶t̶3̶, c̶f̶o̶u̶r̶, c̶h̶e̶m̶p̶s̶2̶, c̶p̶p̶e̶, ddx, dftd3, dftd4,
                dkh, ecpint, einsums, f̶o̶r̶t̶e̶, g̶a̶u̶x̶c̶, gcp, g̶d̶m̶a̶, geometric,
                g̶p̶u̶_̶d̶f̶c̶c̶, i̶n̶t̶e̶g̶r̶a̶t̶o̶r̶x̶x̶, i̶p̶i̶, libefp, m̶d̶i̶, m̶p̶2̶d̶,
                m̶r̶c̶c̶, ooo, o̶p̶e̶n̶f̶e̶r̶m̶i̶o̶n̶p̶s̶i̶4̶, pcmsolver, p̶s̶i̶4̶f̶o̶c̶k̶c̶i̶,
                p̶s̶i̶x̶a̶s̶, r̶e̶s̶p̶, s̶i̶m̶i̶n̶t̶, s̶n̶s̶m̶p̶2̶, v̶2̶r̶d̶m̶_̶c̶a̶s̶s̶c̶f̶

  ==> Input File <==

--------------------------------------------------------------------------
memory 8 Gb

molecule { 
-1 2
C           0.000000           0.000000           0.000000
C           0.000000           0.000000           1.946316
}

set { 
basis              cc-pvtz
reference          uks
maxiter            500
DAMPING_PERCENTAGE 1
E_CONVERGENCE      1.0E-8
D_CONVERGENCE      1.0E-8
DIIS_MAX_VECS      400
MBIS_MAXITER       8000
guess              read
}

E, wfn = energy('b3lyp', restart_file='last_wfn', return_wfn=True)
properties('b3lyp','MBIS_CHARGES', wfn=wfn)
wfn.to_file('last_wfn')
--------------------------------------------------------------------------

  Memory set to   7.451 GiB by Python driver.

Scratch directory: /tmp/
 Found user provided orbital data. Setting orbital guess to READ 
 Copying restart file <last_wfn.npy> to </tmp/scan_CC_37.default.496298.180.npy> for internal processing
   => Libint2 <=

    Primary   basis highest AM E, G, H:  6, 6, 3
    Auxiliary basis highest AM E, G, H:  7, 7, 4
    Onebody   basis highest AM E, G, H:  -, -, -
    Solid Harmonics ordering:            Gaussian

*** tstart() called on cics-quant-001
*** at Tue Dec 23 13:37:52 2025

   => Loading Basis Set <=

    Name: CC-PVTZ
    Role: ORBITAL
    Keyword: BASIS
    atoms 1-2 entry C          line   186 file /home/jrodriguesro/psi4conda/share/psi4/basis/cc-pvtz.gbs 


         ---------------------------------------------------------
                                   SCF
               by Justin Turney, Rob Parrish, Andy Simmonett
                          and Daniel G. A. Smith
                              UKS Reference
                        6 Threads,   7629 MiB Core
         ---------------------------------------------------------

  ==> Geometry <==

    Molecular point group: d2h
    Full point group: D_inf_h

    Geometry (in Angstrom), charge = -1, multiplicity = 2:

       Center              X                  Y                   Z               Mass       
    ------------   -----------------  -----------------  -----------------  -----------------
         C            0.000000000000     0.000000000000    -0.973158000000    12.000000000000
         C            0.000000000000     0.000000000000     0.973158000000    12.000000000000

  Running in d2h symmetry.

  Rotational constants: A = ************  B =      0.74168  C =      0.74168 [cm^-1]
  Rotational constants: A = ************  B =  22235.10800  C =  22235.10800 [MHz]
  Nuclear repulsion =    9.787917061833742

  Charge       = -1
  Multiplicity = 2
  Electrons    = 13
  Nalpha       = 7
  Nbeta        = 6

  ==> Algorithm <==

  SCF Algorithm Type is DF.
  DIIS enabled.
  MOM disabled.
  Fractional occupation disabled.
  Guess Type is READ.
  Energy threshold   = 1.00e-08
  Density threshold  = 1.00e-08
  Integral threshold = 1.00e-12

  ==> Primary Basis <==

  Basis Set: CC-PVTZ
    Blend: CC-PVTZ
    Number of shells: 20
    Number of basis functions: 60
    Number of Cartesian functions: 70
    Spherical Harmonics?: true
    Max angular momentum: 3

  ==> DFT Potential <==

   => LibXC <=

    Version 7.0.0
    S. Lehtola, C. Steigemann, M. J.T. Oliveira, and M. A.L. Marques.,  SoftwareX 7, 1–5 (2018) (10.1016/j.softx.2017.11.002)

   => Composite Functional: B3LYP <= 

    B3LYP Hyb-GGA Exchange-Correlation Functional

    P. J. Stephens, F. J. Devlin, C. F. Chabalowski, and M. J. Frisch.,  J. Phys. Chem. 98, 11623 (1994) (10.1021/j100096a001)

    Deriv               =              1
    GGA                 =           TRUE
    Meta                =          FALSE

    Exchange Hybrid     =           TRUE
    MP2 Hybrid          =          FALSE

   => Exchange Functionals <=

    0.0800   Slater exchange
    0.7200         Becke 88

   => Exact (HF) Exchange <=

    0.2000               HF 

   => Correlation Functionals <=

    0.1900   Vosko, Wilk & Nusair (VWN5_RPA)
    0.8100   Lee, Yang & Parr

   => LibXC Density Thresholds  <==

    XC_HYB_GGA_XC_B3LYP:  1.00E-15 

   => Molecular Quadrature <=

    Radial Scheme          =       TREUTLER
    Pruning Scheme         =           NONE
    Nuclear Scheme         =       TREUTLER

    Blocking Scheme        =         OCTREE
    BS radius alpha        =              1
    Pruning alpha          =              1
    Radial Points          =             75
    Spherical Points       =            302
    Total Points           =          43082
    Total Blocks           =            388
    Max Points             =            254
    Max Functions          =             60
    Weights Tolerance      =       1.00E-15

   => Loading Basis Set <=

    Name: (CC-PVTZ AUX)
    Role: JKFIT
    Keyword: DF_BASIS_SCF
    atoms 1-2 entry C          line   125 file /home/jrodriguesro/psi4conda/share/psi4/basis/cc-pvtz-jkfit.gbs 

   => Loading Basis Set <=

    Name: CC-PVTZ
    Role: ORBITAL
    Keyword: BASIS
    atoms 1-2 entry C          line   186 file /home/jrodriguesro/psi4conda/share/psi4/basis/cc-pvtz.gbs 

  Reading orbitals from file /tmp/scan_CC_37.default.496298.180.npy, no projection.

  ==> Integral Setup <==

  DFHelper Memory: AOs need 0.005 GiB; user supplied 5.516 GiB. 
  SCF_SUBTYPE=INCORE selected. In-core MEM_DF algorithm will be used.
  Using in-core AOs.

  ==> MemDFJK: Density-Fitted J/K Matrices <==

    J tasked:                   Yes
    K tasked:                   Yes
    wK tasked:                   No
    OpenMP threads:               6
    Memory [MiB]:              5648
    Algorithm:                 Core
    Schwarz Cutoff:           1E-12
    Mask sparsity (%):       0.0000
    Fitting Condition:        1E-10

   => Auxiliary Basis Set <=

  Basis Set: (CC-PVTZ AUX)
    Blend: CC-PVTZ-JKFIT
    Number of shells: 50
    Number of basis functions: 158
    Number of Cartesian functions: 192
    Spherical Harmonics?: true
    Max angular momentum: 4

  Cached 100.0% of DFT collocation blocks in 0.072 [GiB].

  Minimum eigenvalue in the overlap matrix is 1.1635712875E-02.
  Reciprocal condition number of the overlap matrix is 3.7402052115E-03.
    Using symmetric orthogonalization.

  ==> Pre-Iterations <==

  SCF Guess: Orbitals guess was supplied from a previous computation.

   -------------------------------------------------------
    Irrep   Nso     Nmo     Nalpha   Nbeta   Ndocc  Nsocc
   -------------------------------------------------------
     Ag        13      13       3       3       3       0
     B1g        3       3       0       0       0       0
     B2g        7       7       0       0       0       0
     B3g        7       7       0       0       0       0
     Au         3       3       0       0       0       0
     B1u       13      13       2       2       2       0
     B2u        7       7       1       1       1       0
     B3u        7       7       1       0       0       1
   -------------------------------------------------------
    Total      60      60       7       6       6       1
   -------------------------------------------------------

  ==> Iterations <==

                           Total Energy        Delta E     RMS |[F,P]|

   @DF-UKS iter   0:   -75.87298018881208   -7.58730e+01   1.58633e-03 
   @DF-UKS iter   1:   -75.87959116207350   -6.61097e-03   6.95379e-04 DIIS/ADIIS
   @DF-UKS iter   2:   -75.87967343012974   -8.22681e-05   5.47861e-04 DIIS/ADIIS/DAMP=1%
   @DF-UKS iter   3:   -75.87941920226370    2.54228e-04   3.35383e-05 DIIS/DAMP=1%
   @DF-UKS iter   4:   -75.87979926816323   -3.80066e-04   6.61278e-06 DIIS/DAMP=1%
   @DF-UKS iter   5:   -75.87978066594559    1.86022e-05   3.16675e-07 DIIS/DAMP=1%
   @DF-UKS iter   6:   -75.87978550079012   -4.83484e-06   6.18624e-08 DIIS/DAMP=1%
   @DF-UKS iter   7:   -75.87978536451382    1.36276e-07   1.08862e-08 DIIS/DAMP=1%
   @DF-UKS iter   8:   -75.87978536387176    6.42061e-10   6.51956e-10 DIIS/DAMP=1%
  Energy and wave function converged.


  ==> Post-Iterations <==

   Electrons on quadrature grid:
      Nalpha   =    6.9999997181 ; deviation = -2.819e-07
      Nbeta    =    5.9999998229 ; deviation = -1.771e-07
      Ntotal   =   12.9999995410 ; deviation = -4.590e-07 

   @Spin Contamination Metric:   1.889988689E-03
   @S^2 Expected:                7.500000000E-01
   @S^2 Observed:                7.518899887E-01
   @S   Expected:                5.000000000E-01
   @S   Observed:                5.000000000E-01

    Orbital Energies [Eh]
    ---------------------

    Alpha Occupied:                                                       

       1Ag   -10.013448     1B1u  -10.013361     2Ag    -0.350780  
       2B1u   -0.210715     1B3u    0.003247     3Ag     0.005463  
       1B2u    0.028279  

    Alpha Virtual:                                                        

       1B2g    0.139340     1B3g    0.163920     3B1u    0.286151  
       4B1u    0.507252     2B3u    0.524502     2B2u    0.540869  
       4Ag     0.545169     2B2g    0.570797     2B3g    0.585112  
       5Ag     0.605592     3B3u    0.852147     5B1u    0.852668  
       1B1g    0.858424     6Ag     0.858703     3B2u    0.871363  
       1Au     1.004849     6B1u    1.005326     7Ag     1.207197  
       3B2g    1.255681     3B3g    1.273491     7B1u    1.411415  
       4B3u    2.146685     4B2u    2.166645     8Ag     2.180601  
       4B2g    2.250366     4B3g    2.272497     8B1u    2.622994  
       5B3u    2.723261     5B2u    2.744025     9Ag     2.749031  
       2B1g    2.800714    10Ag     2.802954     6B3u    2.911653  
       6B2u    2.911746     5B2g    2.953696     5B3g    2.953760  
       9B1u    3.081096     2Au     3.081103    11Ag     3.177731  
       3B1g    3.177782     6B2g    3.225966     6B3g    3.246997  
       7B3u    3.272983    10B1u    3.277793     3Au     3.278814  
       7B2u    3.294161    11B1u    3.338094    12Ag     3.611810  
       7B2g    3.715345     7B3g    3.735153    12B1u    3.867407  
      13Ag     4.223756    13B1u    5.047334  

    Beta Occupied:                                                        

       1Ag   -10.007395     1B1u  -10.007328     2Ag    -0.321940  
       2B1u   -0.186325     3Ag     0.012484     1B2u    0.035373  

    Beta Virtual:                                                         

       1B3u    0.110498     1B3g    0.170709     1B2g    0.199927  
       3B1u    0.297428     4B1u    0.511268     2B2u    0.544577  
       4Ag     0.549266     2B3u    0.556939     2B3g    0.588227  
       2B2g    0.597824     5Ag     0.620560     5B1u    0.866270  
       3B2u    0.873426     3B3u    0.878722     1B1g    0.880517  
       6Ag     0.882207     1Au     1.024978     6B1u    1.026685  
       7Ag     1.219572     3B3g    1.275304     3B2g    1.277908  
       7B1u    1.416053     4B2u    2.171141     4B3u    2.182837  
       8Ag     2.185258     4B3g    2.278202     4B2g    2.289630  
       8B1u    2.635059     5B2u    2.746116     5B3u    2.750312  
       9Ag     2.764359     2B1g    2.818019    10Ag     2.819222  
       6B2u    2.939225     6B3u    2.939715     5B3g    2.981386  
       5B2g    2.981852     2Au     3.103615     9B1u    3.105513  
       3B1g    3.210401    11Ag     3.213697     6B3g    3.248923  
       6B2g    3.257820     7B2u    3.296104     7B3u    3.305559  
       3Au     3.306276    10B1u    3.308021    11B1u    3.348782  
      12Ag     3.619076     7B3g    3.736400     7B2g    3.740223  
      12B1u    3.876277    13Ag     4.241416    13B1u    5.059520  

    Final Occupation by Irrep:
             Ag   B1g   B2g   B3g    Au   B1u   B2u   B3u 
    DOCC [     3,    0,    0,    0,    0,    2,    1,    0 ]
    SOCC [     0,    0,    0,    0,    0,    0,    0,    1 ]
    NA   [     3,    0,    0,    0,    0,    2,    1,    1 ]
    NB   [     3,    0,    0,    0,    0,    2,    1,    0 ]

  @DF-UKS Final Energy:   -75.87978536387176

   => Energetics <=

    Nuclear Repulsion Energy =              9.7879170618337419
    One-Electron Energy =                -124.1100838087478024
    Two-Electron Energy =                  47.0286624307574996
    DFT Exchange-Correlation Energy =      -8.5862810477151879
    Empirical Dispersion Energy =           0.0000000000000000
    VV10 Nonlocal Energy =                  0.0000000000000000
    Total Energy =                        -75.8797853638717612

  UHF NO Occupations:
  HONO-2 :    3 Ag 1.9997031
  HONO-1 :    2B1u 1.9994268
  HONO-0 :    1B3u 1.0000000
  LUNO+0 :    3B1u 0.0005732
  LUNO+1 :    4 Ag 0.0002969
  LUNO+2 :    2B2u 0.0000378
  LUNO+3 :    5 Ag 0.0000370


Computation Completed


Properties will be evaluated at   0.000000,   0.000000,   0.000000 [a0]

Properties computed using the SCF density matrix


 Multipole Moments:

 ------------------------------------------------------------------------------------
     Multipole            Electronic (a.u.)      Nuclear  (a.u.)        Total (a.u.)
 ------------------------------------------------------------------------------------

 L = 1.  Multiply by 2.5417464519 to convert [e a0] to [Debye]
 Dipole X            :          0.0000000            0.0000000            0.0000000
 Dipole Y            :          0.0000000            0.0000000            0.0000000
 Dipole Z            :          0.0000000            0.0000000            0.0000000
 Magnitude           :                                                    0.0000000

 ------------------------------------------------------------------------------------

*** tstop() called on cics-quant-001 at Tue Dec 23 13:37:52 2025
Module time:
	user time   =       0.99 seconds =       0.02 minutes
	system time =       0.08 seconds =       0.00 minutes
	total time  =          0 seconds =       0.00 minutes
Total time:
	user time   =       0.99 seconds =       0.02 minutes
	system time =       0.08 seconds =       0.00 minutes
	total time  =          0 seconds =       0.00 minutes

*** tstart() called on cics-quant-001
*** at Tue Dec 23 13:37:52 2025

   => Libint2 <=

    Primary   basis highest AM E, G, H:  6, 6, 3
    Auxiliary basis highest AM E, G, H:  7, 7, 4
    Onebody   basis highest AM E, G, H:  -, -, -
    Solid Harmonics ordering:            Gaussian
   => Loading Basis Set <=

    Name: CC-PVTZ
    Role: ORBITAL
    Keyword: BASIS
    atoms 1-2 entry C          line   186 file /home/jrodriguesro/psi4conda/share/psi4/basis/cc-pvtz.gbs 


         ---------------------------------------------------------
                                   SCF
               by Justin Turney, Rob Parrish, Andy Simmonett
                          and Daniel G. A. Smith
                              UKS Reference
                        6 Threads,   7629 MiB Core
         ---------------------------------------------------------

  ==> Geometry <==

    Molecular point group: d2h
    Full point group: D_inf_h

    Geometry (in Angstrom), charge = -1, multiplicity = 2:

       Center              X                  Y                   Z               Mass       
    ------------   -----------------  -----------------  -----------------  -----------------
         C            0.000000000000     0.000000000000    -0.973158000000    12.000000000000
         C            0.000000000000     0.000000000000     0.973158000000    12.000000000000

  Running in d2h symmetry.

  Rotational constants: A = ************  B =      0.74168  C =      0.74168 [cm^-1]
  Rotational constants: A = ************  B =  22235.10800  C =  22235.10800 [MHz]
  Nuclear repulsion =    9.787917061833742

  Charge       = -1
  Multiplicity = 2
  Electrons    = 13
  Nalpha       = 7
  Nbeta        = 6

  ==> Algorithm <==

  SCF Algorithm Type is DF.
  DIIS enabled.
  MOM disabled.
  Fractional occupation disabled.
  Guess Type is READ.
  Energy threshold   = 1.00e-08
  Density threshold  = 1.00e-08
  Integral threshold = 1.00e-12

  ==> Primary Basis <==

  Basis Set: CC-PVTZ
    Blend: CC-PVTZ
    Number of shells: 20
    Number of basis functions: 60
    Number of Cartesian functions: 70
    Spherical Harmonics?: true
    Max angular momentum: 3

  ==> DFT Potential <==

   => LibXC <=

    Version 7.0.0
    S. Lehtola, C. Steigemann, M. J.T. Oliveira, and M. A.L. Marques.,  SoftwareX 7, 1–5 (2018) (10.1016/j.softx.2017.11.002)

   => Composite Functional: B3LYP <= 

    B3LYP Hyb-GGA Exchange-Correlation Functional

    P. J. Stephens, F. J. Devlin, C. F. Chabalowski, and M. J. Frisch.,  J. Phys. Chem. 98, 11623 (1994) (10.1021/j100096a001)

    Deriv               =              1
    GGA                 =           TRUE
    Meta                =          FALSE

    Exchange Hybrid     =           TRUE
    MP2 Hybrid          =          FALSE

   => Exchange Functionals <=

    0.0800   Slater exchange
    0.7200         Becke 88

   => Exact (HF) Exchange <=

    0.2000               HF 

   => Correlation Functionals <=

    0.1900   Vosko, Wilk & Nusair (VWN5_RPA)
    0.8100   Lee, Yang & Parr

   => LibXC Density Thresholds  <==

    XC_HYB_GGA_XC_B3LYP:  1.00E-15 

   => Molecular Quadrature <=

    Radial Scheme          =       TREUTLER
    Pruning Scheme         =           NONE
    Nuclear Scheme         =       TREUTLER

    Blocking Scheme        =         OCTREE
    BS radius alpha        =              1
    Pruning alpha          =              1
    Radial Points          =             75
    Spherical Points       =            302
    Total Points           =          43082
    Total Blocks           =            388
    Max Points             =            254
    Max Functions          =             60
    Weights Tolerance      =       1.00E-15

   => Loading Basis Set <=

    Name: (CC-PVTZ AUX)
    Role: JKFIT
    Keyword: DF_BASIS_SCF
    atoms 1-2 entry C          line   125 file /home/jrodriguesro/psi4conda/share/psi4/basis/cc-pvtz-jkfit.gbs 

   => Loading Basis Set <=

    Name: CC-PVTZ
    Role: ORBITAL
    Keyword: BASIS
    atoms 1-2 entry C          line   186 file /home/jrodriguesro/psi4conda/share/psi4/basis/cc-pvtz.gbs 

  Reading orbitals from file /tmp/scan_CC_37.default.496298.180.npy, no projection.

  ==> Integral Setup <==

  DFHelper Memory: AOs need 0.005 GiB; user supplied 5.516 GiB. 
  SCF_SUBTYPE=INCORE selected. In-core MEM_DF algorithm will be used.
  Using in-core AOs.

  ==> MemDFJK: Density-Fitted J/K Matrices <==

    J tasked:                   Yes
    K tasked:                   Yes
    wK tasked:                   No
    OpenMP threads:               6
    Memory [MiB]:              5648
    Algorithm:                 Core
    Schwarz Cutoff:           1E-12
    Mask sparsity (%):       0.0000
    Fitting Condition:        1E-10

   => Auxiliary Basis Set <=

  Basis Set: (CC-PVTZ AUX)
    Blend: CC-PVTZ-JKFIT
    Number of shells: 50
    Number of basis functions: 158
    Number of Cartesian functions: 192
    Spherical Harmonics?: true
    Max angular momentum: 4

  Cached 100.0% of DFT collocation blocks in 0.072 [GiB].

  Minimum eigenvalue in the overlap matrix is 1.1635712875E-02.
  Reciprocal condition number of the overlap matrix is 3.7402052115E-03.
    Using symmetric orthogonalization.

  ==> Pre-Iterations <==

  SCF Guess: Orbitals guess was supplied from a previous computation.

   -------------------------------------------------------
    Irrep   Nso     Nmo     Nalpha   Nbeta   Ndocc  Nsocc
   -------------------------------------------------------
     Ag        13      13       3       3       3       0
     B1g        3       3       0       0       0       0
     B2g        7       7       0       0       0       0
     B3g        7       7       0       0       0       0
     Au         3       3       0       0       0       0
     B1u       13      13       2       2       2       0
     B2u        7       7       1       1       1       0
     B3u        7       7       1       0       0       1
   -------------------------------------------------------
    Total      60      60       7       6       6       1
   -------------------------------------------------------

  ==> Iterations <==

                           Total Energy        Delta E     RMS |[F,P]|

   @DF-UKS iter   0:   -75.87978536327861   -7.58798e+01   8.79052e-11 
   @DF-UKS iter   1:   -75.87978536327859    2.84217e-14   3.75579e-11 DIIS
  Energy and wave function converged.


  ==> Post-Iterations <==

   Electrons on quadrature grid:
      Nalpha   =    6.9999997181 ; deviation = -2.819e-07
      Nbeta    =    5.9999998229 ; deviation = -1.771e-07
      Ntotal   =   12.9999995410 ; deviation = -4.590e-07 

   @Spin Contamination Metric:   1.889988832E-03
   @S^2 Expected:                7.500000000E-01
   @S^2 Observed:                7.518899888E-01
   @S   Expected:                5.000000000E-01
   @S   Observed:                5.000000000E-01

    Orbital Energies [Eh]
    ---------------------

    Alpha Occupied:                                                       

       1Ag   -10.013448     1B1u  -10.013361     2Ag    -0.350780  
       2B1u   -0.210715     1B3u    0.003247     3Ag     0.005463  
       1B2u    0.028279  

    Alpha Virtual:                                                        

       1B2g    0.139340     1B3g    0.163920     3B1u    0.286151  
       4B1u    0.507252     2B3u    0.524502     2B2u    0.540869  
       4Ag     0.545169     2B2g    0.570797     2B3g    0.585112  
       5Ag     0.605592     3B3u    0.852147     5B1u    0.852668  
       1B1g    0.858424     6Ag     0.858703     3B2u    0.871363  
       1Au     1.004849     6B1u    1.005326     7Ag     1.207197  
       3B2g    1.255681     3B3g    1.273491     7B1u    1.411415  
       4B3u    2.146685     4B2u    2.166645     8Ag     2.180601  
       4B2g    2.250366     4B3g    2.272497     8B1u    2.622994  
       5B3u    2.723261     5B2u    2.744025     9Ag     2.749031  
       2B1g    2.800714    10Ag     2.802954     6B3u    2.911653  
       6B2u    2.911746     5B2g    2.953696     5B3g    2.953760  
       9B1u    3.081096     2Au     3.081103    11Ag     3.177731  
       3B1g    3.177782     6B2g    3.225966     6B3g    3.246997  
       7B3u    3.272983    10B1u    3.277793     3Au     3.278814  
       7B2u    3.294161    11B1u    3.338094    12Ag     3.611810  
       7B2g    3.715345     7B3g    3.735153    12B1u    3.867407  
      13Ag     4.223756    13B1u    5.047334  

    Beta Occupied:                                                        

       1Ag   -10.007395     1B1u  -10.007328     2Ag    -0.321940  
       2B1u   -0.186325     3Ag     0.012484     1B2u    0.035373  

    Beta Virtual:                                                         

       1B3u    0.110498     1B3g    0.170709     1B2g    0.199927  
       3B1u    0.297428     4B1u    0.511268     2B2u    0.544577  
       4Ag     0.549266     2B3u    0.556939     2B3g    0.588227  
       2B2g    0.597824     5Ag     0.620560     5B1u    0.866270  
       3B2u    0.873426     3B3u    0.878722     1B1g    0.880517  
       6Ag     0.882207     1Au     1.024978     6B1u    1.026685  
       7Ag     1.219572     3B3g    1.275304     3B2g    1.277908  
       7B1u    1.416053     4B2u    2.171141     4B3u    2.182837  
       8Ag     2.185258     4B3g    2.278202     4B2g    2.289630  
       8B1u    2.635059     5B2u    2.746116     5B3u    2.750312  
       9Ag     2.764359     2B1g    2.818019    10Ag     2.819222  
       6B2u    2.939225     6B3u    2.939715     5B3g    2.981386  
       5B2g    2.981852     2Au     3.103615     9B1u    3.105513  
       3B1g    3.210401    11Ag     3.213697     6B3g    3.248923  
       6B2g    3.257820     7B2u    3.296104     7B3u    3.305559  
       3Au     3.306276    10B1u    3.308021    11B1u    3.348782  
      12Ag     3.619076     7B3g    3.736400     7B2g    3.740223  
      12B1u    3.876277    13Ag     4.241416    13B1u    5.059520  

    Final Occupation by Irrep:
             Ag   B1g   B2g   B3g    Au   B1u   B2u   B3u 
    DOCC [     3,    0,    0,    0,    0,    2,    1,    0 ]
    SOCC [     0,    0,    0,    0,    0,    0,    0,    1 ]
    NA   [     3,    0,    0,    0,    0,    2,    1,    1 ]
    NB   [     3,    0,    0,    0,    0,    2,    1,    0 ]

  @DF-UKS Final Energy:   -75.87978536327859

   => Energetics <=

    Nuclear Repulsion Energy =              9.7879170618337419
    One-Electron Energy =                -124.1100838217578683
    Two-Electron Energy =                  47.0286624468575383
    DFT Exchange-Correlation Energy =      -8.5862810502119995
    Empirical Dispersion Energy =           0.0000000000000000
    VV10 Nonlocal Energy =                  0.0000000000000000
    Total Energy =                        -75.8797853632785859

  UHF NO Occupations:
  HONO-2 :    3 Ag 1.9997031
  HONO-1 :    2B1u 1.9994268
  HONO-0 :    1B3u 1.0000000
  LUNO+0 :    3B1u 0.0005732
  LUNO+1 :    4 Ag 0.0002969
  LUNO+2 :    2B2u 0.0000379
  LUNO+3 :    5 Ag 0.0000370


Computation Completed


Properties will be evaluated at   0.000000,   0.000000,   0.000000 [a0]

Properties computed using the B3LYP density matrix


 Multipole Moments:

 ------------------------------------------------------------------------------------
     Multipole            Electronic (a.u.)      Nuclear  (a.u.)        Total (a.u.)
 ------------------------------------------------------------------------------------

 L = 1.  Multiply by 2.5417464519 to convert [e a0] to [Debye]
 Dipole X            :          0.0000000            0.0000000            0.0000000
 Dipole Y            :          0.0000000            0.0000000            0.0000000
 Dipole Z            :          0.0000000            0.0000000            0.0000000
 Magnitude           :                                                    0.0000000

 L = 2.  Multiply by 1.3450342976 to convert [e a0^2] to [Debye ang]
 Quadrupole XX       :        -10.9521597            0.0000000          -10.9521597
 Quadrupole XY       :          0.0000000            0.0000000            0.0000000
 Quadrupole XZ       :          0.0000000            0.0000000            0.0000000
 Quadrupole YY       :        -12.9841961            0.0000000          -12.9841961
 Quadrupole YZ       :          0.0000000            0.0000000            0.0000000
 Quadrupole ZZ       :        -58.3035134           40.5831445          -17.7203688
 Traceless XX        :         16.4611301          -13.5277148            2.9334152
 Traceless YY        :         14.4290936          -13.5277148            0.9013787
 Traceless ZZ        :        -30.8902237           27.0554297           -3.8347940

 ------------------------------------------------------------------------------------
  ==> Computing MBIS Charges <==

  Electron Count from Grid (Expected Number): 13.00000 (13.00000)
  Difference: -0.00000

  MBIS Charges: (a.u.)
   Center  Symbol  Z      Pop.       Charge
      1       C    6    6.500000   -0.500000
      2       C    6    6.500000   -0.500000

  MBIS Dipoles: [e a0]
   Center  Symbol  Z        X           Y           Z
      1       C    6   -0.000000    0.000000    0.137056
      2       C    6   -0.000000   -0.000000   -0.137056

  MBIS Quadrupoles: [e a0^2]
   Center  Symbol  Z      XX        XY        XZ        YY        YZ        ZZ
      1       C    6   -5.4761    0.0000    0.0000   -6.4921   -0.0000   -6.6651
      2       C    6   -5.4761    0.0000   -0.0000   -6.4921    0.0000   -6.6651

  MBIS Octupoles: [e a0^3]
   Center  Symbol  Z      XXX       XXY       XXZ       XYY       XYZ       XZZ       YYY       YYZ       YZZ       ZZZ
      1       C    6   -0.0000   -0.0000    0.0696    0.0000   -0.0000   -0.0000    0.0000   -0.2482    0.0000    0.1021
      2       C    6   -0.0000   -0.0000   -0.0696    0.0000    0.0000   -0.0000    0.0000    0.2482    0.0000   -0.1021

  MBIS Radial Moments:
   Center  Symbol  Z      [a0^2]      [a0^3]      [a0^4]      
      1       C    6   18.633304   50.996586   164.859918
      2       C    6   18.633304   50.996586   164.859918

  MBIS Valence Widths: [a0]
   Center  Symbol  Z     Width
      1       C    6    0.574521
      2       C    6    0.574521


  MBIS Valence Charges: (a.u.)
   Center  Symbol  Z     Charge
      1       C    6   -4.777950
      2       C    6   -4.777950

*** tstop() called on cics-quant-001 at Tue Dec 23 13:37:52 2025
Module time:
	user time   =       0.50 seconds =       0.01 minutes
	system time =       0.03 seconds =       0.00 minutes
	total time  =          0 seconds =       0.00 minutes
Total time:
	user time   =       1.50 seconds =       0.03 minutes
	system time =       0.11 seconds =       0.00 minutes
	total time  =          0 seconds =       0.00 minutes

    Psi4 stopped on: Tuesday, 23 December 2025 01:37PM
    Psi4 wall time for execution: 0:00:00.63

*** Psi4 exiting successfully. Buy a developer a beer!
