
    -----------------------------------------------------------------------
          Psi4: An Open-Source Ab Initio Electronic Structure Package
                               Psi4 1.9.1 release

                         Git: Rev {} zzzzzzz 


    D. G. A. Smith, L. A. Burns, A. C. Simmonett, R. M. Parrish,
    M. C. Schieber, R. Galvelis, P. Kraus, H. Kruse, R. Di Remigio,
    A. Alenaizan, A. M. James, S. Lehtola, J. P. Misiewicz, M. Scheurer,
    R. A. Shaw, J. B. Schriber, Y. Xie, Z. L. Glick, D. A. Sirianni,
    J. S. O'Brien, J. M. Waldrop, A. Kumar, E. G. Hohenstein,
    B. P. Pritchard, B. R. Brooks, H. F. Schaefer III, A. Yu. Sokolov,
    K. Patkowski, A. E. DePrince III, U. Bozkaya, R. A. King,
    F. A. Evangelista, J. M. Turney, T. D. Crawford, C. D. Sherrill,
    J. Chem. Phys. 152(18) 184108 (2020). https://doi.org/10.1063/5.0006002

                            Additional Code Authors
    E. T. Seidl, C. L. Janssen, E. F. Valeev, M. L. Leininger,
    J. F. Gonthier, R. M. Richard, H. R. McAlexander, M. Saitow, X. Wang,
    P. Verma, M. H. Lechner, A. Jiang, S. Behnle, A. G. Heide,
    M. F. Herbst, and D. L. Poole

             Previous Authors, Complete List of Code Contributors,
                       and Citations for Specific Modules
    https://github.com/psi4/psi4/blob/master/codemeta.json
    https://github.com/psi4/psi4/graphs/contributors
    http://psicode.org/psi4manual/master/introduction.html#citing-psifour

    -----------------------------------------------------------------------


    Psi4 started on: Wednesday, 27 August 2025 03:58AM

    Process ID: 66201
    Host:       Mac.lan
    PSIDATADIR: /Users/joseantoniorodriguesromero/anaconda3/share/psi4
    Memory:     500.0 MiB
    Threads:    1
    
  ==> Input File <==

--------------------------------------------------------------------------
molecule { 
-1 1
O           0.000000           0.000000           0.000000
H           0.000000           0.000000           1.638914
}

set { 
basis              cc-pvtz
reference          uks
maxiter            500
DAMPING_PERCENTAGE 1
E_CONVERGENCE      1.0E-8
D_CONVERGENCE      1.0E-8
DIIS_MAX_VECS      400
MBIS_MAXITER       8000
guess              read
}

E, wfn = energy('b3lyp', restart_file='last_wfn', return_wfn=True)
properties('b3lyp','MBIS_CHARGES', wfn=wfn)
wfn.to_file('last_wfn')
--------------------------------------------------------------------------

Scratch directory: /tmp/
 Found user provided orbital data. Setting orbital guess to READ 
 Copying restart file <last_wfn.npy> to </tmp/scan_HO_41.default.66201.180.npy> for internal processing
   => Libint2 <=

    Primary   basis highest AM E, G, H:  6, 6, 3
    Auxiliary basis highest AM E, G, H:  7, 7, 4
    Onebody   basis highest AM E, G, H:  -, -, -
    Solid Harmonics ordering:            Gaussian

*** tstart() called on Mac.lan
*** at Wed Aug 27 03:58:02 2025

   => Loading Basis Set <=

    Name: CC-PVTZ
    Role: ORBITAL
    Keyword: BASIS
    atoms 1 entry O          line   262 file /Users/joseantoniorodriguesromero/anaconda3/share/psi4/basis/cc-pvtz.gbs 
    atoms 2 entry H          line    23 file /Users/joseantoniorodriguesromero/anaconda3/share/psi4/basis/cc-pvtz.gbs 


         ---------------------------------------------------------
                                   SCF
               by Justin Turney, Rob Parrish, Andy Simmonett
                          and Daniel G. A. Smith
                              UKS Reference
                        1 Threads,    500 MiB Core
         ---------------------------------------------------------

  ==> Geometry <==

    Molecular point group: c2v
    Full point group: C_inf_v

    Geometry (in Angstrom), charge = -1, multiplicity = 1:

       Center              X                  Y                   Z               Mass       
    ------------   -----------------  -----------------  -----------------  -----------------
         O            0.000000000000     0.000000000000    -0.097145435894    15.994914619570
         H            0.000000000000     0.000000000000     1.541768564106     1.007825032230

  Running in c2v symmetry.

  Rotational constants: A = ************  B =      6.61966  C =      6.61966 [cm^-1]
  Rotational constants: A = ************  B = 198452.56053  C = 198452.56053 [MHz]
  Nuclear repulsion =    2.583062738716003

  Charge       = -1
  Multiplicity = 1
  Electrons    = 10
  Nalpha       = 5
  Nbeta        = 5

  ==> Algorithm <==

  SCF Algorithm Type is DF.
  DIIS enabled.
  MOM disabled.
  Fractional occupation disabled.
  Guess Type is READ.
  Energy threshold   = 1.00e-08
  Density threshold  = 1.00e-08
  Integral threshold = 1.00e-12

  ==> Primary Basis <==

  Basis Set: CC-PVTZ
    Blend: CC-PVTZ
    Number of shells: 16
    Number of basis functions: 44
    Number of Cartesian functions: 50
    Spherical Harmonics?: true
    Max angular momentum: 3

  ==> DFT Potential <==

   => LibXC <=

    Version 6.2.2
    S. Lehtola, C. Steigemann, M. J.T. Oliveira, and M. A.L. Marques.,  SoftwareX 7, 1–5 (2018) (10.1016/j.softx.2017.11.002)

   => Composite Functional: B3LYP <= 

    B3LYP Hyb-GGA Exchange-Correlation Functional

    P. J. Stephens, F. J. Devlin, C. F. Chabalowski, and M. J. Frisch.,  J. Phys. Chem. 98, 11623 (1994) (10.1021/j100096a001)

    Deriv               =              1
    GGA                 =           TRUE
    Meta                =          FALSE

    Exchange Hybrid     =           TRUE
    MP2 Hybrid          =          FALSE

   => Exchange Functionals <=

    0.0800   Slater exchange
    0.7200         Becke 88

   => Exact (HF) Exchange <=

    0.2000               HF 

   => Correlation Functionals <=

    0.1900   Vosko, Wilk & Nusair (VWN5_RPA)
    0.8100   Lee, Yang & Parr

   => LibXC Density Thresholds  <==

    XC_HYB_GGA_XC_B3LYP:  1.00E-15 

   => Molecular Quadrature <=

    Radial Scheme          =       TREUTLER
    Pruning Scheme         =           NONE
    Nuclear Scheme         =       TREUTLER

    Blocking Scheme        =         OCTREE
    BS radius alpha        =              1
    Pruning alpha          =              1
    Radial Points          =             75
    Spherical Points       =            302
    Total Points           =          44187
    Total Blocks           =            392
    Max Points             =            254
    Max Functions          =             44
    Weights Tolerance      =       1.00E-15

   => Loading Basis Set <=

    Name: (CC-PVTZ AUX)
    Role: JKFIT
    Keyword: DF_BASIS_SCF
    atoms 1 entry O          line   229 file /Users/joseantoniorodriguesromero/anaconda3/share/psi4/basis/cc-pvtz-jkfit.gbs 
    atoms 2 entry H          line    51 file /Users/joseantoniorodriguesromero/anaconda3/share/psi4/basis/cc-pvtz-jkfit.gbs 

   => Loading Basis Set <=

    Name: CC-PVTZ
    Role: ORBITAL
    Keyword: BASIS
    atoms 1 entry O          line   262 file /Users/joseantoniorodriguesromero/anaconda3/share/psi4/basis/cc-pvtz.gbs 
    atoms 2 entry H          line    23 file /Users/joseantoniorodriguesromero/anaconda3/share/psi4/basis/cc-pvtz.gbs 

  Reading orbitals from file /tmp/scan_HO_41.default.66201.180.npy, no projection.

  ==> Integral Setup <==

  DFHelper Memory: AOs need 0.002 GiB; user supplied 0.312 GiB. 
  Using in-core AOs.

  ==> MemDFJK: Density-Fitted J/K Matrices <==

    J tasked:                   Yes
    K tasked:                   Yes
    wK tasked:                   No
    OpenMP threads:               1
    Memory [MiB]:               319
    Algorithm:                 Core
    Schwarz Cutoff:           1E-12
    Mask sparsity (%):       0.0000
    Fitting Condition:        1E-10

   => Auxiliary Basis Set <=

  Basis Set: (CC-PVTZ AUX)
    Blend: CC-PVTZ-JKFIT
    Number of shells: 35
    Number of basis functions: 109
    Number of Cartesian functions: 131
    Spherical Harmonics?: true
    Max angular momentum: 4

  Cached 100.0% of DFT collocation blocks in 0.054 [GiB].

  Minimum eigenvalue in the overlap matrix is 2.8835748262E-02.
  Reciprocal condition number of the overlap matrix is 9.2039506295E-03.
    Using symmetric orthogonalization.

  ==> Pre-Iterations <==

  SCF Guess: Orbitals guess was supplied from a previous computation.

   -------------------------------------------------------
    Irrep   Nso     Nmo     Nalpha   Nbeta   Ndocc  Nsocc
   -------------------------------------------------------
     A1        20      20       3       3       3       0
     A2         4       4       0       0       0       0
     B1        10      10       1       1       1       0
     B2        10      10       1       1       1       0
   -------------------------------------------------------
    Total      44      44       5       5       5       0
   -------------------------------------------------------

  ==> Iterations <==

                           Total Energy        Delta E     RMS |[F,P]|

   @DF-UKS iter   0:   -75.68961651813844   -7.56896e+01   9.95932e-04 
   @DF-UKS iter   1:   -75.69153864009122   -1.92212e-03   6.16147e-04 DIIS/ADIIS
   @DF-UKS iter   2:   -75.69095262236314    5.86018e-04   1.53640e-03 DIIS/ADIIS/DAMP=1%
   @DF-UKS iter   3:   -75.69275379609631   -1.80117e-03   1.99639e-04 DIIS/ADIIS/DAMP=1%
   @DF-UKS iter   4:   -75.69158051537069    1.17328e-03   4.63351e-06 DIIS/DAMP=1%
   @DF-UKS iter   5:   -75.69166467727700   -8.41619e-05   1.68906e-06 DIIS/DAMP=1%
   @DF-UKS iter   6:   -75.69166582869479   -1.15142e-06   2.61452e-07 DIIS/DAMP=1%
   @DF-UKS iter   7:   -75.69166734684757   -1.51815e-06   6.34722e-08 DIIS/DAMP=1%
   @DF-UKS iter   8:   -75.69166709269020    2.54157e-07   2.08107e-09 DIIS/DAMP=1%
   @DF-UKS iter   9:   -75.69166713610376   -4.34136e-08   3.00309e-10 DIIS/DAMP=1%
   @DF-UKS iter  10:   -75.69166713465385    1.44991e-09   3.01140e-12 DIIS/DAMP=1%
  Energy and wave function converged.


  ==> Post-Iterations <==

   Electrons on quadrature grid:
      Nalpha   =    4.9999999164 ; deviation = -8.356e-08
      Nbeta    =    4.9999999164 ; deviation = -8.356e-08
      Ntotal   =    9.9999998329 ; deviation = -1.671e-07 

   @Spin Contamination Metric:  -5.329070518E-15
   @S^2 Expected:                0.000000000E+00
   @S^2 Observed:               -5.329070518E-15
   @S   Expected:                0.000000000E+00
   @S   Observed:                0.000000000E+00

    Orbital Energies [Eh]
    ---------------------

    Alpha Occupied:                                                       

       1A1   -18.777303     2A1    -0.507940     3A1    -0.017254  
       1B2     0.067147     1B1     0.067147  

    Alpha Virtual:                                                        

       4A1     0.205050     5A1     0.509895     2B1     0.839918  
       2B2     0.839918     6A1     0.909893     3B1     0.995385  
       3B2     0.995385     7A1     1.048170     8A1     1.378812  
       9A1     1.851780     1A2     1.851780     4B1     1.873338  
       4B2     1.873338    10A1     2.136088    11A1     2.688149  
      12A1     3.489699     2A2     3.489706    13A1     3.498928  
       5B2     3.562901     5B1     3.562901     6B1     3.923991  
       6B2     3.923991     7B1     3.982001     7B2     3.982001  
      14A1     4.053877    15A1     4.610572    16A1     5.507121  
       3A2     5.507122     8B1     5.532595     8B2     5.532595  
       9B1     5.566408     9B2     5.566408    17A1     5.785316  
       4A2     6.582720    18A1     6.582726    10B1     6.645545  
      10B2     6.645545    19A1     7.033486    20A1     7.853064  

    Beta Occupied:                                                        

       1A1   -18.777303     2A1    -0.507940     3A1    -0.017254  
       1B2     0.067147     1B1     0.067147  

    Beta Virtual:                                                         

       4A1     0.205050     5A1     0.509895     2B2     0.839918  
       2B1     0.839918     6A1     0.909893     3B1     0.995385  
       3B2     0.995385     7A1     1.048170     8A1     1.378812  
       9A1     1.851780     1A2     1.851780     4B1     1.873338  
       4B2     1.873338    10A1     2.136088    11A1     2.688149  
      12A1     3.489699     2A2     3.489706    13A1     3.498928  
       5B2     3.562901     5B1     3.562901     6B1     3.923991  
       6B2     3.923991     7B1     3.982001     7B2     3.982001  
      14A1     4.053877    15A1     4.610572    16A1     5.507121  
       3A2     5.507122     8B1     5.532595     8B2     5.532595  
       9B1     5.566408     9B2     5.566408    17A1     5.785316  
       4A2     6.582720    18A1     6.582726    10B1     6.645545  
      10B2     6.645545    19A1     7.033486    20A1     7.853064  

    Final Occupation by Irrep:
             A1    A2    B1    B2 
    DOCC [     3,    0,    1,    1 ]
    SOCC [     0,    0,    0,    0 ]
    NA   [     3,    0,    1,    1 ]
    NB   [     3,    0,    1,    1 ]

  @DF-UKS Final Energy:   -75.69166713465385

   => Energetics <=

    Nuclear Repulsion Energy =              2.5830627387160034
    One-Electron Energy =                -112.9579264611975589
    Two-Electron Energy =                  41.9894261331895464
    DFT Exchange-Correlation Energy =      -7.3062295453618527
    Empirical Dispersion Energy =           0.0000000000000000
    VV10 Nonlocal Energy =                  0.0000000000000000
    Total Energy =                        -75.6916671346538550

  UHF NO Occupations:
  HONO-2 :    1 A1 2.0000000
  HONO-1 :    2 A1 2.0000000
  HONO-0 :    3 A1 2.0000000
  LUNO+0 :    4 A1 0.0000000
  LUNO+1 :    5 A1 0.0000000
  LUNO+2 :    2 B2 0.0000000
  LUNO+3 :    2 B1 0.0000000


Computation Completed


Properties will be evaluated at   0.000000,   0.000000,   0.000000 [a0]

Properties computed using the SCF density matrix


 Multipole Moments:

 ------------------------------------------------------------------------------------
     Multipole            Electronic (a.u.)      Nuclear  (a.u.)        Total (a.u.)
 ------------------------------------------------------------------------------------

 L = 1.  Multiply by 2.5417464519 to convert [e a0] to [Debye]
 Dipole X            :          0.0000000            0.0000000            0.0000000
 Dipole Y            :          0.0000000            0.0000000            0.0000000
 Dipole Z            :         -1.8914475            1.4448942           -0.4465533
 Magnitude           :                                                    0.4465533

 ------------------------------------------------------------------------------------

*** tstop() called on Mac.lan at Wed Aug 27 03:58:15 2025
Module time:
	user time   =     103.04 seconds =       1.72 minutes
	system time =       5.90 seconds =       0.10 minutes
	total time  =         13 seconds =       0.22 minutes
Total time:
	user time   =     103.04 seconds =       1.72 minutes
	system time =       5.90 seconds =       0.10 minutes
	total time  =         13 seconds =       0.22 minutes

*** tstart() called on Mac.lan
*** at Wed Aug 27 03:58:15 2025

   => Libint2 <=

    Primary   basis highest AM E, G, H:  6, 6, 3
    Auxiliary basis highest AM E, G, H:  7, 7, 4
    Onebody   basis highest AM E, G, H:  -, -, -
    Solid Harmonics ordering:            Gaussian
   => Loading Basis Set <=

    Name: CC-PVTZ
    Role: ORBITAL
    Keyword: BASIS
    atoms 1 entry O          line   262 file /Users/joseantoniorodriguesromero/anaconda3/share/psi4/basis/cc-pvtz.gbs 
    atoms 2 entry H          line    23 file /Users/joseantoniorodriguesromero/anaconda3/share/psi4/basis/cc-pvtz.gbs 


         ---------------------------------------------------------
                                   SCF
               by Justin Turney, Rob Parrish, Andy Simmonett
                          and Daniel G. A. Smith
                              UKS Reference
                        1 Threads,    500 MiB Core
         ---------------------------------------------------------

  ==> Geometry <==

    Molecular point group: c2v
    Full point group: C_inf_v

    Geometry (in Angstrom), charge = -1, multiplicity = 1:

       Center              X                  Y                   Z               Mass       
    ------------   -----------------  -----------------  -----------------  -----------------
         O            0.000000000000     0.000000000000    -0.097145435894    15.994914619570
         H            0.000000000000     0.000000000000     1.541768564106     1.007825032230

  Running in c2v symmetry.

  Rotational constants: A = ************  B =      6.61966  C =      6.61966 [cm^-1]
  Rotational constants: A = ************  B = 198452.56053  C = 198452.56053 [MHz]
  Nuclear repulsion =    2.583062738716003

  Charge       = -1
  Multiplicity = 1
  Electrons    = 10
  Nalpha       = 5
  Nbeta        = 5

  ==> Algorithm <==

  SCF Algorithm Type is DF.
  DIIS enabled.
  MOM disabled.
  Fractional occupation disabled.
  Guess Type is READ.
  Energy threshold   = 1.00e-08
  Density threshold  = 1.00e-08
  Integral threshold = 1.00e-12

  ==> Primary Basis <==

  Basis Set: CC-PVTZ
    Blend: CC-PVTZ
    Number of shells: 16
    Number of basis functions: 44
    Number of Cartesian functions: 50
    Spherical Harmonics?: true
    Max angular momentum: 3

  ==> DFT Potential <==

   => LibXC <=

    Version 6.2.2
    S. Lehtola, C. Steigemann, M. J.T. Oliveira, and M. A.L. Marques.,  SoftwareX 7, 1–5 (2018) (10.1016/j.softx.2017.11.002)

   => Composite Functional: B3LYP <= 

    B3LYP Hyb-GGA Exchange-Correlation Functional

    P. J. Stephens, F. J. Devlin, C. F. Chabalowski, and M. J. Frisch.,  J. Phys. Chem. 98, 11623 (1994) (10.1021/j100096a001)

    Deriv               =              1
    GGA                 =           TRUE
    Meta                =          FALSE

    Exchange Hybrid     =           TRUE
    MP2 Hybrid          =          FALSE

   => Exchange Functionals <=

    0.0800   Slater exchange
    0.7200         Becke 88

   => Exact (HF) Exchange <=

    0.2000               HF 

   => Correlation Functionals <=

    0.1900   Vosko, Wilk & Nusair (VWN5_RPA)
    0.8100   Lee, Yang & Parr

   => LibXC Density Thresholds  <==

    XC_HYB_GGA_XC_B3LYP:  1.00E-15 

   => Molecular Quadrature <=

    Radial Scheme          =       TREUTLER
    Pruning Scheme         =           NONE
    Nuclear Scheme         =       TREUTLER

    Blocking Scheme        =         OCTREE
    BS radius alpha        =              1
    Pruning alpha          =              1
    Radial Points          =             75
    Spherical Points       =            302
    Total Points           =          44187
    Total Blocks           =            392
    Max Points             =            254
    Max Functions          =             44
    Weights Tolerance      =       1.00E-15

   => Loading Basis Set <=

    Name: (CC-PVTZ AUX)
    Role: JKFIT
    Keyword: DF_BASIS_SCF
    atoms 1 entry O          line   229 file /Users/joseantoniorodriguesromero/anaconda3/share/psi4/basis/cc-pvtz-jkfit.gbs 
    atoms 2 entry H          line    51 file /Users/joseantoniorodriguesromero/anaconda3/share/psi4/basis/cc-pvtz-jkfit.gbs 

   => Loading Basis Set <=

    Name: CC-PVTZ
    Role: ORBITAL
    Keyword: BASIS
    atoms 1 entry O          line   262 file /Users/joseantoniorodriguesromero/anaconda3/share/psi4/basis/cc-pvtz.gbs 
    atoms 2 entry H          line    23 file /Users/joseantoniorodriguesromero/anaconda3/share/psi4/basis/cc-pvtz.gbs 

  Reading orbitals from file /tmp/scan_HO_41.default.66201.180.npy, no projection.

  ==> Integral Setup <==

  DFHelper Memory: AOs need 0.002 GiB; user supplied 0.312 GiB. 
  Using in-core AOs.

  ==> MemDFJK: Density-Fitted J/K Matrices <==

    J tasked:                   Yes
    K tasked:                   Yes
    wK tasked:                   No
    OpenMP threads:               1
    Memory [MiB]:               319
    Algorithm:                 Core
    Schwarz Cutoff:           1E-12
    Mask sparsity (%):       0.0000
    Fitting Condition:        1E-10

   => Auxiliary Basis Set <=

  Basis Set: (CC-PVTZ AUX)
    Blend: CC-PVTZ-JKFIT
    Number of shells: 35
    Number of basis functions: 109
    Number of Cartesian functions: 131
    Spherical Harmonics?: true
    Max angular momentum: 4

  Cached 100.0% of DFT collocation blocks in 0.054 [GiB].

  Minimum eigenvalue in the overlap matrix is 2.8835748262E-02.
  Reciprocal condition number of the overlap matrix is 9.2039506295E-03.
    Using symmetric orthogonalization.

  ==> Pre-Iterations <==

  SCF Guess: Orbitals guess was supplied from a previous computation.

   -------------------------------------------------------
    Irrep   Nso     Nmo     Nalpha   Nbeta   Ndocc  Nsocc
   -------------------------------------------------------
     A1        20      20       3       3       3       0
     A2         4       4       0       0       0       0
     B1        10      10       1       1       1       0
     B2        10      10       1       1       1       0
   -------------------------------------------------------
    Total      44      44       5       5       5       0
   -------------------------------------------------------

  ==> Iterations <==

                           Total Energy        Delta E     RMS |[F,P]|

   @DF-UKS iter   0:   -75.69166713484442   -7.56917e+01   2.00204e-12 
   @DF-UKS iter   1:   -75.69166713484439    2.84217e-14   5.61576e-12 DIIS
  Energy and wave function converged.


  ==> Post-Iterations <==

   Electrons on quadrature grid:
      Nalpha   =    4.9999999164 ; deviation = -8.356e-08
      Nbeta    =    4.9999999164 ; deviation = -8.356e-08
      Ntotal   =    9.9999998329 ; deviation = -1.671e-07 

   @Spin Contamination Metric:  -1.776356839E-15
   @S^2 Expected:                0.000000000E+00
   @S^2 Observed:               -1.776356839E-15
   @S   Expected:                0.000000000E+00
   @S   Observed:                0.000000000E+00

    Orbital Energies [Eh]
    ---------------------

    Alpha Occupied:                                                       

       1A1   -18.777303     2A1    -0.507940     3A1    -0.017254  
       1B2     0.067147     1B1     0.067147  

    Alpha Virtual:                                                        

       4A1     0.205050     5A1     0.509895     2B1     0.839918  
       2B2     0.839918     6A1     0.909893     3B1     0.995385  
       3B2     0.995385     7A1     1.048170     8A1     1.378812  
       9A1     1.851780     1A2     1.851780     4B1     1.873338  
       4B2     1.873338    10A1     2.136088    11A1     2.688149  
      12A1     3.489699     2A2     3.489706    13A1     3.498928  
       5B1     3.562901     5B2     3.562901     6B1     3.923991  
       6B2     3.923991     7B1     3.982001     7B2     3.982001  
      14A1     4.053877    15A1     4.610572    16A1     5.507121  
       3A2     5.507122     8B1     5.532595     8B2     5.532595  
       9B1     5.566408     9B2     5.566408    17A1     5.785316  
       4A2     6.582720    18A1     6.582726    10B1     6.645545  
      10B2     6.645545    19A1     7.033486    20A1     7.853064  

    Beta Occupied:                                                        

       1A1   -18.777303     2A1    -0.507940     3A1    -0.017254  
       1B2     0.067147     1B1     0.067147  

    Beta Virtual:                                                         

       4A1     0.205050     5A1     0.509895     2B1     0.839918  
       2B2     0.839918     6A1     0.909893     3B1     0.995385  
       3B2     0.995385     7A1     1.048170     8A1     1.378812  
       9A1     1.851780     1A2     1.851780     4B1     1.873338  
       4B2     1.873338    10A1     2.136088    11A1     2.688149  
      12A1     3.489699     2A2     3.489706    13A1     3.498928  
       5B1     3.562901     5B2     3.562901     6B1     3.923991  
       6B2     3.923991     7B1     3.982001     7B2     3.982001  
      14A1     4.053877    15A1     4.610572    16A1     5.507121  
       3A2     5.507122     8B1     5.532595     8B2     5.532595  
       9B1     5.566408     9B2     5.566408    17A1     5.785316  
       4A2     6.582720    18A1     6.582726    10B1     6.645545  
      10B2     6.645545    19A1     7.033486    20A1     7.853064  

    Final Occupation by Irrep:
             A1    A2    B1    B2 
    DOCC [     3,    0,    1,    1 ]
    SOCC [     0,    0,    0,    0 ]
    NA   [     3,    0,    1,    1 ]
    NB   [     3,    0,    1,    1 ]

  @DF-UKS Final Energy:   -75.69166713484439

   => Energetics <=

    Nuclear Repulsion Energy =              2.5830627387160034
    One-Electron Energy =                -112.9579264622307733
    Two-Electron Energy =                  41.9894261341178208
    DFT Exchange-Correlation Energy =      -7.3062295454474651
    Empirical Dispersion Energy =           0.0000000000000000
    VV10 Nonlocal Energy =                  0.0000000000000000
    Total Energy =                        -75.6916671348444083

  UHF NO Occupations:
  HONO-2 :    1 A1 2.0000000
  HONO-1 :    2 A1 2.0000000
  HONO-0 :    3 A1 2.0000000
  LUNO+0 :    2 B1 0.0000000
  LUNO+1 :    4 A1 0.0000000
  LUNO+2 :    5 A1 0.0000000
  LUNO+3 :    6 A1 0.0000000


Computation Completed


Properties will be evaluated at   0.000000,   0.000000,   0.000000 [a0]

Properties computed using the B3LYP density matrix


 Multipole Moments:

 ------------------------------------------------------------------------------------
     Multipole            Electronic (a.u.)      Nuclear  (a.u.)        Total (a.u.)
 ------------------------------------------------------------------------------------

 L = 1.  Multiply by 2.5417464519 to convert [e a0] to [Debye]
 Dipole X            :          0.0000000            0.0000000            0.0000000
 Dipole Y            :          0.0000000            0.0000000            0.0000000
 Dipole Z            :         -1.8914475            1.4448942           -0.4465533
 Magnitude           :                                                    0.4465533

 L = 2.  Multiply by 1.3450342976 to convert [e a0^2] to [Debye ang]
 Quadrupole XX       :         -6.8945668            0.0000000           -6.8945668
 Quadrupole XY       :          0.0000000            0.0000000            0.0000000
 Quadrupole XZ       :          0.0000000            0.0000000            0.0000000
 Quadrupole YY       :         -6.8945668            0.0000000           -6.8945668
 Quadrupole YZ       :          0.0000000            0.0000000            0.0000000
 Quadrupole ZZ       :        -16.2088861            8.7582086           -7.4506775
 Traceless XX        :          3.1047731           -2.9194029            0.1853702
 Traceless YY        :          3.1047731           -2.9194029            0.1853702
 Traceless ZZ        :         -6.2095462            5.8388057           -0.3707405

 ------------------------------------------------------------------------------------
  ==> Computing MBIS Charges <==

  Electron Count from Grid (Expected Number): 10.00000 (10.00000)
  Difference: -0.00000

  MBIS Charges: (a.u.)
   Center  Symbol  Z      Pop.       Charge
      1       O    8    8.817510   -0.817510
      2       H    1    1.182489   -0.182489

  MBIS Dipoles: [e a0]
   Center  Symbol  Z        X           Y           Z
      1       O    8   -0.000000   -0.000000   -0.089057
      2       H    1    0.000000    0.000000    0.024113

  MBIS Quadrupoles: [e a0^2]
   Center  Symbol  Z      XX        XY        XZ        YY        YZ        ZZ
      1       O    8   -5.4272   -0.0000    0.0000   -5.4272    0.0000   -4.6174
      2       H    1   -1.4674    0.0000   -0.0000   -1.4674    0.0000   -1.4299

  MBIS Octupoles: [e a0^3]
   Center  Symbol  Z      XXX       XXY       XXZ       XYY       XYZ       XZZ       YYY       YYZ       YZZ       ZZZ
      1       O    8   -0.0000   -0.0000   -0.2068   -0.0000    0.0000   -0.0000   -0.0000   -0.2068   -0.0000   -0.9749
      2       H    1   -0.0000    0.0000    0.0414    0.0000   -0.0000   -0.0000    0.0000    0.0414    0.0000    0.0488

  MBIS Radial Moments:
   Center  Symbol  Z      [a0^2]      [a0^3]      [a0^4]      
      1       O    8   15.471805   32.391893   80.567743
      2       H    1    4.364581   11.922969   38.100806

  MBIS Valence Widths: [a0]
   Center  Symbol  Z     Width
      1       O    8    0.425785
      2       H    1    0.554578

*** tstop() called on Mac.lan at Wed Aug 27 03:58:17 2025
Module time:
	user time   =      19.94 seconds =       0.33 minutes
	system time =       2.55 seconds =       0.04 minutes
	total time  =          2 seconds =       0.03 minutes
Total time:
	user time   =     123.00 seconds =       2.05 minutes
	system time =       8.60 seconds =       0.14 minutes
	total time  =         15 seconds =       0.25 minutes

    Psi4 stopped on: Wednesday, 27 August 2025 03:58AM
    Psi4 wall time for execution: 0:00:15.30

*** Psi4 exiting successfully. Buy a developer a beer!
