
    -----------------------------------------------------------------------
          Psi4: An Open-Source Ab Initio Electronic Structure Package
                               Psi4 1.9.1 release

                         Git: Rev {} zzzzzzz 


    D. G. A. Smith, L. A. Burns, A. C. Simmonett, R. M. Parrish,
    M. C. Schieber, R. Galvelis, P. Kraus, H. Kruse, R. Di Remigio,
    A. Alenaizan, A. M. James, S. Lehtola, J. P. Misiewicz, M. Scheurer,
    R. A. Shaw, J. B. Schriber, Y. Xie, Z. L. Glick, D. A. Sirianni,
    J. S. O'Brien, J. M. Waldrop, A. Kumar, E. G. Hohenstein,
    B. P. Pritchard, B. R. Brooks, H. F. Schaefer III, A. Yu. Sokolov,
    K. Patkowski, A. E. DePrince III, U. Bozkaya, R. A. King,
    F. A. Evangelista, J. M. Turney, T. D. Crawford, C. D. Sherrill,
    J. Chem. Phys. 152(18) 184108 (2020). https://doi.org/10.1063/5.0006002

                            Additional Code Authors
    E. T. Seidl, C. L. Janssen, E. F. Valeev, M. L. Leininger,
    J. F. Gonthier, R. M. Richard, H. R. McAlexander, M. Saitow, X. Wang,
    P. Verma, M. H. Lechner, A. Jiang, S. Behnle, A. G. Heide,
    M. F. Herbst, and D. L. Poole

             Previous Authors, Complete List of Code Contributors,
                       and Citations for Specific Modules
    https://github.com/psi4/psi4/blob/master/codemeta.json
    https://github.com/psi4/psi4/graphs/contributors
    http://psicode.org/psi4manual/master/introduction.html#citing-psifour

    -----------------------------------------------------------------------


    Psi4 started on: Wednesday, 27 August 2025 10:12AM

    Process ID: 67026
    Host:       Mac.lan
    PSIDATADIR: /Users/joseantoniorodriguesromero/anaconda3/share/psi4
    Memory:     500.0 MiB
    Threads:    1
    
  ==> Input File <==

--------------------------------------------------------------------------
molecule { 
-1 3
O           0.000000           0.000000           0.000000
N           0.000000           0.000000           0.864985
}

set { 
basis              cc-pvtz
reference          uks
maxiter            500
DAMPING_PERCENTAGE 1
E_CONVERGENCE      1.0E-8
D_CONVERGENCE      1.0E-8
DIIS_MAX_VECS      400
MBIS_MAXITER       8000
guess              read
}

E, wfn = energy('b3lyp', restart_file='last_wfn', return_wfn=True)
properties('b3lyp','MBIS_CHARGES', wfn=wfn)
wfn.to_file('last_wfn')
--------------------------------------------------------------------------

Scratch directory: /tmp/
 Found user provided orbital data. Setting orbital guess to READ 
 Copying restart file <last_wfn.npy> to </tmp/scan_NO_12.default.67026.180.npy> for internal processing
   => Libint2 <=

    Primary   basis highest AM E, G, H:  6, 6, 3
    Auxiliary basis highest AM E, G, H:  7, 7, 4
    Onebody   basis highest AM E, G, H:  -, -, -
    Solid Harmonics ordering:            Gaussian

*** tstart() called on Mac.lan
*** at Wed Aug 27 10:12:22 2025

   => Loading Basis Set <=

    Name: CC-PVTZ
    Role: ORBITAL
    Keyword: BASIS
    atoms 1 entry O          line   262 file /Users/joseantoniorodriguesromero/anaconda3/share/psi4/basis/cc-pvtz.gbs 
    atoms 2 entry N          line   224 file /Users/joseantoniorodriguesromero/anaconda3/share/psi4/basis/cc-pvtz.gbs 


         ---------------------------------------------------------
                                   SCF
               by Justin Turney, Rob Parrish, Andy Simmonett
                          and Daniel G. A. Smith
                              UKS Reference
                        1 Threads,    500 MiB Core
         ---------------------------------------------------------

  ==> Geometry <==

    Molecular point group: c2v
    Full point group: C_inf_v

    Geometry (in Angstrom), charge = -1, multiplicity = 3:

       Center              X                  Y                   Z               Mass       
    ------------   -----------------  -----------------  -----------------  -----------------
         O            0.000000000000     0.000000000000    -0.403775370394    15.994914619570
         N            0.000000000000     0.000000000000     0.461209629606    14.003074004430

  Running in c2v symmetry.

  Rotational constants: A = ************  B =      3.01763  C =      3.01763 [cm^-1]
  Rotational constants: A = ************  B =  90466.30923  C =  90466.30923 [MHz]
  Nuclear repulsion =   34.259465536997752

  Charge       = -1
  Multiplicity = 3
  Electrons    = 16
  Nalpha       = 9
  Nbeta        = 7

  ==> Algorithm <==

  SCF Algorithm Type is DF.
  DIIS enabled.
  MOM disabled.
  Fractional occupation disabled.
  Guess Type is READ.
  Energy threshold   = 1.00e-08
  Density threshold  = 1.00e-08
  Integral threshold = 1.00e-12

  ==> Primary Basis <==

  Basis Set: CC-PVTZ
    Blend: CC-PVTZ
    Number of shells: 20
    Number of basis functions: 60
    Number of Cartesian functions: 70
    Spherical Harmonics?: true
    Max angular momentum: 3

  ==> DFT Potential <==

   => LibXC <=

    Version 6.2.2
    S. Lehtola, C. Steigemann, M. J.T. Oliveira, and M. A.L. Marques.,  SoftwareX 7, 1–5 (2018) (10.1016/j.softx.2017.11.002)

   => Composite Functional: B3LYP <= 

    B3LYP Hyb-GGA Exchange-Correlation Functional

    P. J. Stephens, F. J. Devlin, C. F. Chabalowski, and M. J. Frisch.,  J. Phys. Chem. 98, 11623 (1994) (10.1021/j100096a001)

    Deriv               =              1
    GGA                 =           TRUE
    Meta                =          FALSE

    Exchange Hybrid     =           TRUE
    MP2 Hybrid          =          FALSE

   => Exchange Functionals <=

    0.0800   Slater exchange
    0.7200         Becke 88

   => Exact (HF) Exchange <=

    0.2000               HF 

   => Correlation Functionals <=

    0.1900   Vosko, Wilk & Nusair (VWN5_RPA)
    0.8100   Lee, Yang & Parr

   => LibXC Density Thresholds  <==

    XC_HYB_GGA_XC_B3LYP:  1.00E-15 

   => Molecular Quadrature <=

    Radial Scheme          =       TREUTLER
    Pruning Scheme         =           NONE
    Nuclear Scheme         =       TREUTLER

    Blocking Scheme        =         OCTREE
    BS radius alpha        =              1
    Pruning alpha          =              1
    Radial Points          =             75
    Spherical Points       =            302
    Total Points           =          42666
    Total Blocks           =            382
    Max Points             =            256
    Max Functions          =             60
    Weights Tolerance      =       1.00E-15

   => Loading Basis Set <=

    Name: (CC-PVTZ AUX)
    Role: JKFIT
    Keyword: DF_BASIS_SCF
    atoms 1 entry O          line   229 file /Users/joseantoniorodriguesromero/anaconda3/share/psi4/basis/cc-pvtz-jkfit.gbs 
    atoms 2 entry N          line   177 file /Users/joseantoniorodriguesromero/anaconda3/share/psi4/basis/cc-pvtz-jkfit.gbs 

   => Loading Basis Set <=

    Name: CC-PVTZ
    Role: ORBITAL
    Keyword: BASIS
    atoms 1 entry O          line   262 file /Users/joseantoniorodriguesromero/anaconda3/share/psi4/basis/cc-pvtz.gbs 
    atoms 2 entry N          line   224 file /Users/joseantoniorodriguesromero/anaconda3/share/psi4/basis/cc-pvtz.gbs 

  Reading orbitals from file /tmp/scan_NO_12.default.67026.180.npy, no projection.

  ==> Integral Setup <==

  DFHelper Memory: AOs need 0.005 GiB; user supplied 0.295 GiB. 
  Using in-core AOs.

  ==> MemDFJK: Density-Fitted J/K Matrices <==

    J tasked:                   Yes
    K tasked:                   Yes
    wK tasked:                   No
    OpenMP threads:               1
    Memory [MiB]:               302
    Algorithm:                 Core
    Schwarz Cutoff:           1E-12
    Mask sparsity (%):       0.0000
    Fitting Condition:        1E-10

   => Auxiliary Basis Set <=

  Basis Set: (CC-PVTZ AUX)
    Blend: CC-PVTZ-JKFIT
    Number of shells: 50
    Number of basis functions: 158
    Number of Cartesian functions: 192
    Spherical Harmonics?: true
    Max angular momentum: 4

  Cached 100.0% of DFT collocation blocks in 0.071 [GiB].

  Minimum eigenvalue in the overlap matrix is 1.4092739831E-03.
  Reciprocal condition number of the overlap matrix is 3.3646927453E-04.
    Using symmetric orthogonalization.

  ==> Pre-Iterations <==

  SCF Guess: Orbitals guess was supplied from a previous computation.

   -------------------------------------------------------
    Irrep   Nso     Nmo     Nalpha   Nbeta   Ndocc  Nsocc
   -------------------------------------------------------
     A1        26      26       5       5       5       0
     A2         6       6       0       0       0       0
     B1        14      14       2       1       1       1
     B2        14      14       2       1       1       1
   -------------------------------------------------------
    Total      60      60       9       7       7       2
   -------------------------------------------------------

  ==> Iterations <==

                           Total Energy        Delta E     RMS |[F,P]|

   @DF-UKS iter   0:  -129.48443489145126   -1.29484e+02   1.15592e-02 
   @DF-UKS iter   1:  -129.44228525798403    4.21496e-02   2.25935e-03 ADIIS/DIIS
   @DF-UKS iter   2:  -129.44150406180540    7.81196e-04   2.77041e-03 ADIIS/DIIS/DAMP=1%
   @DF-UKS iter   3:  -129.44257279014371   -1.06873e-03   1.21848e-04 ADIIS/DIIS/DAMP=1%
   @DF-UKS iter   4:  -129.44429871907556   -1.72593e-03   5.47230e-05 DIIS/DAMP=1%
   @DF-UKS iter   5:  -129.44445652739211   -1.57808e-04   2.38664e-05 DIIS/DAMP=1%
   @DF-UKS iter   6:  -129.44437286323856    8.36642e-05   1.99832e-06 DIIS/DAMP=1%
   @DF-UKS iter   7:  -129.44439393508247   -2.10718e-05   3.22352e-07 DIIS/DAMP=1%
   @DF-UKS iter   8:  -129.44439536069544   -1.42561e-06   6.12484e-08 DIIS/DAMP=1%
   @DF-UKS iter   9:  -129.44439508612606    2.74569e-07   7.85246e-09 DIIS/DAMP=1%
   @DF-UKS iter  10:  -129.44439512507836   -3.89523e-08   1.40817e-09 DIIS/DAMP=1%
   @DF-UKS iter  11:  -129.44439512614650   -1.06814e-09   3.30125e-10 DIIS/DAMP=1%
  Energy and wave function converged.


  ==> Post-Iterations <==

   Electrons on quadrature grid:
      Nalpha   =    8.9999997771 ; deviation = -2.229e-07
      Nbeta    =    6.9999998251 ; deviation = -1.749e-07
      Ntotal   =   15.9999996022 ; deviation = -3.978e-07 

   @Spin Contamination Metric:   2.248897353E-03
   @S^2 Expected:                2.000000000E+00
   @S^2 Observed:                2.002248897E+00
   @S   Expected:                1.000000000E+00
   @S   Observed:                1.000000000E+00

    Orbital Energies [Eh]
    ---------------------

    Alpha Occupied:                                                       

       1A1   -18.828007     2A1   -13.966179     3A1    -1.090111  
       1B1    -0.298966     1B2    -0.298966     4A1    -0.289445  
       5A1    -0.126179     2B2     0.297049     2B1     0.297049  

    Alpha Virtual:                                                        

       6A1     0.515560     3B2     0.680423     3B1     0.680423  
       7A1     0.712212     8A1     0.834412     4B2     0.909302  
       4B1     0.909302     9A1     1.253137     1A2     1.253138  
      10A1     1.457307    11A1     1.540876     5B1     1.653972  
       5B2     1.653972     2A2     1.963407    12A1     1.963408  
      13A1     2.315276     6B2     2.414131     6B1     2.414131  
      14A1     2.926419     7B2     3.102465     7B1     3.102465  
      15A1     3.592197    16A1     4.095648     8B1     4.102999  
       8B2     4.102999     9B1     4.236653     9B2     4.236653  
      17A1     4.290694     3A2     4.290694    10B1     4.582662  
      10B2     4.582662     4A2     4.757165    18A1     4.757165  
      19A1     5.060347    11B1     5.258327    11B2     5.258327  
      12B1     5.533954    12B2     5.533954    20A1     6.177749  
       5A2     6.509613    21A1     6.509614    22A1     6.667261  
       6A2     6.667261    13B2     6.953643    13B1     6.953643  
      23A1     7.223903    24A1     7.906187    14B1     8.557291  
      14B2     8.557291    25A1     9.696197    26A1    22.428880  

    Beta Occupied:                                                        

       1A1   -18.809288     2A1   -13.948355     3A1    -1.064381  
       4A1    -0.239082     1B1    -0.236841     1B2    -0.236841  
       5A1    -0.068394  

    Beta Virtual:                                                         

       2B2     0.442226     2B1     0.442226     6A1     0.527832  
       3B2     0.711825     3B1     0.711825     7A1     0.732905  
       8A1     0.863084     4B2     0.961503     4B1     0.961503  
       1A2     1.294332     9A1     1.294332    10A1     1.491724  
      11A1     1.560290     5B1     1.691559     5B2     1.691559  
      12A1     2.015884     2A2     2.015884    13A1     2.335990  
       6B2     2.448215     6B1     2.448215    14A1     2.960702  
       7B2     3.154519     7B1     3.154519    15A1     3.621384  
      16A1     4.122219     8B1     4.157844     8B2     4.157844  
       9B1     4.286049     9B2     4.286049    17A1     4.321212  
       3A2     4.321212    10B2     4.619554    10B1     4.619554  
      18A1     4.834461     4A2     4.834462    19A1     5.086069  
      11B1     5.289894    11B2     5.289894    12B1     5.583177  
      12B2     5.583177    20A1     6.204952     5A2     6.576913  
      21A1     6.576914    22A1     6.707645     6A2     6.707646  
      13B2     6.986705    13B1     6.986705    23A1     7.241378  
      24A1     7.927891    14B1     8.595843    14B2     8.595843  
      25A1     9.729917    26A1    22.454950  

    Final Occupation by Irrep:
             A1    A2    B1    B2 
    DOCC [     5,    0,    1,    1 ]
    SOCC [     0,    0,    1,    1 ]
    NA   [     5,    0,    2,    2 ]
    NB   [     5,    0,    1,    1 ]

  @DF-UKS Final Energy:  -129.44439512614650

   => Energetics <=

    Nuclear Repulsion Energy =             34.2594655369977517
    One-Electron Energy =                -249.1364355470335852
    Two-Electron Energy =                  98.4839602831411582
    DFT Exchange-Correlation Energy =     -13.0513853992518118
    Empirical Dispersion Energy =           0.0000000000000000
    VV10 Nonlocal Energy =                  0.0000000000000000
    Total Energy =                       -129.4443951261465031

  UHF NO Occupations:
  HONO-2 :    5 A1 1.9996174
  HONO-1 :    2 B1 1.0000000
  HONO-0 :    2 B2 1.0000000
  LUNO+0 :    6 A1 0.0003826
  LUNO+1 :    3 B1 0.0003076
  LUNO+2 :    3 B2 0.0003076
  LUNO+3 :    7 A1 0.0001209


Computation Completed


Properties will be evaluated at   0.000000,   0.000000,   0.000000 [a0]

Properties computed using the SCF density matrix


 Multipole Moments:

 ------------------------------------------------------------------------------------
     Multipole            Electronic (a.u.)      Nuclear  (a.u.)        Total (a.u.)
 ------------------------------------------------------------------------------------

 L = 1.  Multiply by 2.5417464519 to convert [e a0] to [Debye]
 Dipole X            :          0.0000000            0.0000000            0.0000000
 Dipole Y            :          0.0000000            0.0000000            0.0000000
 Dipole Z            :         -0.8409696           -0.0032797           -0.8442493
 Magnitude           :                                                    0.8442493

 ------------------------------------------------------------------------------------

*** tstop() called on Mac.lan at Wed Aug 27 10:12:28 2025
Module time:
	user time   =      59.46 seconds =       0.99 minutes
	system time =       1.48 seconds =       0.02 minutes
	total time  =          6 seconds =       0.10 minutes
Total time:
	user time   =      59.46 seconds =       0.99 minutes
	system time =       1.48 seconds =       0.02 minutes
	total time  =          6 seconds =       0.10 minutes

*** tstart() called on Mac.lan
*** at Wed Aug 27 10:12:28 2025

   => Libint2 <=

    Primary   basis highest AM E, G, H:  6, 6, 3
    Auxiliary basis highest AM E, G, H:  7, 7, 4
    Onebody   basis highest AM E, G, H:  -, -, -
    Solid Harmonics ordering:            Gaussian
   => Loading Basis Set <=

    Name: CC-PVTZ
    Role: ORBITAL
    Keyword: BASIS
    atoms 1 entry O          line   262 file /Users/joseantoniorodriguesromero/anaconda3/share/psi4/basis/cc-pvtz.gbs 
    atoms 2 entry N          line   224 file /Users/joseantoniorodriguesromero/anaconda3/share/psi4/basis/cc-pvtz.gbs 


         ---------------------------------------------------------
                                   SCF
               by Justin Turney, Rob Parrish, Andy Simmonett
                          and Daniel G. A. Smith
                              UKS Reference
                        1 Threads,    500 MiB Core
         ---------------------------------------------------------

  ==> Geometry <==

    Molecular point group: c2v
    Full point group: C_inf_v

    Geometry (in Angstrom), charge = -1, multiplicity = 3:

       Center              X                  Y                   Z               Mass       
    ------------   -----------------  -----------------  -----------------  -----------------
         O            0.000000000000     0.000000000000    -0.403775370394    15.994914619570
         N            0.000000000000     0.000000000000     0.461209629606    14.003074004430

  Running in c2v symmetry.

  Rotational constants: A = ************  B =      3.01763  C =      3.01763 [cm^-1]
  Rotational constants: A = ************  B =  90466.30923  C =  90466.30923 [MHz]
  Nuclear repulsion =   34.259465536997752

  Charge       = -1
  Multiplicity = 3
  Electrons    = 16
  Nalpha       = 9
  Nbeta        = 7

  ==> Algorithm <==

  SCF Algorithm Type is DF.
  DIIS enabled.
  MOM disabled.
  Fractional occupation disabled.
  Guess Type is READ.
  Energy threshold   = 1.00e-08
  Density threshold  = 1.00e-08
  Integral threshold = 1.00e-12

  ==> Primary Basis <==

  Basis Set: CC-PVTZ
    Blend: CC-PVTZ
    Number of shells: 20
    Number of basis functions: 60
    Number of Cartesian functions: 70
    Spherical Harmonics?: true
    Max angular momentum: 3

  ==> DFT Potential <==

   => LibXC <=

    Version 6.2.2
    S. Lehtola, C. Steigemann, M. J.T. Oliveira, and M. A.L. Marques.,  SoftwareX 7, 1–5 (2018) (10.1016/j.softx.2017.11.002)

   => Composite Functional: B3LYP <= 

    B3LYP Hyb-GGA Exchange-Correlation Functional

    P. J. Stephens, F. J. Devlin, C. F. Chabalowski, and M. J. Frisch.,  J. Phys. Chem. 98, 11623 (1994) (10.1021/j100096a001)

    Deriv               =              1
    GGA                 =           TRUE
    Meta                =          FALSE

    Exchange Hybrid     =           TRUE
    MP2 Hybrid          =          FALSE

   => Exchange Functionals <=

    0.0800   Slater exchange
    0.7200         Becke 88

   => Exact (HF) Exchange <=

    0.2000               HF 

   => Correlation Functionals <=

    0.1900   Vosko, Wilk & Nusair (VWN5_RPA)
    0.8100   Lee, Yang & Parr

   => LibXC Density Thresholds  <==

    XC_HYB_GGA_XC_B3LYP:  1.00E-15 

   => Molecular Quadrature <=

    Radial Scheme          =       TREUTLER
    Pruning Scheme         =           NONE
    Nuclear Scheme         =       TREUTLER

    Blocking Scheme        =         OCTREE
    BS radius alpha        =              1
    Pruning alpha          =              1
    Radial Points          =             75
    Spherical Points       =            302
    Total Points           =          42666
    Total Blocks           =            382
    Max Points             =            256
    Max Functions          =             60
    Weights Tolerance      =       1.00E-15

   => Loading Basis Set <=

    Name: (CC-PVTZ AUX)
    Role: JKFIT
    Keyword: DF_BASIS_SCF
    atoms 1 entry O          line   229 file /Users/joseantoniorodriguesromero/anaconda3/share/psi4/basis/cc-pvtz-jkfit.gbs 
    atoms 2 entry N          line   177 file /Users/joseantoniorodriguesromero/anaconda3/share/psi4/basis/cc-pvtz-jkfit.gbs 

   => Loading Basis Set <=

    Name: CC-PVTZ
    Role: ORBITAL
    Keyword: BASIS
    atoms 1 entry O          line   262 file /Users/joseantoniorodriguesromero/anaconda3/share/psi4/basis/cc-pvtz.gbs 
    atoms 2 entry N          line   224 file /Users/joseantoniorodriguesromero/anaconda3/share/psi4/basis/cc-pvtz.gbs 

  Reading orbitals from file /tmp/scan_NO_12.default.67026.180.npy, no projection.

  ==> Integral Setup <==

  DFHelper Memory: AOs need 0.005 GiB; user supplied 0.295 GiB. 
  Using in-core AOs.

  ==> MemDFJK: Density-Fitted J/K Matrices <==

    J tasked:                   Yes
    K tasked:                   Yes
    wK tasked:                   No
    OpenMP threads:               1
    Memory [MiB]:               302
    Algorithm:                 Core
    Schwarz Cutoff:           1E-12
    Mask sparsity (%):       0.0000
    Fitting Condition:        1E-10

   => Auxiliary Basis Set <=

  Basis Set: (CC-PVTZ AUX)
    Blend: CC-PVTZ-JKFIT
    Number of shells: 50
    Number of basis functions: 158
    Number of Cartesian functions: 192
    Spherical Harmonics?: true
    Max angular momentum: 4

  Cached 100.0% of DFT collocation blocks in 0.071 [GiB].

  Minimum eigenvalue in the overlap matrix is 1.4092739831E-03.
  Reciprocal condition number of the overlap matrix is 3.3646927453E-04.
    Using symmetric orthogonalization.

  ==> Pre-Iterations <==

  SCF Guess: Orbitals guess was supplied from a previous computation.

   -------------------------------------------------------
    Irrep   Nso     Nmo     Nalpha   Nbeta   Ndocc  Nsocc
   -------------------------------------------------------
     A1        26      26       5       5       5       0
     A2         6       6       0       0       0       0
     B1        14      14       2       1       1       1
     B2        14      14       2       1       1       1
   -------------------------------------------------------
    Total      60      60       9       7       7       2
   -------------------------------------------------------

  ==> Iterations <==

                           Total Energy        Delta E     RMS |[F,P]|

   @DF-UKS iter   0:  -129.44439512546171   -1.29444e+02   3.08005e-11 
   @DF-UKS iter   1:  -129.44439512546154    1.70530e-13   3.73750e-11 DIIS
  Energy and wave function converged.


  ==> Post-Iterations <==

   Electrons on quadrature grid:
      Nalpha   =    8.9999997771 ; deviation = -2.229e-07
      Nbeta    =    6.9999998251 ; deviation = -1.749e-07
      Ntotal   =   15.9999996022 ; deviation = -3.978e-07 

   @Spin Contamination Metric:   2.248897347E-03
   @S^2 Expected:                2.000000000E+00
   @S^2 Observed:                2.002248897E+00
   @S   Expected:                1.000000000E+00
   @S   Observed:                1.000000000E+00

    Orbital Energies [Eh]
    ---------------------

    Alpha Occupied:                                                       

       1A1   -18.828007     2A1   -13.966179     3A1    -1.090111  
       1B1    -0.298966     1B2    -0.298966     4A1    -0.289445  
       5A1    -0.126179     2B2     0.297049     2B1     0.297049  

    Alpha Virtual:                                                        

       6A1     0.515560     3B2     0.680423     3B1     0.680423  
       7A1     0.712212     8A1     0.834412     4B2     0.909302  
       4B1     0.909302     9A1     1.253137     1A2     1.253138  
      10A1     1.457307    11A1     1.540876     5B1     1.653972  
       5B2     1.653972     2A2     1.963407    12A1     1.963408  
      13A1     2.315276     6B2     2.414131     6B1     2.414131  
      14A1     2.926419     7B2     3.102465     7B1     3.102465  
      15A1     3.592197    16A1     4.095648     8B1     4.102999  
       8B2     4.102999     9B1     4.236653     9B2     4.236653  
      17A1     4.290694     3A2     4.290694    10B1     4.582662  
      10B2     4.582662     4A2     4.757165    18A1     4.757165  
      19A1     5.060347    11B1     5.258327    11B2     5.258327  
      12B1     5.533954    12B2     5.533954    20A1     6.177749  
       5A2     6.509613    21A1     6.509614    22A1     6.667261  
       6A2     6.667261    13B2     6.953643    13B1     6.953643  
      23A1     7.223903    24A1     7.906187    14B1     8.557291  
      14B2     8.557291    25A1     9.696197    26A1    22.428880  

    Beta Occupied:                                                        

       1A1   -18.809288     2A1   -13.948355     3A1    -1.064381  
       4A1    -0.239082     1B1    -0.236841     1B2    -0.236841  
       5A1    -0.068394  

    Beta Virtual:                                                         

       2B2     0.442226     2B1     0.442226     6A1     0.527832  
       3B2     0.711825     3B1     0.711825     7A1     0.732905  
       8A1     0.863084     4B2     0.961503     4B1     0.961503  
       1A2     1.294332     9A1     1.294332    10A1     1.491724  
      11A1     1.560290     5B1     1.691559     5B2     1.691559  
      12A1     2.015884     2A2     2.015884    13A1     2.335990  
       6B2     2.448215     6B1     2.448215    14A1     2.960702  
       7B2     3.154519     7B1     3.154519    15A1     3.621384  
      16A1     4.122219     8B1     4.157844     8B2     4.157844  
       9B1     4.286049     9B2     4.286049    17A1     4.321212  
       3A2     4.321212    10B2     4.619554    10B1     4.619554  
      18A1     4.834461     4A2     4.834462    19A1     5.086069  
      11B1     5.289894    11B2     5.289894    12B1     5.583177  
      12B2     5.583177    20A1     6.204952     5A2     6.576913  
      21A1     6.576914    22A1     6.707645     6A2     6.707646  
      13B2     6.986705    13B1     6.986705    23A1     7.241378  
      24A1     7.927891    14B1     8.595843    14B2     8.595843  
      25A1     9.729917    26A1    22.454950  

    Final Occupation by Irrep:
             A1    A2    B1    B2 
    DOCC [     5,    0,    1,    1 ]
    SOCC [     0,    0,    1,    1 ]
    NA   [     5,    0,    2,    2 ]
    NB   [     5,    0,    1,    1 ]

  @DF-UKS Final Energy:  -129.44439512546154

   => Energetics <=

    Nuclear Repulsion Energy =             34.2594655369977517
    One-Electron Energy =                -249.1364355984511008
    Two-Electron Energy =                  98.4839603400309898
    DFT Exchange-Correlation Energy =     -13.0513854040391859
    Empirical Dispersion Energy =           0.0000000000000000
    VV10 Nonlocal Energy =                  0.0000000000000000
    Total Energy =                       -129.4443951254615399

  UHF NO Occupations:
  HONO-2 :    5 A1 1.9996174
  HONO-1 :    2 B2 1.0000000
  HONO-0 :    2 B1 1.0000000
  LUNO+0 :    6 A1 0.0003826
  LUNO+1 :    3 B1 0.0003076
  LUNO+2 :    3 B2 0.0003076
  LUNO+3 :    7 A1 0.0001209


Computation Completed


Properties will be evaluated at   0.000000,   0.000000,   0.000000 [a0]

Properties computed using the B3LYP density matrix


 Multipole Moments:

 ------------------------------------------------------------------------------------
     Multipole            Electronic (a.u.)      Nuclear  (a.u.)        Total (a.u.)
 ------------------------------------------------------------------------------------

 L = 1.  Multiply by 2.5417464519 to convert [e a0] to [Debye]
 Dipole X            :          0.0000000            0.0000000            0.0000000
 Dipole Y            :          0.0000000            0.0000000            0.0000000
 Dipole Z            :         -0.8409696           -0.0032797           -0.8442493
 Magnitude           :                                                    0.8442493

 L = 2.  Multiply by 1.3450342976 to convert [e a0^2] to [Debye ang]
 Quadrupole XX       :         -9.3871919            0.0000000           -9.3871919
 Quadrupole XY       :          0.0000000            0.0000000            0.0000000
 Quadrupole XZ       :          0.0000000            0.0000000            0.0000000
 Quadrupole YY       :         -9.3871919            0.0000000           -9.3871919
 Quadrupole YZ       :          0.0000000            0.0000000            0.0000000
 Quadrupole ZZ       :        -21.9942652            9.9749720          -12.0192932
 Traceless XX        :          4.2023578           -3.3249907            0.8773671
 Traceless YY        :          4.2023578           -3.3249907            0.8773671
 Traceless ZZ        :         -8.4047155            6.6499813           -1.7547342

 ------------------------------------------------------------------------------------
  ==> Computing MBIS Charges <==

  Electron Count from Grid (Expected Number): 16.00000 (16.00000)
  Difference: -0.00000

  MBIS Charges: (a.u.)
   Center  Symbol  Z      Pop.       Charge
      1       O    8    8.088113   -0.088113
      2       N    7    7.911886   -0.911886

  MBIS Dipoles: [e a0]
   Center  Symbol  Z        X           Y           Z
      1       O    8   -0.000000   -0.000000    0.245423
      2       N    7    0.000000    0.000000   -0.362142

  MBIS Quadrupoles: [e a0^2]
   Center  Symbol  Z      XX        XY        XZ        YY        YZ        ZZ
      1       O    8   -3.4735    0.0000    0.0000   -3.4735    0.0000   -4.0250
      2       N    7   -5.9137   -0.0000   -0.0000   -5.9137    0.0000   -6.2445

  MBIS Octupoles: [e a0^3]
   Center  Symbol  Z      XXX       XXY       XXZ       XYY       XYZ       XZZ       YYY       YYZ       YZZ       ZZZ
      1       O    8    0.0000   -0.0000    0.3798    0.0000    0.0000   -0.0000   -0.0000    0.3798   -0.0000    0.5885
      2       N    7    0.0000    0.0000   -1.1406    0.0000   -0.0000    0.0000   -0.0000   -1.1406    0.0000    0.2051

  MBIS Radial Moments:
   Center  Symbol  Z      [a0^2]      [a0^3]      [a0^4]      
      1       O    8   10.971960   20.508072   46.326878
      2       N    7   18.071947   44.108866   127.308491

  MBIS Valence Widths: [a0]
   Center  Symbol  Z     Width
      1       O    8    0.375333
      2       N    7    0.491830

*** tstop() called on Mac.lan at Wed Aug 27 10:12:31 2025
Module time:
	user time   =      20.24 seconds =       0.34 minutes
	system time =       1.92 seconds =       0.03 minutes
	total time  =          3 seconds =       0.05 minutes
Total time:
	user time   =      79.79 seconds =       1.33 minutes
	system time =       3.48 seconds =       0.06 minutes
	total time  =          9 seconds =       0.15 minutes

    Psi4 stopped on: Wednesday, 27 August 2025 10:12AM
    Psi4 wall time for execution: 0:00:08.45

*** Psi4 exiting successfully. Buy a developer a beer!
