
    -----------------------------------------------------------------------
          Psi4: An Open-Source Ab Initio Electronic Structure Package
                               Psi4 1.10 release

                         Git: Rev {} zzzzzzz 


    D. G. A. Smith, L. A. Burns, A. C. Simmonett, R. M. Parrish,
    M. C. Schieber, R. Galvelis, P. Kraus, H. Kruse, R. Di Remigio,
    A. Alenaizan, A. M. James, S. Lehtola, J. P. Misiewicz, M. Scheurer,
    R. A. Shaw, J. B. Schriber, Y. Xie, Z. L. Glick, D. A. Sirianni,
    J. S. O'Brien, J. M. Waldrop, A. Kumar, E. G. Hohenstein,
    B. P. Pritchard, B. R. Brooks, H. F. Schaefer III, A. Yu. Sokolov,
    K. Patkowski, A. E. DePrince III, U. Bozkaya, R. A. King,
    F. A. Evangelista, J. M. Turney, T. D. Crawford, C. D. Sherrill,
    J. Chem. Phys. 152(18) 184108 (2020). https://doi.org/10.1063/5.0006002

                            Additional Code Authors
    E. T. Seidl, C. L. Janssen, E. F. Valeev, M. L. Leininger,
    J. F. Gonthier, R. M. Richard, H. R. McAlexander, M. Saitow, X. Wang,
    P. Verma, M. H. Lechner, A. Jiang, S. Behnle, A. G. Heide,
    M. F. Herbst, D. L. Poole, T. Győri, E. C. Mitchell, J. P. Pederson,
    and A. M. Wallace

             Previous Authors, Complete List of Code Contributors,
                       and Citations for Specific Modules
    https://github.com/psi4/psi4/blob/master/codemeta.json
    https://github.com/psi4/psi4/graphs/contributors
    https://psicode.org/psi4manual/master/introduction.html#citing-psifour

    -----------------------------------------------------------------------


    Psi4 started on: Tuesday, 23 December 2025 01:41PM

    Process ID: 520609
    Host:       cics-quant-001
    PSIDATADIR: /home/jrodriguesro/psi4conda/share/psi4
    Memory:     500.0 MiB
    Threads:    6
    Addons:     adcc, a̶m̶b̶i̶t̶, b̶s̶e̶, c̶c̶t̶3̶, c̶f̶o̶u̶r̶, c̶h̶e̶m̶p̶s̶2̶, c̶p̶p̶e̶, ddx, dftd3, dftd4,
                dkh, ecpint, einsums, f̶o̶r̶t̶e̶, g̶a̶u̶x̶c̶, gcp, g̶d̶m̶a̶, geometric,
                g̶p̶u̶_̶d̶f̶c̶c̶, i̶n̶t̶e̶g̶r̶a̶t̶o̶r̶x̶x̶, i̶p̶i̶, libefp, m̶d̶i̶, m̶p̶2̶d̶,
                m̶r̶c̶c̶, ooo, o̶p̶e̶n̶f̶e̶r̶m̶i̶o̶n̶p̶s̶i̶4̶, pcmsolver, p̶s̶i̶4̶f̶o̶c̶k̶c̶i̶,
                p̶s̶i̶x̶a̶s̶, r̶e̶s̶p̶, s̶i̶m̶i̶n̶t̶, s̶n̶s̶m̶p̶2̶, v̶2̶r̶d̶m̶_̶c̶a̶s̶s̶c̶f̶

  ==> Input File <==

--------------------------------------------------------------------------
memory 8 Gb

molecule { 
-1 1
O           0.000000           0.000000           0.000000
H           0.000000           0.000000           1.706294
}

set { 
basis              cc-pvtz
reference          uks
maxiter            500
DAMPING_PERCENTAGE 1
E_CONVERGENCE      1.0E-8
D_CONVERGENCE      1.0E-8
DIIS_MAX_VECS      400
MBIS_MAXITER       8000
guess              read
}

E, wfn = energy('b3lyp', restart_file='last_wfn', return_wfn=True)
properties('b3lyp','MBIS_CHARGES', wfn=wfn)
wfn.to_file('last_wfn')
--------------------------------------------------------------------------

  Memory set to   7.451 GiB by Python driver.

Scratch directory: /tmp/
 Found user provided orbital data. Setting orbital guess to READ 
 Copying restart file <last_wfn.npy> to </tmp/scan_HO_43.default.520609.180.npy> for internal processing
   => Libint2 <=

    Primary   basis highest AM E, G, H:  6, 6, 3
    Auxiliary basis highest AM E, G, H:  7, 7, 4
    Onebody   basis highest AM E, G, H:  -, -, -
    Solid Harmonics ordering:            Gaussian

*** tstart() called on cics-quant-001
*** at Tue Dec 23 13:41:26 2025

   => Loading Basis Set <=

    Name: CC-PVTZ
    Role: ORBITAL
    Keyword: BASIS
    atoms 1 entry O          line   262 file /home/jrodriguesro/psi4conda/share/psi4/basis/cc-pvtz.gbs 
    atoms 2 entry H          line    23 file /home/jrodriguesro/psi4conda/share/psi4/basis/cc-pvtz.gbs 


         ---------------------------------------------------------
                                   SCF
               by Justin Turney, Rob Parrish, Andy Simmonett
                          and Daniel G. A. Smith
                              UKS Reference
                        6 Threads,   7629 MiB Core
         ---------------------------------------------------------

  ==> Geometry <==

    Molecular point group: c2v
    Full point group: C_inf_v

    Geometry (in Angstrom), charge = -1, multiplicity = 1:

       Center              X                  Y                   Z               Mass       
    ------------   -----------------  -----------------  -----------------  -----------------
         O            0.000000000000     0.000000000000    -0.101139336411    15.994914619570
         H            0.000000000000     0.000000000000     1.605154663589     1.007825032230

  Running in c2v symmetry.

  Rotational constants: A = ************  B =      6.10718  C =      6.10718 [cm^-1]
  Rotational constants: A = ************  B = 183088.60247  C = 183088.60247 [MHz]
  Nuclear repulsion =    2.481059937712962

  Charge       = -1
  Multiplicity = 1
  Electrons    = 10
  Nalpha       = 5
  Nbeta        = 5

  ==> Algorithm <==

  SCF Algorithm Type is DF.
  DIIS enabled.
  MOM disabled.
  Fractional occupation disabled.
  Guess Type is READ.
  Energy threshold   = 1.00e-08
  Density threshold  = 1.00e-08
  Integral threshold = 1.00e-12

  ==> Primary Basis <==

  Basis Set: CC-PVTZ
    Blend: CC-PVTZ
    Number of shells: 16
    Number of basis functions: 44
    Number of Cartesian functions: 50
    Spherical Harmonics?: true
    Max angular momentum: 3

  ==> DFT Potential <==

   => LibXC <=

    Version 7.0.0
    S. Lehtola, C. Steigemann, M. J.T. Oliveira, and M. A.L. Marques.,  SoftwareX 7, 1–5 (2018) (10.1016/j.softx.2017.11.002)

   => Composite Functional: B3LYP <= 

    B3LYP Hyb-GGA Exchange-Correlation Functional

    P. J. Stephens, F. J. Devlin, C. F. Chabalowski, and M. J. Frisch.,  J. Phys. Chem. 98, 11623 (1994) (10.1021/j100096a001)

    Deriv               =              1
    GGA                 =           TRUE
    Meta                =          FALSE

    Exchange Hybrid     =           TRUE
    MP2 Hybrid          =          FALSE

   => Exchange Functionals <=

    0.0800   Slater exchange
    0.7200         Becke 88

   => Exact (HF) Exchange <=

    0.2000               HF 

   => Correlation Functionals <=

    0.1900   Vosko, Wilk & Nusair (VWN5_RPA)
    0.8100   Lee, Yang & Parr

   => LibXC Density Thresholds  <==

    XC_HYB_GGA_XC_B3LYP:  1.00E-15 

   => Molecular Quadrature <=

    Radial Scheme          =       TREUTLER
    Pruning Scheme         =           NONE
    Nuclear Scheme         =       TREUTLER

    Blocking Scheme        =         OCTREE
    BS radius alpha        =              1
    Pruning alpha          =              1
    Radial Points          =             75
    Spherical Points       =            302
    Total Points           =          44188
    Total Blocks           =            389
    Max Points             =            254
    Max Functions          =             44
    Weights Tolerance      =       1.00E-15

   => Loading Basis Set <=

    Name: (CC-PVTZ AUX)
    Role: JKFIT
    Keyword: DF_BASIS_SCF
    atoms 1 entry O          line   229 file /home/jrodriguesro/psi4conda/share/psi4/basis/cc-pvtz-jkfit.gbs 
    atoms 2 entry H          line    51 file /home/jrodriguesro/psi4conda/share/psi4/basis/cc-pvtz-jkfit.gbs 

   => Loading Basis Set <=

    Name: CC-PVTZ
    Role: ORBITAL
    Keyword: BASIS
    atoms 1 entry O          line   262 file /home/jrodriguesro/psi4conda/share/psi4/basis/cc-pvtz.gbs 
    atoms 2 entry H          line    23 file /home/jrodriguesro/psi4conda/share/psi4/basis/cc-pvtz.gbs 

  Reading orbitals from file /tmp/scan_HO_43.default.520609.180.npy, no projection.

  ==> Integral Setup <==

  DFHelper Memory: AOs need 0.002 GiB; user supplied 5.534 GiB. 
  SCF_SUBTYPE=INCORE selected. In-core MEM_DF algorithm will be used.
  Using in-core AOs.

  ==> MemDFJK: Density-Fitted J/K Matrices <==

    J tasked:                   Yes
    K tasked:                   Yes
    wK tasked:                   No
    OpenMP threads:               6
    Memory [MiB]:              5667
    Algorithm:                 Core
    Schwarz Cutoff:           1E-12
    Mask sparsity (%):       0.0000
    Fitting Condition:        1E-10

   => Auxiliary Basis Set <=

  Basis Set: (CC-PVTZ AUX)
    Blend: CC-PVTZ-JKFIT
    Number of shells: 35
    Number of basis functions: 109
    Number of Cartesian functions: 131
    Spherical Harmonics?: true
    Max angular momentum: 4

  Cached 100.0% of DFT collocation blocks in 0.054 [GiB].

  Minimum eigenvalue in the overlap matrix is 3.0468918385E-02.
  Reciprocal condition number of the overlap matrix is 9.9763377819E-03.
    Using symmetric orthogonalization.

  ==> Pre-Iterations <==

  SCF Guess: Orbitals guess was supplied from a previous computation.

   -------------------------------------------------------
    Irrep   Nso     Nmo     Nalpha   Nbeta   Ndocc  Nsocc
   -------------------------------------------------------
     A1        20      20       3       3       3       0
     A2         4       4       0       0       0       0
     B1        10      10       1       1       1       0
     B2        10      10       1       1       1       0
   -------------------------------------------------------
    Total      44      44       5       5       5       0
   -------------------------------------------------------

  ==> Iterations <==

                           Total Energy        Delta E     RMS |[F,P]|

   @DF-UKS iter   0:   -75.68080361314921   -7.56808e+01   9.24682e-04 
   @DF-UKS iter   1:   -75.68238301370718   -1.57940e-03   5.99318e-04 DIIS/ADIIS
   @DF-UKS iter   2:   -75.68169602688957    6.86987e-04   1.61478e-03 DIIS/ADIIS/DAMP=1%
   @DF-UKS iter   3:   -75.68365714961375   -1.96112e-03   1.86046e-04 DIIS/ADIIS/DAMP=1%
   @DF-UKS iter   4:   -75.68243513036508    1.22202e-03   4.14811e-06 DIIS/DAMP=1%
   @DF-UKS iter   5:   -75.68250676841726   -7.16381e-05   1.63191e-06 DIIS/DAMP=1%
   @DF-UKS iter   6:   -75.68250752294988   -7.54533e-07   3.09532e-07 DIIS/DAMP=1%
   @DF-UKS iter   7:   -75.68250909976629   -1.57682e-06   6.61550e-08 DIIS/DAMP=1%
   @DF-UKS iter   8:   -75.68250880228047    2.97486e-07   2.38606e-09 DIIS/DAMP=1%
   @DF-UKS iter   9:   -75.68250884788237   -4.56019e-08   2.63601e-10 DIIS/DAMP=1%
   @DF-UKS iter  10:   -75.68250884628203    1.60034e-09   5.89149e-12 DIIS/DAMP=1%
  Energy and wave function converged.


  ==> Post-Iterations <==

   Electrons on quadrature grid:
      Nalpha   =    4.9999999070 ; deviation = -9.301e-08
      Nbeta    =    4.9999999070 ; deviation = -9.301e-08
      Ntotal   =    9.9999998140 ; deviation = -1.860e-07 

   @Spin Contamination Metric:  -2.131628207E-14
   @S^2 Expected:                0.000000000E+00
   @S^2 Observed:               -2.131628207E-14
   @S   Expected:                0.000000000E+00
   @S   Observed:                0.000000000E+00

    Orbital Energies [Eh]
    ---------------------

    Alpha Occupied:                                                       

       1A1   -18.785663     2A1    -0.512910     3A1    -0.016303  
       1B1     0.061244     1B2     0.061244  

    Alpha Virtual:                                                        

       4A1     0.192452     5A1     0.505852     2B2     0.833862  
       2B1     0.833862     6A1     0.912450     3B2     0.989616  
       3B1     0.989616     7A1     1.016606     8A1     1.370235  
       9A1     1.846976     1A2     1.846976     4B2     1.858646  
       4B1     1.858646    10A1     2.083663    11A1     2.673326  
      12A1     3.486351     2A2     3.486363    13A1     3.524448  
       5B2     3.547655     5B1     3.547655     6B1     3.910809  
       6B2     3.910809     7B1     3.973977     7B2     3.973977  
      14A1     4.014288    15A1     4.506778    16A1     5.499428  
       3A2     5.499429     8B2     5.526398     8B1     5.526398  
       9B2     5.533908     9B1     5.533908    17A1     5.707208  
       4A2     6.575158    18A1     6.575162    10B2     6.616580  
      10B1     6.616580    19A1     6.945792    20A1     7.835778  

    Beta Occupied:                                                        

       1A1   -18.785663     2A1    -0.512910     3A1    -0.016303  
       1B2     0.061244     1B1     0.061244  

    Beta Virtual:                                                         

       4A1     0.192452     5A1     0.505852     2B2     0.833862  
       2B1     0.833862     6A1     0.912450     3B2     0.989616  
       3B1     0.989616     7A1     1.016606     8A1     1.370235  
       9A1     1.846976     1A2     1.846976     4B1     1.858646  
       4B2     1.858646    10A1     2.083663    11A1     2.673326  
      12A1     3.486351     2A2     3.486363    13A1     3.524448  
       5B2     3.547655     5B1     3.547655     6B1     3.910809  
       6B2     3.910809     7B1     3.973977     7B2     3.973977  
      14A1     4.014288    15A1     4.506778    16A1     5.499428  
       3A2     5.499429     8B2     5.526398     8B1     5.526398  
       9B1     5.533908     9B2     5.533908    17A1     5.707208  
       4A2     6.575158    18A1     6.575162    10B2     6.616580  
      10B1     6.616580    19A1     6.945792    20A1     7.835778  

    Final Occupation by Irrep:
             A1    A2    B1    B2 
    DOCC [     3,    0,    1,    1 ]
    SOCC [     0,    0,    0,    0 ]
    NA   [     3,    0,    1,    1 ]
    NB   [     3,    0,    1,    1 ]

  @DF-UKS Final Energy:   -75.68250884628203

   => Energetics <=

    Nuclear Repulsion Energy =              2.4810599377129616
    One-Electron Energy =                -112.6921368564105421
    Two-Electron Energy =                  41.8272929793967236
    DFT Exchange-Correlation Energy =      -7.2987249069811719
    Empirical Dispersion Energy =           0.0000000000000000
    VV10 Nonlocal Energy =                  0.0000000000000000
    Total Energy =                        -75.6825088462820332

  UHF NO Occupations:
  HONO-2 :    1 B2 2.0000000
  HONO-1 :    1 B1 2.0000000
  HONO-0 :    3 A1 2.0000000
  LUNO+0 :    4 A1 0.0000000
  LUNO+1 :    5 A1 0.0000000
  LUNO+2 :    6 A1 0.0000000
  LUNO+3 :    2 B2 0.0000000


Computation Completed


Properties will be evaluated at   0.000000,   0.000000,   0.000000 [a0]

Properties computed using the SCF density matrix


 Multipole Moments:

 ------------------------------------------------------------------------------------
     Multipole            Electronic (a.u.)      Nuclear  (a.u.)        Total (a.u.)
 ------------------------------------------------------------------------------------

 L = 1.  Multiply by 2.5417464519 to convert [e a0] to [Debye]
 Dipole X            :          0.0000000            0.0000000            0.0000000
 Dipole Y            :          0.0000000            0.0000000            0.0000000
 Dipole Z            :         -2.0456405            1.5042975           -0.5413429
 Magnitude           :                                                    0.5413429

 ------------------------------------------------------------------------------------

*** tstop() called on cics-quant-001 at Tue Dec 23 13:41:26 2025
Module time:
	user time   =       0.87 seconds =       0.01 minutes
	system time =       0.04 seconds =       0.00 minutes
	total time  =          0 seconds =       0.00 minutes
Total time:
	user time   =       0.87 seconds =       0.01 minutes
	system time =       0.04 seconds =       0.00 minutes
	total time  =          0 seconds =       0.00 minutes

*** tstart() called on cics-quant-001
*** at Tue Dec 23 13:41:26 2025

   => Libint2 <=

    Primary   basis highest AM E, G, H:  6, 6, 3
    Auxiliary basis highest AM E, G, H:  7, 7, 4
    Onebody   basis highest AM E, G, H:  -, -, -
    Solid Harmonics ordering:            Gaussian
   => Loading Basis Set <=

    Name: CC-PVTZ
    Role: ORBITAL
    Keyword: BASIS
    atoms 1 entry O          line   262 file /home/jrodriguesro/psi4conda/share/psi4/basis/cc-pvtz.gbs 
    atoms 2 entry H          line    23 file /home/jrodriguesro/psi4conda/share/psi4/basis/cc-pvtz.gbs 


         ---------------------------------------------------------
                                   SCF
               by Justin Turney, Rob Parrish, Andy Simmonett
                          and Daniel G. A. Smith
                              UKS Reference
                        6 Threads,   7629 MiB Core
         ---------------------------------------------------------

  ==> Geometry <==

    Molecular point group: c2v
    Full point group: C_inf_v

    Geometry (in Angstrom), charge = -1, multiplicity = 1:

       Center              X                  Y                   Z               Mass       
    ------------   -----------------  -----------------  -----------------  -----------------
         O            0.000000000000     0.000000000000    -0.101139336411    15.994914619570
         H            0.000000000000     0.000000000000     1.605154663589     1.007825032230

  Running in c2v symmetry.

  Rotational constants: A = ************  B =      6.10718  C =      6.10718 [cm^-1]
  Rotational constants: A = ************  B = 183088.60247  C = 183088.60247 [MHz]
  Nuclear repulsion =    2.481059937712962

  Charge       = -1
  Multiplicity = 1
  Electrons    = 10
  Nalpha       = 5
  Nbeta        = 5

  ==> Algorithm <==

  SCF Algorithm Type is DF.
  DIIS enabled.
  MOM disabled.
  Fractional occupation disabled.
  Guess Type is READ.
  Energy threshold   = 1.00e-08
  Density threshold  = 1.00e-08
  Integral threshold = 1.00e-12

  ==> Primary Basis <==

  Basis Set: CC-PVTZ
    Blend: CC-PVTZ
    Number of shells: 16
    Number of basis functions: 44
    Number of Cartesian functions: 50
    Spherical Harmonics?: true
    Max angular momentum: 3

  ==> DFT Potential <==

   => LibXC <=

    Version 7.0.0
    S. Lehtola, C. Steigemann, M. J.T. Oliveira, and M. A.L. Marques.,  SoftwareX 7, 1–5 (2018) (10.1016/j.softx.2017.11.002)

   => Composite Functional: B3LYP <= 

    B3LYP Hyb-GGA Exchange-Correlation Functional

    P. J. Stephens, F. J. Devlin, C. F. Chabalowski, and M. J. Frisch.,  J. Phys. Chem. 98, 11623 (1994) (10.1021/j100096a001)

    Deriv               =              1
    GGA                 =           TRUE
    Meta                =          FALSE

    Exchange Hybrid     =           TRUE
    MP2 Hybrid          =          FALSE

   => Exchange Functionals <=

    0.0800   Slater exchange
    0.7200         Becke 88

   => Exact (HF) Exchange <=

    0.2000               HF 

   => Correlation Functionals <=

    0.1900   Vosko, Wilk & Nusair (VWN5_RPA)
    0.8100   Lee, Yang & Parr

   => LibXC Density Thresholds  <==

    XC_HYB_GGA_XC_B3LYP:  1.00E-15 

   => Molecular Quadrature <=

    Radial Scheme          =       TREUTLER
    Pruning Scheme         =           NONE
    Nuclear Scheme         =       TREUTLER

    Blocking Scheme        =         OCTREE
    BS radius alpha        =              1
    Pruning alpha          =              1
    Radial Points          =             75
    Spherical Points       =            302
    Total Points           =          44188
    Total Blocks           =            389
    Max Points             =            254
    Max Functions          =             44
    Weights Tolerance      =       1.00E-15

   => Loading Basis Set <=

    Name: (CC-PVTZ AUX)
    Role: JKFIT
    Keyword: DF_BASIS_SCF
    atoms 1 entry O          line   229 file /home/jrodriguesro/psi4conda/share/psi4/basis/cc-pvtz-jkfit.gbs 
    atoms 2 entry H          line    51 file /home/jrodriguesro/psi4conda/share/psi4/basis/cc-pvtz-jkfit.gbs 

   => Loading Basis Set <=

    Name: CC-PVTZ
    Role: ORBITAL
    Keyword: BASIS
    atoms 1 entry O          line   262 file /home/jrodriguesro/psi4conda/share/psi4/basis/cc-pvtz.gbs 
    atoms 2 entry H          line    23 file /home/jrodriguesro/psi4conda/share/psi4/basis/cc-pvtz.gbs 

  Reading orbitals from file /tmp/scan_HO_43.default.520609.180.npy, no projection.

  ==> Integral Setup <==

  DFHelper Memory: AOs need 0.002 GiB; user supplied 5.534 GiB. 
  SCF_SUBTYPE=INCORE selected. In-core MEM_DF algorithm will be used.
  Using in-core AOs.

  ==> MemDFJK: Density-Fitted J/K Matrices <==

    J tasked:                   Yes
    K tasked:                   Yes
    wK tasked:                   No
    OpenMP threads:               6
    Memory [MiB]:              5667
    Algorithm:                 Core
    Schwarz Cutoff:           1E-12
    Mask sparsity (%):       0.0000
    Fitting Condition:        1E-10

   => Auxiliary Basis Set <=

  Basis Set: (CC-PVTZ AUX)
    Blend: CC-PVTZ-JKFIT
    Number of shells: 35
    Number of basis functions: 109
    Number of Cartesian functions: 131
    Spherical Harmonics?: true
    Max angular momentum: 4

  Cached 100.0% of DFT collocation blocks in 0.054 [GiB].

  Minimum eigenvalue in the overlap matrix is 3.0468918385E-02.
  Reciprocal condition number of the overlap matrix is 9.9763377819E-03.
    Using symmetric orthogonalization.

  ==> Pre-Iterations <==

  SCF Guess: Orbitals guess was supplied from a previous computation.

   -------------------------------------------------------
    Irrep   Nso     Nmo     Nalpha   Nbeta   Ndocc  Nsocc
   -------------------------------------------------------
     A1        20      20       3       3       3       0
     A2         4       4       0       0       0       0
     B1        10      10       1       1       1       0
     B2        10      10       1       1       1       0
   -------------------------------------------------------
    Total      44      44       5       5       5       0
   -------------------------------------------------------

  ==> Iterations <==

                           Total Energy        Delta E     RMS |[F,P]|

   @DF-UKS iter   0:   -75.68250884644722   -7.56825e+01   1.27637e-12 
   @DF-UKS iter   1:   -75.68250884644725   -2.84217e-14   3.62536e-12 DIIS
  Energy and wave function converged.


  ==> Post-Iterations <==

   Electrons on quadrature grid:
      Nalpha   =    4.9999999070 ; deviation = -9.301e-08
      Nbeta    =    4.9999999070 ; deviation = -9.301e-08
      Ntotal   =    9.9999998140 ; deviation = -1.860e-07 

   @Spin Contamination Metric:  -1.332267630E-14
   @S^2 Expected:                0.000000000E+00
   @S^2 Observed:               -1.332267630E-14
   @S   Expected:                0.000000000E+00
   @S   Observed:                0.000000000E+00

    Orbital Energies [Eh]
    ---------------------

    Alpha Occupied:                                                       

       1A1   -18.785663     2A1    -0.512910     3A1    -0.016303  
       1B1     0.061244     1B2     0.061244  

    Alpha Virtual:                                                        

       4A1     0.192452     5A1     0.505852     2B2     0.833862  
       2B1     0.833862     6A1     0.912450     3B2     0.989616  
       3B1     0.989616     7A1     1.016606     8A1     1.370235  
       9A1     1.846976     1A2     1.846976     4B2     1.858646  
       4B1     1.858646    10A1     2.083663    11A1     2.673326  
      12A1     3.486351     2A2     3.486363    13A1     3.524448  
       5B2     3.547655     5B1     3.547655     6B1     3.910809  
       6B2     3.910809     7B2     3.973977     7B1     3.973977  
      14A1     4.014288    15A1     4.506778    16A1     5.499428  
       3A2     5.499429     8B2     5.526398     8B1     5.526398  
       9B1     5.533908     9B2     5.533908    17A1     5.707208  
       4A2     6.575158    18A1     6.575162    10B2     6.616580  
      10B1     6.616580    19A1     6.945792    20A1     7.835778  

    Beta Occupied:                                                        

       1A1   -18.785663     2A1    -0.512910     3A1    -0.016303  
       1B2     0.061244     1B1     0.061244  

    Beta Virtual:                                                         

       4A1     0.192452     5A1     0.505852     2B2     0.833862  
       2B1     0.833862     6A1     0.912450     3B2     0.989616  
       3B1     0.989616     7A1     1.016606     8A1     1.370235  
       9A1     1.846976     1A2     1.846976     4B2     1.858646  
       4B1     1.858646    10A1     2.083663    11A1     2.673326  
      12A1     3.486351     2A2     3.486363    13A1     3.524448  
       5B2     3.547655     5B1     3.547655     6B1     3.910809  
       6B2     3.910809     7B2     3.973977     7B1     3.973977  
      14A1     4.014288    15A1     4.506778    16A1     5.499428  
       3A2     5.499429     8B2     5.526398     8B1     5.526398  
       9B2     5.533908     9B1     5.533908    17A1     5.707208  
       4A2     6.575158    18A1     6.575162    10B2     6.616580  
      10B1     6.616580    19A1     6.945792    20A1     7.835778  

    Final Occupation by Irrep:
             A1    A2    B1    B2 
    DOCC [     3,    0,    1,    1 ]
    SOCC [     0,    0,    0,    0 ]
    NA   [     3,    0,    1,    1 ]
    NB   [     3,    0,    1,    1 ]

  @DF-UKS Final Energy:   -75.68250884644725

   => Energetics <=

    Nuclear Repulsion Energy =              2.4810599377129616
    One-Electron Energy =                -112.6921368564377843
    Two-Electron Energy =                  41.8272929792542456
    DFT Exchange-Correlation Energy =      -7.2987249069766547
    Empirical Dispersion Energy =           0.0000000000000000
    VV10 Nonlocal Energy =                  0.0000000000000000
    Total Energy =                        -75.6825088464472486

  UHF NO Occupations:
  HONO-2 :    1 B2 2.0000000
  HONO-1 :    1 B1 2.0000000
  HONO-0 :    3 A1 2.0000000
  LUNO+0 :    4 A1 0.0000000
  LUNO+1 :    5 A1 0.0000000
  LUNO+2 :    6 A1 0.0000000
  LUNO+3 :    7 A1 0.0000000


Computation Completed


Properties will be evaluated at   0.000000,   0.000000,   0.000000 [a0]

Properties computed using the B3LYP density matrix


 Multipole Moments:

 ------------------------------------------------------------------------------------
     Multipole            Electronic (a.u.)      Nuclear  (a.u.)        Total (a.u.)
 ------------------------------------------------------------------------------------

 L = 1.  Multiply by 2.5417464519 to convert [e a0] to [Debye]
 Dipole X            :          0.0000000            0.0000000            0.0000000
 Dipole Y            :          0.0000000            0.0000000            0.0000000
 Dipole Z            :         -2.0456405            1.5042975           -0.5413429
 Magnitude           :                                                    0.5413429

 L = 2.  Multiply by 1.3450342976 to convert [e a0^2] to [Debye ang]
 Quadrupole XX       :         -6.9326891            0.0000000           -6.9326891
 Quadrupole XY       :          0.0000000            0.0000000            0.0000000
 Quadrupole XZ       :          0.0000000            0.0000000            0.0000000
 Quadrupole YY       :         -6.9326891            0.0000000           -6.9326891
 Quadrupole YZ       :          0.0000000            0.0000000            0.0000000
 Quadrupole ZZ       :        -17.3029007            9.4931574           -7.8097433
 Traceless XX        :          3.4567372           -3.1643858            0.2923514
 Traceless YY        :          3.4567372           -3.1643858            0.2923514
 Traceless ZZ        :         -6.9134744            6.3287716           -0.5847028

 ------------------------------------------------------------------------------------
  ==> Computing MBIS Charges <==

  Electron Count from Grid (Expected Number): 10.00000 (10.00000)
  Difference: -0.00000

  MBIS Charges: (a.u.)
   Center  Symbol  Z      Pop.       Charge
      1       O    8    8.792081   -0.792081
      2       H    1    1.207919   -0.207919

  MBIS Dipoles: [e a0]
   Center  Symbol  Z        X           Y           Z
      1       O    8   -0.000000   -0.000000   -0.087625
      2       H    1    0.000000    0.000000    0.025576

  MBIS Quadrupoles: [e a0^2]
   Center  Symbol  Z      XX        XY        XZ        YY        YZ        ZZ
      1       O    8   -5.4015    0.0000    0.0000   -5.4015   -0.0000   -4.5616
      2       H    1   -1.5312    0.0000    0.0000   -1.5312    0.0000   -1.4948

  MBIS Octupoles: [e a0^3]
   Center  Symbol  Z      XXX       XXY       XXZ       XYY       XYZ       XZZ       YYY       YYZ       YZZ       ZZZ
      1       O    8   -0.0000   -0.0000   -0.2070   -0.0000   -0.0000   -0.0000    0.0000   -0.2070    0.0000   -0.9679
      2       H    1   -0.0000    0.0000    0.0493    0.0000   -0.0000    0.0000    0.0000    0.0493    0.0000    0.0586

  MBIS Radial Moments:
   Center  Symbol  Z      [a0^2]      [a0^3]      [a0^4]      
      1       O    8   15.364672   32.126336   79.821171
      2       H    1    4.557124   12.568332   40.506484

  MBIS Valence Widths: [a0]
   Center  Symbol  Z     Width
      1       O    8    0.424988
      2       H    1    0.560896


  MBIS Valence Charges: (a.u.)
   Center  Symbol  Z     Charge
      1       O    8   -7.094465
      2       H    1   -1.207919

*** tstop() called on cics-quant-001 at Tue Dec 23 13:41:26 2025
Module time:
	user time   =       0.44 seconds =       0.01 minutes
	system time =       0.04 seconds =       0.00 minutes
	total time  =          0 seconds =       0.00 minutes
Total time:
	user time   =       1.33 seconds =       0.02 minutes
	system time =       0.08 seconds =       0.00 minutes
	total time  =          0 seconds =       0.00 minutes

    Psi4 stopped on: Tuesday, 23 December 2025 01:41PM
    Psi4 wall time for execution: 0:00:00.57

*** Psi4 exiting successfully. Buy a developer a beer!
