
    -----------------------------------------------------------------------
          Psi4: An Open-Source Ab Initio Electronic Structure Package
                               Psi4 1.10 release

                         Git: Rev {} zzzzzzz 


    D. G. A. Smith, L. A. Burns, A. C. Simmonett, R. M. Parrish,
    M. C. Schieber, R. Galvelis, P. Kraus, H. Kruse, R. Di Remigio,
    A. Alenaizan, A. M. James, S. Lehtola, J. P. Misiewicz, M. Scheurer,
    R. A. Shaw, J. B. Schriber, Y. Xie, Z. L. Glick, D. A. Sirianni,
    J. S. O'Brien, J. M. Waldrop, A. Kumar, E. G. Hohenstein,
    B. P. Pritchard, B. R. Brooks, H. F. Schaefer III, A. Yu. Sokolov,
    K. Patkowski, A. E. DePrince III, U. Bozkaya, R. A. King,
    F. A. Evangelista, J. M. Turney, T. D. Crawford, C. D. Sherrill,
    J. Chem. Phys. 152(18) 184108 (2020). https://doi.org/10.1063/5.0006002

                            Additional Code Authors
    E. T. Seidl, C. L. Janssen, E. F. Valeev, M. L. Leininger,
    J. F. Gonthier, R. M. Richard, H. R. McAlexander, M. Saitow, X. Wang,
    P. Verma, M. H. Lechner, A. Jiang, S. Behnle, A. G. Heide,
    M. F. Herbst, D. L. Poole, T. Győri, E. C. Mitchell, J. P. Pederson,
    and A. M. Wallace

             Previous Authors, Complete List of Code Contributors,
                       and Citations for Specific Modules
    https://github.com/psi4/psi4/blob/master/codemeta.json
    https://github.com/psi4/psi4/graphs/contributors
    https://psicode.org/psi4manual/master/introduction.html#citing-psifour

    -----------------------------------------------------------------------


    Psi4 started on: Tuesday, 23 December 2025 01:42PM

    Process ID: 526777
    Host:       cics-quant-001
    PSIDATADIR: /home/jrodriguesro/psi4conda/share/psi4
    Memory:     500.0 MiB
    Threads:    6
    Addons:     adcc, a̶m̶b̶i̶t̶, b̶s̶e̶, c̶c̶t̶3̶, c̶f̶o̶u̶r̶, c̶h̶e̶m̶p̶s̶2̶, c̶p̶p̶e̶, ddx, dftd3, dftd4,
                dkh, ecpint, einsums, f̶o̶r̶t̶e̶, g̶a̶u̶x̶c̶, gcp, g̶d̶m̶a̶, geometric,
                g̶p̶u̶_̶d̶f̶c̶c̶, i̶n̶t̶e̶g̶r̶a̶t̶o̶r̶x̶x̶, i̶p̶i̶, libefp, m̶d̶i̶, m̶p̶2̶d̶,
                m̶r̶c̶c̶, ooo, o̶p̶e̶n̶f̶e̶r̶m̶i̶o̶n̶p̶s̶i̶4̶, pcmsolver, p̶s̶i̶4̶f̶o̶c̶k̶c̶i̶,
                p̶s̶i̶x̶a̶s̶, r̶e̶s̶p̶, s̶i̶m̶i̶n̶t̶, s̶n̶s̶m̶p̶2̶, v̶2̶r̶d̶m̶_̶c̶a̶s̶s̶c̶f̶

  ==> Input File <==

--------------------------------------------------------------------------
memory 8 Gb

molecule { 
-1 1
N           0.000000           0.000000           0.000000
C           0.000000           0.000000           1.772544
}

set { 
basis              cc-pvtz
reference          uks
maxiter            500
DAMPING_PERCENTAGE 1
E_CONVERGENCE      1.0E-8
D_CONVERGENCE      1.0E-8
DIIS_MAX_VECS      400
MBIS_MAXITER       8000
guess              read
}

E, wfn = energy('b3lyp', restart_file='last_wfn', return_wfn=True)
properties('b3lyp','MBIS_CHARGES', wfn=wfn)
wfn.to_file('last_wfn')
--------------------------------------------------------------------------

  Memory set to   7.451 GiB by Python driver.

Scratch directory: /tmp/
 Found user provided orbital data. Setting orbital guess to READ 
 Copying restart file <last_wfn.npy> to </tmp/scan_CN_36.default.526777.180.npy> for internal processing
   => Libint2 <=

    Primary   basis highest AM E, G, H:  6, 6, 3
    Auxiliary basis highest AM E, G, H:  7, 7, 4
    Onebody   basis highest AM E, G, H:  -, -, -
    Solid Harmonics ordering:            Gaussian

*** tstart() called on cics-quant-001
*** at Tue Dec 23 13:42:30 2025

   => Loading Basis Set <=

    Name: CC-PVTZ
    Role: ORBITAL
    Keyword: BASIS
    atoms 1 entry N          line   224 file /home/jrodriguesro/psi4conda/share/psi4/basis/cc-pvtz.gbs 
    atoms 2 entry C          line   186 file /home/jrodriguesro/psi4conda/share/psi4/basis/cc-pvtz.gbs 


         ---------------------------------------------------------
                                   SCF
               by Justin Turney, Rob Parrish, Andy Simmonett
                          and Daniel G. A. Smith
                              UKS Reference
                        6 Threads,   7629 MiB Core
         ---------------------------------------------------------

  ==> Geometry <==

    Molecular point group: c2v
    Full point group: C_inf_v

    Geometry (in Angstrom), charge = -1, multiplicity = 1:

       Center              X                  Y                   Z               Mass       
    ------------   -----------------  -----------------  -----------------  -----------------
         N            0.000000000000     0.000000000000    -0.818000517799    14.003074004430
         C            0.000000000000     0.000000000000     0.954543482201    12.000000000000

  Running in c2v symmetry.

  Rotational constants: A = ************  B =      0.83028  C =      0.83028 [cm^-1]
  Rotational constants: A = ************  B =  24891.04971  C =  24891.04971 [MHz]
  Nuclear repulsion =   12.538725610275405

  Charge       = -1
  Multiplicity = 1
  Electrons    = 14
  Nalpha       = 7
  Nbeta        = 7

  ==> Algorithm <==

  SCF Algorithm Type is DF.
  DIIS enabled.
  MOM disabled.
  Fractional occupation disabled.
  Guess Type is READ.
  Energy threshold   = 1.00e-08
  Density threshold  = 1.00e-08
  Integral threshold = 1.00e-12

  ==> Primary Basis <==

  Basis Set: CC-PVTZ
    Blend: CC-PVTZ
    Number of shells: 20
    Number of basis functions: 60
    Number of Cartesian functions: 70
    Spherical Harmonics?: true
    Max angular momentum: 3

  ==> DFT Potential <==

   => LibXC <=

    Version 7.0.0
    S. Lehtola, C. Steigemann, M. J.T. Oliveira, and M. A.L. Marques.,  SoftwareX 7, 1–5 (2018) (10.1016/j.softx.2017.11.002)

   => Composite Functional: B3LYP <= 

    B3LYP Hyb-GGA Exchange-Correlation Functional

    P. J. Stephens, F. J. Devlin, C. F. Chabalowski, and M. J. Frisch.,  J. Phys. Chem. 98, 11623 (1994) (10.1021/j100096a001)

    Deriv               =              1
    GGA                 =           TRUE
    Meta                =          FALSE

    Exchange Hybrid     =           TRUE
    MP2 Hybrid          =          FALSE

   => Exchange Functionals <=

    0.0800   Slater exchange
    0.7200         Becke 88

   => Exact (HF) Exchange <=

    0.2000               HF 

   => Correlation Functionals <=

    0.1900   Vosko, Wilk & Nusair (VWN5_RPA)
    0.8100   Lee, Yang & Parr

   => LibXC Density Thresholds  <==

    XC_HYB_GGA_XC_B3LYP:  1.00E-15 

   => Molecular Quadrature <=

    Radial Scheme          =       TREUTLER
    Pruning Scheme         =           NONE
    Nuclear Scheme         =       TREUTLER

    Blocking Scheme        =         OCTREE
    BS radius alpha        =              1
    Pruning alpha          =              1
    Radial Points          =             75
    Spherical Points       =            302
    Total Points           =          43306
    Total Blocks           =            388
    Max Points             =            255
    Max Functions          =             60
    Weights Tolerance      =       1.00E-15

   => Loading Basis Set <=

    Name: (CC-PVTZ AUX)
    Role: JKFIT
    Keyword: DF_BASIS_SCF
    atoms 1 entry N          line   177 file /home/jrodriguesro/psi4conda/share/psi4/basis/cc-pvtz-jkfit.gbs 
    atoms 2 entry C          line   125 file /home/jrodriguesro/psi4conda/share/psi4/basis/cc-pvtz-jkfit.gbs 

   => Loading Basis Set <=

    Name: CC-PVTZ
    Role: ORBITAL
    Keyword: BASIS
    atoms 1 entry N          line   224 file /home/jrodriguesro/psi4conda/share/psi4/basis/cc-pvtz.gbs 
    atoms 2 entry C          line   186 file /home/jrodriguesro/psi4conda/share/psi4/basis/cc-pvtz.gbs 

  Reading orbitals from file /tmp/scan_CN_36.default.526777.180.npy, no projection.

  ==> Integral Setup <==

  DFHelper Memory: AOs need 0.005 GiB; user supplied 5.516 GiB. 
  SCF_SUBTYPE=INCORE selected. In-core MEM_DF algorithm will be used.
  Using in-core AOs.

  ==> MemDFJK: Density-Fitted J/K Matrices <==

    J tasked:                   Yes
    K tasked:                   Yes
    wK tasked:                   No
    OpenMP threads:               6
    Memory [MiB]:              5648
    Algorithm:                 Core
    Schwarz Cutoff:           1E-12
    Mask sparsity (%):       0.0000
    Fitting Condition:        1E-10

   => Auxiliary Basis Set <=

  Basis Set: (CC-PVTZ AUX)
    Blend: CC-PVTZ-JKFIT
    Number of shells: 50
    Number of basis functions: 158
    Number of Cartesian functions: 192
    Spherical Harmonics?: true
    Max angular momentum: 4

  Cached 100.0% of DFT collocation blocks in 0.071 [GiB].

  Minimum eigenvalue in the overlap matrix is 8.7351177068E-03.
  Reciprocal condition number of the overlap matrix is 2.4906485643E-03.
    Using symmetric orthogonalization.

  ==> Pre-Iterations <==

  SCF Guess: Orbitals guess was supplied from a previous computation.

   -------------------------------------------------------
    Irrep   Nso     Nmo     Nalpha   Nbeta   Ndocc  Nsocc
   -------------------------------------------------------
     A1        26      26       5       5       5       0
     A2         6       6       0       0       0       0
     B1        14      14       1       1       1       0
     B2        14      14       1       1       1       0
   -------------------------------------------------------
    Total      60      60       7       7       7       0
   -------------------------------------------------------

  ==> Iterations <==

                           Total Energy        Delta E     RMS |[F,P]|

   @DF-UKS iter   0:   -92.63629850017460   -9.26363e+01   1.40264e-03 
   @DF-UKS iter   1:   -92.64400765075264   -7.70915e-03   1.27647e-03 ADIIS/DIIS
   @DF-UKS iter   2:   -92.61067804663448    3.33296e-02   8.19923e-03 ADIIS/DIIS/DAMP=1%
   @DF-UKS iter   3:   -92.64236574619682   -3.16877e-02   4.46312e-04 ADIIS/DIIS/DAMP=1%
   @DF-UKS iter   4:   -92.64454610337022   -2.18036e-03   1.44563e-04 ADIIS/DIIS/DAMP=1%
   @DF-UKS iter   5:   -92.64487967130043   -3.33568e-04   1.38727e-05 DIIS/DAMP=1%
   @DF-UKS iter   6:   -92.64489271114965   -1.30398e-05   1.64454e-06 DIIS/DAMP=1%
   @DF-UKS iter   7:   -92.64490183819456   -9.12704e-06   1.91288e-07 DIIS/DAMP=1%
   @DF-UKS iter   8:   -92.64490192544982   -8.72553e-08   1.17468e-07 DIIS/DAMP=1%
   @DF-UKS iter   9:   -92.64490194319977   -1.77500e-08   4.29112e-09 DIIS/DAMP=1%
   @DF-UKS iter  10:   -92.64490191028213    3.29176e-08   4.01522e-10 DIIS/DAMP=1%
   @DF-UKS iter  11:   -92.64490190926540    1.01673e-09   1.30579e-11 DIIS/DAMP=1%
  Energy and wave function converged.


  ==> Post-Iterations <==

   Electrons on quadrature grid:
      Nalpha   =    6.9999997125 ; deviation = -2.875e-07
      Nbeta    =    6.9999997125 ; deviation = -2.875e-07
      Ntotal   =   13.9999994250 ; deviation = -5.750e-07 

   @Spin Contamination Metric:  -1.421085472E-14
   @S^2 Expected:                0.000000000E+00
   @S^2 Observed:               -1.421085472E-14
   @S   Expected:                0.000000000E+00
   @S   Observed:                0.000000000E+00

    Orbital Energies [Eh]
    ---------------------

    Alpha Occupied:                                                       

       1A1   -14.095187     2A1   -10.019820     3A1    -0.450506  
       4A1    -0.234828     5A1    -0.017530     1B1     0.009868  
       1B2     0.009868  

    Alpha Virtual:                                                        

       2B1     0.168700     2B2     0.168700     6A1     0.316732  
       7A1     0.531303     3B1     0.556134     3B2     0.556134  
       8A1     0.613693     9A1     0.717600     4B1     0.759419  
       4B2     0.759419     1A2     0.927795    10A1     0.927795  
       5B2     0.977186     5B1     0.977186    11A1     1.104799  
      12A1     1.306400    13A1     1.354945     2A2     1.354946  
       6B1     1.582872     6B2     1.582872    14A1     1.764339  
       7B1     2.234176     7B2     2.234176    15A1     2.499726  
      16A1     2.901962     8B1     2.923204     8B2     2.923204  
       9B1     2.946900     9B2     2.946900    17A1     2.950023  
       3A2     2.950023    18A1     3.216109     4A2     3.216117  
      10B1     3.218315    10B2     3.218315    19A1     3.368661  
      11B2     3.373164    11B1     3.373164    20A1     3.770910  
      21A1     4.088753    12B2     4.186364    12B1     4.186364  
      22A1     4.234244     5A2     4.234245    13B1     4.463602  
      13B2     4.463602     6A2     4.746030    23A1     4.746061  
      24A1     4.774713    14B1     5.019281    14B2     5.019281  
      25A1     5.724344    26A1     6.394455  

    Beta Occupied:                                                        

       1A1   -14.095187     2A1   -10.019820     3A1    -0.450506  
       4A1    -0.234828     5A1    -0.017530     1B1     0.009868  
       1B2     0.009868  

    Beta Virtual:                                                         

       2B1     0.168700     2B2     0.168700     6A1     0.316732  
       7A1     0.531303     3B1     0.556134     3B2     0.556134  
       8A1     0.613693     9A1     0.717600     4B1     0.759419  
       4B2     0.759419     1A2     0.927795    10A1     0.927795  
       5B2     0.977186     5B1     0.977186    11A1     1.104799  
      12A1     1.306400    13A1     1.354945     2A2     1.354946  
       6B1     1.582872     6B2     1.582872    14A1     1.764339  
       7B1     2.234176     7B2     2.234176    15A1     2.499726  
      16A1     2.901962     8B1     2.923204     8B2     2.923204  
       9B1     2.946900     9B2     2.946900    17A1     2.950023  
       3A2     2.950023    18A1     3.216109     4A2     3.216117  
      10B1     3.218315    10B2     3.218315    19A1     3.368661  
      11B1     3.373164    11B2     3.373164    20A1     3.770910  
      21A1     4.088753    12B2     4.186364    12B1     4.186364  
      22A1     4.234244     5A2     4.234245    13B1     4.463602  
      13B2     4.463602     6A2     4.746030    23A1     4.746061  
      24A1     4.774713    14B1     5.019281    14B2     5.019281  
      25A1     5.724344    26A1     6.394455  

    Final Occupation by Irrep:
             A1    A2    B1    B2 
    DOCC [     5,    0,    1,    1 ]
    SOCC [     0,    0,    0,    0 ]
    NA   [     5,    0,    1,    1 ]
    NB   [     5,    0,    1,    1 ]

  @DF-UKS Final Energy:   -92.64490190926540

   => Energetics <=

    Nuclear Repulsion Energy =             12.5387256102754048
    One-Electron Energy =                -153.6921151284744838
    Two-Electron Energy =                  58.3261958161270755
    DFT Exchange-Correlation Energy =      -9.8177082071934070
    Empirical Dispersion Energy =           0.0000000000000000
    VV10 Nonlocal Energy =                  0.0000000000000000
    Total Energy =                        -92.6449019092654140

  UHF NO Occupations:
  HONO-2 :    4 A1 2.0000000
  HONO-1 :    1 B1 2.0000000
  HONO-0 :    5 A1 2.0000000
  LUNO+0 :    6 A1 0.0000000
  LUNO+1 :    7 A1 0.0000000
  LUNO+2 :    8 A1 0.0000000
  LUNO+3 :    9 A1 0.0000000


Computation Completed


Properties will be evaluated at   0.000000,   0.000000,   0.000000 [a0]

Properties computed using the SCF density matrix


 Multipole Moments:

 ------------------------------------------------------------------------------------
     Multipole            Electronic (a.u.)      Nuclear  (a.u.)        Total (a.u.)
 ------------------------------------------------------------------------------------

 L = 1.  Multiply by 2.5417464519 to convert [e a0] to [Debye]
 Dipole X            :          0.0000000            0.0000000            0.0000000
 Dipole Y            :          0.0000000            0.0000000            0.0000000
 Dipole Z            :         -0.0322122            0.0023759           -0.0298363
 Magnitude           :                                                    0.0298363

 ------------------------------------------------------------------------------------

*** tstop() called on cics-quant-001 at Tue Dec 23 13:42:30 2025
Module time:
	user time   =       1.54 seconds =       0.03 minutes
	system time =       0.07 seconds =       0.00 minutes
	total time  =          0 seconds =       0.00 minutes
Total time:
	user time   =       1.54 seconds =       0.03 minutes
	system time =       0.07 seconds =       0.00 minutes
	total time  =          0 seconds =       0.00 minutes

*** tstart() called on cics-quant-001
*** at Tue Dec 23 13:42:30 2025

   => Libint2 <=

    Primary   basis highest AM E, G, H:  6, 6, 3
    Auxiliary basis highest AM E, G, H:  7, 7, 4
    Onebody   basis highest AM E, G, H:  -, -, -
    Solid Harmonics ordering:            Gaussian
   => Loading Basis Set <=

    Name: CC-PVTZ
    Role: ORBITAL
    Keyword: BASIS
    atoms 1 entry N          line   224 file /home/jrodriguesro/psi4conda/share/psi4/basis/cc-pvtz.gbs 
    atoms 2 entry C          line   186 file /home/jrodriguesro/psi4conda/share/psi4/basis/cc-pvtz.gbs 


         ---------------------------------------------------------
                                   SCF
               by Justin Turney, Rob Parrish, Andy Simmonett
                          and Daniel G. A. Smith
                              UKS Reference
                        6 Threads,   7629 MiB Core
         ---------------------------------------------------------

  ==> Geometry <==

    Molecular point group: c2v
    Full point group: C_inf_v

    Geometry (in Angstrom), charge = -1, multiplicity = 1:

       Center              X                  Y                   Z               Mass       
    ------------   -----------------  -----------------  -----------------  -----------------
         N            0.000000000000     0.000000000000    -0.818000517799    14.003074004430
         C            0.000000000000     0.000000000000     0.954543482201    12.000000000000

  Running in c2v symmetry.

  Rotational constants: A = ************  B =      0.83028  C =      0.83028 [cm^-1]
  Rotational constants: A = ************  B =  24891.04971  C =  24891.04971 [MHz]
  Nuclear repulsion =   12.538725610275405

  Charge       = -1
  Multiplicity = 1
  Electrons    = 14
  Nalpha       = 7
  Nbeta        = 7

  ==> Algorithm <==

  SCF Algorithm Type is DF.
  DIIS enabled.
  MOM disabled.
  Fractional occupation disabled.
  Guess Type is READ.
  Energy threshold   = 1.00e-08
  Density threshold  = 1.00e-08
  Integral threshold = 1.00e-12

  ==> Primary Basis <==

  Basis Set: CC-PVTZ
    Blend: CC-PVTZ
    Number of shells: 20
    Number of basis functions: 60
    Number of Cartesian functions: 70
    Spherical Harmonics?: true
    Max angular momentum: 3

  ==> DFT Potential <==

   => LibXC <=

    Version 7.0.0
    S. Lehtola, C. Steigemann, M. J.T. Oliveira, and M. A.L. Marques.,  SoftwareX 7, 1–5 (2018) (10.1016/j.softx.2017.11.002)

   => Composite Functional: B3LYP <= 

    B3LYP Hyb-GGA Exchange-Correlation Functional

    P. J. Stephens, F. J. Devlin, C. F. Chabalowski, and M. J. Frisch.,  J. Phys. Chem. 98, 11623 (1994) (10.1021/j100096a001)

    Deriv               =              1
    GGA                 =           TRUE
    Meta                =          FALSE

    Exchange Hybrid     =           TRUE
    MP2 Hybrid          =          FALSE

   => Exchange Functionals <=

    0.0800   Slater exchange
    0.7200         Becke 88

   => Exact (HF) Exchange <=

    0.2000               HF 

   => Correlation Functionals <=

    0.1900   Vosko, Wilk & Nusair (VWN5_RPA)
    0.8100   Lee, Yang & Parr

   => LibXC Density Thresholds  <==

    XC_HYB_GGA_XC_B3LYP:  1.00E-15 

   => Molecular Quadrature <=

    Radial Scheme          =       TREUTLER
    Pruning Scheme         =           NONE
    Nuclear Scheme         =       TREUTLER

    Blocking Scheme        =         OCTREE
    BS radius alpha        =              1
    Pruning alpha          =              1
    Radial Points          =             75
    Spherical Points       =            302
    Total Points           =          43306
    Total Blocks           =            388
    Max Points             =            255
    Max Functions          =             60
    Weights Tolerance      =       1.00E-15

   => Loading Basis Set <=

    Name: (CC-PVTZ AUX)
    Role: JKFIT
    Keyword: DF_BASIS_SCF
    atoms 1 entry N          line   177 file /home/jrodriguesro/psi4conda/share/psi4/basis/cc-pvtz-jkfit.gbs 
    atoms 2 entry C          line   125 file /home/jrodriguesro/psi4conda/share/psi4/basis/cc-pvtz-jkfit.gbs 

   => Loading Basis Set <=

    Name: CC-PVTZ
    Role: ORBITAL
    Keyword: BASIS
    atoms 1 entry N          line   224 file /home/jrodriguesro/psi4conda/share/psi4/basis/cc-pvtz.gbs 
    atoms 2 entry C          line   186 file /home/jrodriguesro/psi4conda/share/psi4/basis/cc-pvtz.gbs 

  Reading orbitals from file /tmp/scan_CN_36.default.526777.180.npy, no projection.

  ==> Integral Setup <==

  DFHelper Memory: AOs need 0.005 GiB; user supplied 5.516 GiB. 
  SCF_SUBTYPE=INCORE selected. In-core MEM_DF algorithm will be used.
  Using in-core AOs.

  ==> MemDFJK: Density-Fitted J/K Matrices <==

    J tasked:                   Yes
    K tasked:                   Yes
    wK tasked:                   No
    OpenMP threads:               6
    Memory [MiB]:              5648
    Algorithm:                 Core
    Schwarz Cutoff:           1E-12
    Mask sparsity (%):       0.0000
    Fitting Condition:        1E-10

   => Auxiliary Basis Set <=

  Basis Set: (CC-PVTZ AUX)
    Blend: CC-PVTZ-JKFIT
    Number of shells: 50
    Number of basis functions: 158
    Number of Cartesian functions: 192
    Spherical Harmonics?: true
    Max angular momentum: 4

  Cached 100.0% of DFT collocation blocks in 0.071 [GiB].

  Minimum eigenvalue in the overlap matrix is 8.7351177068E-03.
  Reciprocal condition number of the overlap matrix is 2.4906485643E-03.
    Using symmetric orthogonalization.

  ==> Pre-Iterations <==

  SCF Guess: Orbitals guess was supplied from a previous computation.

   -------------------------------------------------------
    Irrep   Nso     Nmo     Nalpha   Nbeta   Ndocc  Nsocc
   -------------------------------------------------------
     A1        26      26       5       5       5       0
     A2         6       6       0       0       0       0
     B1        14      14       1       1       1       0
     B2        14      14       1       1       1       0
   -------------------------------------------------------
    Total      60      60       7       7       7       0
   -------------------------------------------------------

  ==> Iterations <==

                           Total Energy        Delta E     RMS |[F,P]|

   @DF-UKS iter   0:   -92.64490190905494   -9.26449e+01   2.91235e-12 
   @DF-UKS iter   1:   -92.64490190905491    2.84217e-14   2.18515e-11 DIIS
  Energy and wave function converged.


  ==> Post-Iterations <==

   Electrons on quadrature grid:
      Nalpha   =    6.9999997125 ; deviation = -2.875e-07
      Nbeta    =    6.9999997125 ; deviation = -2.875e-07
      Ntotal   =   13.9999994250 ; deviation = -5.750e-07 

   @Spin Contamination Metric:  -8.881784197E-15
   @S^2 Expected:                0.000000000E+00
   @S^2 Observed:               -8.881784197E-15
   @S   Expected:                0.000000000E+00
   @S   Observed:                0.000000000E+00

    Orbital Energies [Eh]
    ---------------------

    Alpha Occupied:                                                       

       1A1   -14.095187     2A1   -10.019820     3A1    -0.450506  
       4A1    -0.234828     5A1    -0.017530     1B1     0.009868  
       1B2     0.009868  

    Alpha Virtual:                                                        

       2B1     0.168700     2B2     0.168700     6A1     0.316732  
       7A1     0.531303     3B1     0.556134     3B2     0.556134  
       8A1     0.613693     9A1     0.717600     4B1     0.759419  
       4B2     0.759419     1A2     0.927795    10A1     0.927795  
       5B2     0.977186     5B1     0.977186    11A1     1.104799  
      12A1     1.306400    13A1     1.354945     2A2     1.354946  
       6B2     1.582872     6B1     1.582872    14A1     1.764339  
       7B1     2.234176     7B2     2.234176    15A1     2.499726  
      16A1     2.901962     8B1     2.923204     8B2     2.923204  
       9B1     2.946900     9B2     2.946900    17A1     2.950023  
       3A2     2.950023    18A1     3.216109     4A2     3.216117  
      10B2     3.218315    10B1     3.218315    19A1     3.368661  
      11B2     3.373164    11B1     3.373164    20A1     3.770910  
      21A1     4.088753    12B2     4.186364    12B1     4.186364  
      22A1     4.234244     5A2     4.234245    13B1     4.463602  
      13B2     4.463602     6A2     4.746030    23A1     4.746061  
      24A1     4.774713    14B1     5.019281    14B2     5.019281  
      25A1     5.724344    26A1     6.394455  

    Beta Occupied:                                                        

       1A1   -14.095187     2A1   -10.019820     3A1    -0.450506  
       4A1    -0.234828     5A1    -0.017530     1B1     0.009868  
       1B2     0.009868  

    Beta Virtual:                                                         

       2B1     0.168700     2B2     0.168700     6A1     0.316732  
       7A1     0.531303     3B1     0.556134     3B2     0.556134  
       8A1     0.613693     9A1     0.717600     4B1     0.759419  
       4B2     0.759419     1A2     0.927795    10A1     0.927795  
       5B2     0.977186     5B1     0.977186    11A1     1.104799  
      12A1     1.306400    13A1     1.354945     2A2     1.354946  
       6B1     1.582872     6B2     1.582872    14A1     1.764339  
       7B1     2.234176     7B2     2.234176    15A1     2.499726  
      16A1     2.901962     8B2     2.923204     8B1     2.923204  
       9B1     2.946900     9B2     2.946900    17A1     2.950023  
       3A2     2.950023    18A1     3.216109     4A2     3.216117  
      10B2     3.218315    10B1     3.218315    19A1     3.368661  
      11B2     3.373164    11B1     3.373164    20A1     3.770910  
      21A1     4.088753    12B2     4.186364    12B1     4.186364  
      22A1     4.234244     5A2     4.234245    13B1     4.463602  
      13B2     4.463602     6A2     4.746030    23A1     4.746061  
      24A1     4.774713    14B1     5.019281    14B2     5.019281  
      25A1     5.724344    26A1     6.394455  

    Final Occupation by Irrep:
             A1    A2    B1    B2 
    DOCC [     5,    0,    1,    1 ]
    SOCC [     0,    0,    0,    0 ]
    NA   [     5,    0,    1,    1 ]
    NB   [     5,    0,    1,    1 ]

  @DF-UKS Final Energy:   -92.64490190905491

   => Energetics <=

    Nuclear Repulsion Energy =             12.5387256102754048
    One-Electron Energy =                -153.6921151302510964
    Two-Electron Energy =                  58.3261958182620646
    DFT Exchange-Correlation Energy =      -9.8177082073412887
    Empirical Dispersion Energy =           0.0000000000000000
    VV10 Nonlocal Energy =                  0.0000000000000000
    Total Energy =                        -92.6449019090549086

  UHF NO Occupations:
  HONO-2 :    1 B1 2.0000000
  HONO-1 :    4 A1 2.0000000
  HONO-0 :    5 A1 2.0000000
  LUNO+0 :    6 A1 0.0000000
  LUNO+1 :    7 A1 0.0000000
  LUNO+2 :    8 A1 0.0000000
  LUNO+3 :    9 A1 0.0000000


Computation Completed


Properties will be evaluated at   0.000000,   0.000000,   0.000000 [a0]

Properties computed using the B3LYP density matrix


 Multipole Moments:

 ------------------------------------------------------------------------------------
     Multipole            Electronic (a.u.)      Nuclear  (a.u.)        Total (a.u.)
 ------------------------------------------------------------------------------------

 L = 1.  Multiply by 2.5417464519 to convert [e a0] to [Debye]
 Dipole X            :          0.0000000            0.0000000            0.0000000
 Dipole Y            :          0.0000000            0.0000000            0.0000000
 Dipole Z            :         -0.0322123            0.0023759           -0.0298364
 Magnitude           :                                                    0.0298364

 L = 2.  Multiply by 1.3450342976 to convert [e a0^2] to [Debye ang]
 Quadrupole XX       :        -11.2767725            0.0000000          -11.2767725
 Quadrupole XY       :          0.0000000            0.0000000            0.0000000
 Quadrupole XZ       :          0.0000000            0.0000000            0.0000000
 Quadrupole YY       :        -11.2767725            0.0000000          -11.2767725
 Quadrupole YZ       :          0.0000000            0.0000000            0.0000000
 Quadrupole ZZ       :        -51.2449686           36.2491416          -14.9958270
 Traceless XX        :         13.3227320          -12.0830472            1.2396848
 Traceless YY        :         13.3227320          -12.0830472            1.2396848
 Traceless ZZ        :        -26.6454641           24.1660944           -2.4793697

 ------------------------------------------------------------------------------------
  ==> Computing MBIS Charges <==

  Electron Count from Grid (Expected Number): 14.00000 (14.00000)
  Difference: -0.00000

  MBIS Charges: (a.u.)
   Center  Symbol  Z      Pop.       Charge
      1       N    7    7.580656   -0.580656
      2       C    6    6.419343   -0.419343

  MBIS Dipoles: [e a0]
   Center  Symbol  Z        X           Y           Z
      1       N    7   -0.000000   -0.000000   -0.041181
      2       C    6   -0.000000   -0.000000   -0.129810

  MBIS Quadrupoles: [e a0^2]
   Center  Symbol  Z      XX        XY        XZ        YY        YZ        ZZ
      1       N    7   -5.3984    0.0000   -0.0000   -5.3984   -0.0000   -5.5130
      2       C    6   -5.8783    0.0000    0.0000   -5.8783    0.0000   -6.3899

  MBIS Octupoles: [e a0^3]
   Center  Symbol  Z      XXX       XXY       XXZ       XYY       XYZ       XZZ       YYY       YYZ       YZZ       ZZZ
      1       N    7   -0.0000   -0.0000   -0.2915   -0.0000    0.0000    0.0000   -0.0000   -0.2915   -0.0000   -0.5595
      2       C    6   -0.0000   -0.0000    0.1626    0.0000    0.0000    0.0000   -0.0000    0.1626   -0.0000    0.1562

  MBIS Radial Moments:
   Center  Symbol  Z      [a0^2]      [a0^3]      [a0^4]      
      1       N    7   16.309900   37.995504   104.835401
      2       C    6   18.146552   49.249879   157.314156

  MBIS Valence Widths: [a0]
   Center  Symbol  Z     Width
      1       N    7    0.483296
      2       C    6    0.572211


  MBIS Valence Charges: (a.u.)
   Center  Symbol  Z     Charge
      1       N    7   -5.883556
      2       C    6   -4.696909

*** tstop() called on cics-quant-001 at Tue Dec 23 13:42:30 2025
Module time:
	user time   =       0.56 seconds =       0.01 minutes
	system time =       0.03 seconds =       0.00 minutes
	total time  =          0 seconds =       0.00 minutes
Total time:
	user time   =       2.12 seconds =       0.04 minutes
	system time =       0.10 seconds =       0.00 minutes
	total time  =          0 seconds =       0.00 minutes

    Psi4 stopped on: Tuesday, 23 December 2025 01:42PM
    Psi4 wall time for execution: 0:00:00.74

*** Psi4 exiting successfully. Buy a developer a beer!
