
    -----------------------------------------------------------------------
          Psi4: An Open-Source Ab Initio Electronic Structure Package
                               Psi4 1.10 release

                         Git: Rev {} zzzzzzz 


    D. G. A. Smith, L. A. Burns, A. C. Simmonett, R. M. Parrish,
    M. C. Schieber, R. Galvelis, P. Kraus, H. Kruse, R. Di Remigio,
    A. Alenaizan, A. M. James, S. Lehtola, J. P. Misiewicz, M. Scheurer,
    R. A. Shaw, J. B. Schriber, Y. Xie, Z. L. Glick, D. A. Sirianni,
    J. S. O'Brien, J. M. Waldrop, A. Kumar, E. G. Hohenstein,
    B. P. Pritchard, B. R. Brooks, H. F. Schaefer III, A. Yu. Sokolov,
    K. Patkowski, A. E. DePrince III, U. Bozkaya, R. A. King,
    F. A. Evangelista, J. M. Turney, T. D. Crawford, C. D. Sherrill,
    J. Chem. Phys. 152(18) 184108 (2020). https://doi.org/10.1063/5.0006002

                            Additional Code Authors
    E. T. Seidl, C. L. Janssen, E. F. Valeev, M. L. Leininger,
    J. F. Gonthier, R. M. Richard, H. R. McAlexander, M. Saitow, X. Wang,
    P. Verma, M. H. Lechner, A. Jiang, S. Behnle, A. G. Heide,
    M. F. Herbst, D. L. Poole, T. Győri, E. C. Mitchell, J. P. Pederson,
    and A. M. Wallace

             Previous Authors, Complete List of Code Contributors,
                       and Citations for Specific Modules
    https://github.com/psi4/psi4/blob/master/codemeta.json
    https://github.com/psi4/psi4/graphs/contributors
    https://psicode.org/psi4manual/master/introduction.html#citing-psifour

    -----------------------------------------------------------------------


    Psi4 started on: Tuesday, 23 December 2025 01:42PM

    Process ID: 524456
    Host:       cics-quant-001
    PSIDATADIR: /home/jrodriguesro/psi4conda/share/psi4
    Memory:     500.0 MiB
    Threads:    6
    Addons:     adcc, a̶m̶b̶i̶t̶, b̶s̶e̶, c̶c̶t̶3̶, c̶f̶o̶u̶r̶, c̶h̶e̶m̶p̶s̶2̶, c̶p̶p̶e̶, ddx, dftd3, dftd4,
                dkh, ecpint, einsums, f̶o̶r̶t̶e̶, g̶a̶u̶x̶c̶, gcp, g̶d̶m̶a̶, geometric,
                g̶p̶u̶_̶d̶f̶c̶c̶, i̶n̶t̶e̶g̶r̶a̶t̶o̶r̶x̶x̶, i̶p̶i̶, libefp, m̶d̶i̶, m̶p̶2̶d̶,
                m̶r̶c̶c̶, ooo, o̶p̶e̶n̶f̶e̶r̶m̶i̶o̶n̶p̶s̶i̶4̶, pcmsolver, p̶s̶i̶4̶f̶o̶c̶k̶c̶i̶,
                p̶s̶i̶x̶a̶s̶, r̶e̶s̶p̶, s̶i̶m̶i̶n̶t̶, s̶n̶s̶m̶p̶2̶, v̶2̶r̶d̶m̶_̶c̶a̶s̶s̶c̶f̶

  ==> Input File <==

--------------------------------------------------------------------------
memory 8 Gb

molecule { 
-1 1
N           0.000000           0.000000           0.000000
C           0.000000           0.000000           0.554219
}

set { 
basis              cc-pvtz
reference          uks
maxiter            500
DAMPING_PERCENTAGE 1
E_CONVERGENCE      1.0E-8
D_CONVERGENCE      1.0E-8
DIIS_MAX_VECS      400
MBIS_MAXITER       8000
guess              read
}

E, wfn = energy('b3lyp', restart_file='last_wfn', return_wfn=True)
properties('b3lyp','MBIS_CHARGES', wfn=wfn)
wfn.to_file('last_wfn')
--------------------------------------------------------------------------

  Memory set to   7.451 GiB by Python driver.

Scratch directory: /tmp/
 Found user provided orbital data. Setting orbital guess to READ 
 Copying restart file <last_wfn.npy> to </tmp/scan_CN_6.default.524456.180.npy> for internal processing
   => Libint2 <=

    Primary   basis highest AM E, G, H:  6, 6, 3
    Auxiliary basis highest AM E, G, H:  7, 7, 4
    Onebody   basis highest AM E, G, H:  -, -, -
    Solid Harmonics ordering:            Gaussian

*** tstart() called on cics-quant-001
*** at Tue Dec 23 13:42:07 2025

   => Loading Basis Set <=

    Name: CC-PVTZ
    Role: ORBITAL
    Keyword: BASIS
    atoms 1 entry N          line   224 file /home/jrodriguesro/psi4conda/share/psi4/basis/cc-pvtz.gbs 
    atoms 2 entry C          line   186 file /home/jrodriguesro/psi4conda/share/psi4/basis/cc-pvtz.gbs 


         ---------------------------------------------------------
                                   SCF
               by Justin Turney, Rob Parrish, Andy Simmonett
                          and Daniel G. A. Smith
                              UKS Reference
                        6 Threads,   7629 MiB Core
         ---------------------------------------------------------

  ==> Geometry <==

    Molecular point group: c2v
    Full point group: C_inf_v

    Geometry (in Angstrom), charge = -1, multiplicity = 1:

       Center              X                  Y                   Z               Mass       
    ------------   -----------------  -----------------  -----------------  -----------------
         N            0.000000000000     0.000000000000    -0.255763145498    14.003074004430
         C            0.000000000000     0.000000000000     0.298455854502    12.000000000000

  Running in c2v symmetry.

  Rotational constants: A = ************  B =      8.49286  C =      8.49286 [cm^-1]
  Rotational constants: A = ************  B = 254609.40411  C = 254609.40411 [MHz]
  Nuclear repulsion =   40.102275180280721

  Charge       = -1
  Multiplicity = 1
  Electrons    = 14
  Nalpha       = 7
  Nbeta        = 7

  ==> Algorithm <==

  SCF Algorithm Type is DF.
  DIIS enabled.
  MOM disabled.
  Fractional occupation disabled.
  Guess Type is READ.
  Energy threshold   = 1.00e-08
  Density threshold  = 1.00e-08
  Integral threshold = 1.00e-12

  ==> Primary Basis <==

  Basis Set: CC-PVTZ
    Blend: CC-PVTZ
    Number of shells: 20
    Number of basis functions: 60
    Number of Cartesian functions: 70
    Spherical Harmonics?: true
    Max angular momentum: 3

  ==> DFT Potential <==

   => LibXC <=

    Version 7.0.0
    S. Lehtola, C. Steigemann, M. J.T. Oliveira, and M. A.L. Marques.,  SoftwareX 7, 1–5 (2018) (10.1016/j.softx.2017.11.002)

   => Composite Functional: B3LYP <= 

    B3LYP Hyb-GGA Exchange-Correlation Functional

    P. J. Stephens, F. J. Devlin, C. F. Chabalowski, and M. J. Frisch.,  J. Phys. Chem. 98, 11623 (1994) (10.1021/j100096a001)

    Deriv               =              1
    GGA                 =           TRUE
    Meta                =          FALSE

    Exchange Hybrid     =           TRUE
    MP2 Hybrid          =          FALSE

   => Exchange Functionals <=

    0.0800   Slater exchange
    0.7200         Becke 88

   => Exact (HF) Exchange <=

    0.2000               HF 

   => Correlation Functionals <=

    0.1900   Vosko, Wilk & Nusair (VWN5_RPA)
    0.8100   Lee, Yang & Parr

   => LibXC Density Thresholds  <==

    XC_HYB_GGA_XC_B3LYP:  1.00E-15 

   => Molecular Quadrature <=

    Radial Scheme          =       TREUTLER
    Pruning Scheme         =           NONE
    Nuclear Scheme         =       TREUTLER

    Blocking Scheme        =         OCTREE
    BS radius alpha        =              1
    Pruning alpha          =              1
    Radial Points          =             75
    Spherical Points       =            302
    Total Points           =          43040
    Total Blocks           =            388
    Max Points             =            255
    Max Functions          =             60
    Weights Tolerance      =       1.00E-15

   => Loading Basis Set <=

    Name: (CC-PVTZ AUX)
    Role: JKFIT
    Keyword: DF_BASIS_SCF
    atoms 1 entry N          line   177 file /home/jrodriguesro/psi4conda/share/psi4/basis/cc-pvtz-jkfit.gbs 
    atoms 2 entry C          line   125 file /home/jrodriguesro/psi4conda/share/psi4/basis/cc-pvtz-jkfit.gbs 

   => Loading Basis Set <=

    Name: CC-PVTZ
    Role: ORBITAL
    Keyword: BASIS
    atoms 1 entry N          line   224 file /home/jrodriguesro/psi4conda/share/psi4/basis/cc-pvtz.gbs 
    atoms 2 entry C          line   186 file /home/jrodriguesro/psi4conda/share/psi4/basis/cc-pvtz.gbs 

  Reading orbitals from file /tmp/scan_CN_6.default.524456.180.npy, no projection.

  ==> Integral Setup <==

  DFHelper Memory: AOs need 0.005 GiB; user supplied 5.516 GiB. 
  SCF_SUBTYPE=INCORE selected. In-core MEM_DF algorithm will be used.
  Using in-core AOs.

  ==> MemDFJK: Density-Fitted J/K Matrices <==

    J tasked:                   Yes
    K tasked:                   Yes
    wK tasked:                   No
    OpenMP threads:               6
    Memory [MiB]:              5648
    Algorithm:                 Core
    Schwarz Cutoff:           1E-12
    Mask sparsity (%):       0.0000
    Fitting Condition:        1E-10

   => Auxiliary Basis Set <=

  Basis Set: (CC-PVTZ AUX)
    Blend: CC-PVTZ-JKFIT
    Number of shells: 50
    Number of basis functions: 158
    Number of Cartesian functions: 192
    Spherical Harmonics?: true
    Max angular momentum: 4

  Cached 100.0% of DFT collocation blocks in 0.072 [GiB].

  Minimum eigenvalue in the overlap matrix is 1.3137964307E-03.
  Reciprocal condition number of the overlap matrix is 2.9657720580E-04.
    Using symmetric orthogonalization.

  ==> Pre-Iterations <==

  SCF Guess: Orbitals guess was supplied from a previous computation.

   -------------------------------------------------------
    Irrep   Nso     Nmo     Nalpha   Nbeta   Ndocc  Nsocc
   -------------------------------------------------------
     A1        26      26       5       5       5       0
     A2         6       6       0       0       0       0
     B1        14      14       1       1       1       0
     B2        14      14       1       1       1       0
   -------------------------------------------------------
    Total      60      60       7       7       7       0
   -------------------------------------------------------

  ==> Iterations <==

                           Total Energy        Delta E     RMS |[F,P]|

   @DF-UKS iter   0:   -88.99483359922451   -8.89948e+01   1.16440e-02 
   @DF-UKS iter   1:   -88.99700048799463   -2.16689e-03   7.34375e-03 ADIIS/DIIS
   @DF-UKS iter   2:   -88.96641570168120    3.05848e-02   1.12949e-02 ADIIS/DIIS/DAMP=1%
   @DF-UKS iter   3:   -89.00444059851185   -3.80249e-02   5.14412e-04 ADIIS/DIIS/DAMP=1%
   @DF-UKS iter   4:   -89.01868856303476   -1.42480e-02   1.42895e-04 ADIIS/DIIS/DAMP=1%
   @DF-UKS iter   5:   -89.01874132973700   -5.27667e-05   2.65909e-05 DIIS/DAMP=1%
   @DF-UKS iter   6:   -89.01869376702368    4.75627e-05   8.75458e-07 DIIS/DAMP=1%
   @DF-UKS iter   7:   -89.01872789470090   -3.41277e-05   3.48591e-07 DIIS/DAMP=1%
   @DF-UKS iter   8:   -89.01872721349346    6.81207e-07   1.04669e-08 DIIS/DAMP=1%
   @DF-UKS iter   9:   -89.01872767133406   -4.57841e-07   1.23076e-09 DIIS/DAMP=1%
   @DF-UKS iter  10:   -89.01872766850227    2.83180e-09   3.01014e-10 DIIS/DAMP=1%
  Energy and wave function converged.


  ==> Post-Iterations <==

   Electrons on quadrature grid:
      Nalpha   =    6.9999999802 ; deviation = -1.977e-08
      Nbeta    =    6.9999999802 ; deviation = -1.977e-08
      Ntotal   =   13.9999999605 ; deviation = -3.954e-08 

   @Spin Contamination Metric:   3.019806627E-14
   @S^2 Expected:                0.000000000E+00
   @S^2 Observed:                3.019806627E-14
   @S   Expected:                0.000000000E+00
   @S   Observed:                0.000000000E+00

    Orbital Energies [Eh]
    ---------------------

    Alpha Occupied:                                                       

       1A1   -14.156919     2A1   -10.064532     3A1    -0.465659  
       1B2    -0.348815     1B1    -0.348815     4A1     0.061089  
       5A1     0.122463  

    Alpha Virtual:                                                        

       2B2     0.407435     2B1     0.407435     6A1     0.425930  
       7A1     0.537319     3B1     0.604250     3B2     0.604250  
       8A1     0.789436     9A1     0.953819     1A2     0.953819  
       4B2     0.974399     4B1     0.974399    10A1     1.220191  
       5B1     1.475790     5B2     1.475790    11A1     1.534906  
       2A2     1.638666    12A1     1.638666     6B1     1.674992  
       6B2     1.674992    13A1     1.850429    14A1     2.479683  
       7B2     2.520160     7B1     2.520160     8B1     2.985728  
       8B2     2.985728    15A1     3.183427     3A2     3.183428  
      16A1     3.184492     9B1     3.368801     9B2     3.368801  
      17A1     3.493934    18A1     3.501924     4A2     3.501924  
      10B1     3.852762    10B2     3.852762    19A1     4.443124  
      11B1     4.680240    11B2     4.680240    12B1     4.736477  
      12B2     4.736477     5A2     4.845994    20A1     4.845994  
      21A1     5.353108    13B2     6.300081    13B1     6.300081  
      22A1     6.445929     6A2     6.673514    23A1     6.673515  
      24A1     7.102596    14B1     8.014873    14B2     8.014873  
      25A1     9.758022    26A1    23.034326  

    Beta Occupied:                                                        

       1A1   -14.156919     2A1   -10.064532     3A1    -0.465659  
       1B2    -0.348815     1B1    -0.348815     4A1     0.061089  
       5A1     0.122463  

    Beta Virtual:                                                         

       2B2     0.407435     2B1     0.407435     6A1     0.425930  
       7A1     0.537319     3B1     0.604250     3B2     0.604250  
       8A1     0.789436     9A1     0.953819     1A2     0.953819  
       4B2     0.974399     4B1     0.974399    10A1     1.220191  
       5B1     1.475790     5B2     1.475790    11A1     1.534906  
       2A2     1.638666    12A1     1.638666     6B1     1.674992  
       6B2     1.674992    13A1     1.850429    14A1     2.479683  
       7B2     2.520160     7B1     2.520160     8B1     2.985728  
       8B2     2.985728    15A1     3.183427     3A2     3.183428  
      16A1     3.184492     9B1     3.368801     9B2     3.368801  
      17A1     3.493934    18A1     3.501924     4A2     3.501924  
      10B1     3.852762    10B2     3.852762    19A1     4.443124  
      11B1     4.680240    11B2     4.680240    12B1     4.736477  
      12B2     4.736477     5A2     4.845994    20A1     4.845994  
      21A1     5.353108    13B2     6.300081    13B1     6.300081  
      22A1     6.445929     6A2     6.673514    23A1     6.673515  
      24A1     7.102596    14B1     8.014873    14B2     8.014873  
      25A1     9.758022    26A1    23.034326  

    Final Occupation by Irrep:
             A1    A2    B1    B2 
    DOCC [     5,    0,    1,    1 ]
    SOCC [     0,    0,    0,    0 ]
    NA   [     5,    0,    1,    1 ]
    NB   [     5,    0,    1,    1 ]

  @DF-UKS Final Energy:   -89.01872766850227

   => Energetics <=

    Nuclear Repulsion Energy =             40.1022751802807207
    One-Electron Energy =                -199.9098240232000876
    Two-Electron Energy =                  81.8426955865430727
    DFT Exchange-Correlation Energy =     -11.0538744121259693
    Empirical Dispersion Energy =           0.0000000000000000
    VV10 Nonlocal Energy =                  0.0000000000000000
    Total Energy =                        -89.0187276685022653

  UHF NO Occupations:
  HONO-2 :    3 A1 2.0000000
  HONO-1 :    4 A1 2.0000000
  HONO-0 :    5 A1 2.0000000
  LUNO+0 :    6 A1 0.0000000
  LUNO+1 :    7 A1 0.0000000
  LUNO+2 :    8 A1 0.0000000
  LUNO+3 :    9 A1 0.0000000


Computation Completed


Properties will be evaluated at   0.000000,   0.000000,   0.000000 [a0]

Properties computed using the SCF density matrix


 Multipole Moments:

 ------------------------------------------------------------------------------------
     Multipole            Electronic (a.u.)      Nuclear  (a.u.)        Total (a.u.)
 ------------------------------------------------------------------------------------

 L = 1.  Multiply by 2.5417464519 to convert [e a0] to [Debye]
 Dipole X            :          0.0000000            0.0000000            0.0000000
 Dipole Y            :          0.0000000            0.0000000            0.0000000
 Dipole Z            :         -0.5120474            0.0007429           -0.5113045
 Magnitude           :                                                    0.5113045

 ------------------------------------------------------------------------------------

*** tstop() called on cics-quant-001 at Tue Dec 23 13:42:07 2025
Module time:
	user time   =       1.37 seconds =       0.02 minutes
	system time =       0.07 seconds =       0.00 minutes
	total time  =          0 seconds =       0.00 minutes
Total time:
	user time   =       1.37 seconds =       0.02 minutes
	system time =       0.07 seconds =       0.00 minutes
	total time  =          0 seconds =       0.00 minutes

*** tstart() called on cics-quant-001
*** at Tue Dec 23 13:42:07 2025

   => Libint2 <=

    Primary   basis highest AM E, G, H:  6, 6, 3
    Auxiliary basis highest AM E, G, H:  7, 7, 4
    Onebody   basis highest AM E, G, H:  -, -, -
    Solid Harmonics ordering:            Gaussian
   => Loading Basis Set <=

    Name: CC-PVTZ
    Role: ORBITAL
    Keyword: BASIS
    atoms 1 entry N          line   224 file /home/jrodriguesro/psi4conda/share/psi4/basis/cc-pvtz.gbs 
    atoms 2 entry C          line   186 file /home/jrodriguesro/psi4conda/share/psi4/basis/cc-pvtz.gbs 


         ---------------------------------------------------------
                                   SCF
               by Justin Turney, Rob Parrish, Andy Simmonett
                          and Daniel G. A. Smith
                              UKS Reference
                        6 Threads,   7629 MiB Core
         ---------------------------------------------------------

  ==> Geometry <==

    Molecular point group: c2v
    Full point group: C_inf_v

    Geometry (in Angstrom), charge = -1, multiplicity = 1:

       Center              X                  Y                   Z               Mass       
    ------------   -----------------  -----------------  -----------------  -----------------
         N            0.000000000000     0.000000000000    -0.255763145498    14.003074004430
         C            0.000000000000     0.000000000000     0.298455854502    12.000000000000

  Running in c2v symmetry.

  Rotational constants: A = ************  B =      8.49286  C =      8.49286 [cm^-1]
  Rotational constants: A = ************  B = 254609.40411  C = 254609.40411 [MHz]
  Nuclear repulsion =   40.102275180280721

  Charge       = -1
  Multiplicity = 1
  Electrons    = 14
  Nalpha       = 7
  Nbeta        = 7

  ==> Algorithm <==

  SCF Algorithm Type is DF.
  DIIS enabled.
  MOM disabled.
  Fractional occupation disabled.
  Guess Type is READ.
  Energy threshold   = 1.00e-08
  Density threshold  = 1.00e-08
  Integral threshold = 1.00e-12

  ==> Primary Basis <==

  Basis Set: CC-PVTZ
    Blend: CC-PVTZ
    Number of shells: 20
    Number of basis functions: 60
    Number of Cartesian functions: 70
    Spherical Harmonics?: true
    Max angular momentum: 3

  ==> DFT Potential <==

   => LibXC <=

    Version 7.0.0
    S. Lehtola, C. Steigemann, M. J.T. Oliveira, and M. A.L. Marques.,  SoftwareX 7, 1–5 (2018) (10.1016/j.softx.2017.11.002)

   => Composite Functional: B3LYP <= 

    B3LYP Hyb-GGA Exchange-Correlation Functional

    P. J. Stephens, F. J. Devlin, C. F. Chabalowski, and M. J. Frisch.,  J. Phys. Chem. 98, 11623 (1994) (10.1021/j100096a001)

    Deriv               =              1
    GGA                 =           TRUE
    Meta                =          FALSE

    Exchange Hybrid     =           TRUE
    MP2 Hybrid          =          FALSE

   => Exchange Functionals <=

    0.0800   Slater exchange
    0.7200         Becke 88

   => Exact (HF) Exchange <=

    0.2000               HF 

   => Correlation Functionals <=

    0.1900   Vosko, Wilk & Nusair (VWN5_RPA)
    0.8100   Lee, Yang & Parr

   => LibXC Density Thresholds  <==

    XC_HYB_GGA_XC_B3LYP:  1.00E-15 

   => Molecular Quadrature <=

    Radial Scheme          =       TREUTLER
    Pruning Scheme         =           NONE
    Nuclear Scheme         =       TREUTLER

    Blocking Scheme        =         OCTREE
    BS radius alpha        =              1
    Pruning alpha          =              1
    Radial Points          =             75
    Spherical Points       =            302
    Total Points           =          43040
    Total Blocks           =            388
    Max Points             =            255
    Max Functions          =             60
    Weights Tolerance      =       1.00E-15

   => Loading Basis Set <=

    Name: (CC-PVTZ AUX)
    Role: JKFIT
    Keyword: DF_BASIS_SCF
    atoms 1 entry N          line   177 file /home/jrodriguesro/psi4conda/share/psi4/basis/cc-pvtz-jkfit.gbs 
    atoms 2 entry C          line   125 file /home/jrodriguesro/psi4conda/share/psi4/basis/cc-pvtz-jkfit.gbs 

   => Loading Basis Set <=

    Name: CC-PVTZ
    Role: ORBITAL
    Keyword: BASIS
    atoms 1 entry N          line   224 file /home/jrodriguesro/psi4conda/share/psi4/basis/cc-pvtz.gbs 
    atoms 2 entry C          line   186 file /home/jrodriguesro/psi4conda/share/psi4/basis/cc-pvtz.gbs 

  Reading orbitals from file /tmp/scan_CN_6.default.524456.180.npy, no projection.

  ==> Integral Setup <==

  DFHelper Memory: AOs need 0.005 GiB; user supplied 5.516 GiB. 
  SCF_SUBTYPE=INCORE selected. In-core MEM_DF algorithm will be used.
  Using in-core AOs.

  ==> MemDFJK: Density-Fitted J/K Matrices <==

    J tasked:                   Yes
    K tasked:                   Yes
    wK tasked:                   No
    OpenMP threads:               6
    Memory [MiB]:              5648
    Algorithm:                 Core
    Schwarz Cutoff:           1E-12
    Mask sparsity (%):       0.0000
    Fitting Condition:        1E-10

   => Auxiliary Basis Set <=

  Basis Set: (CC-PVTZ AUX)
    Blend: CC-PVTZ-JKFIT
    Number of shells: 50
    Number of basis functions: 158
    Number of Cartesian functions: 192
    Spherical Harmonics?: true
    Max angular momentum: 4

  Cached 100.0% of DFT collocation blocks in 0.072 [GiB].

  Minimum eigenvalue in the overlap matrix is 1.3137964307E-03.
  Reciprocal condition number of the overlap matrix is 2.9657720580E-04.
    Using symmetric orthogonalization.

  ==> Pre-Iterations <==

  SCF Guess: Orbitals guess was supplied from a previous computation.

   -------------------------------------------------------
    Irrep   Nso     Nmo     Nalpha   Nbeta   Ndocc  Nsocc
   -------------------------------------------------------
     A1        26      26       5       5       5       0
     A2         6       6       0       0       0       0
     B1        14      14       1       1       1       0
     B2        14      14       1       1       1       0
   -------------------------------------------------------
    Total      60      60       7       7       7       0
   -------------------------------------------------------

  ==> Iterations <==

                           Total Energy        Delta E     RMS |[F,P]|

   @DF-UKS iter   0:   -89.01872766753766   -8.90187e+01   2.19569e-11 
   @DF-UKS iter   1:   -89.01872766753755    1.13687e-13   3.10779e-11 DIIS
  Energy and wave function converged.


  ==> Post-Iterations <==

   Electrons on quadrature grid:
      Nalpha   =    6.9999999802 ; deviation = -1.977e-08
      Nbeta    =    6.9999999802 ; deviation = -1.977e-08
      Ntotal   =   13.9999999605 ; deviation = -3.954e-08 

   @Spin Contamination Metric:   2.486899575E-14
   @S^2 Expected:                0.000000000E+00
   @S^2 Observed:                2.486899575E-14
   @S   Expected:                0.000000000E+00
   @S   Observed:                0.000000000E+00

    Orbital Energies [Eh]
    ---------------------

    Alpha Occupied:                                                       

       1A1   -14.156919     2A1   -10.064532     3A1    -0.465659  
       1B2    -0.348815     1B1    -0.348815     4A1     0.061089  
       5A1     0.122463  

    Alpha Virtual:                                                        

       2B2     0.407435     2B1     0.407435     6A1     0.425930  
       7A1     0.537319     3B1     0.604250     3B2     0.604250  
       8A1     0.789436     9A1     0.953819     1A2     0.953819  
       4B2     0.974399     4B1     0.974399    10A1     1.220191  
       5B1     1.475790     5B2     1.475790    11A1     1.534906  
       2A2     1.638666    12A1     1.638666     6B1     1.674992  
       6B2     1.674992    13A1     1.850429    14A1     2.479683  
       7B2     2.520160     7B1     2.520160     8B1     2.985728  
       8B2     2.985728    15A1     3.183427     3A2     3.183428  
      16A1     3.184492     9B1     3.368801     9B2     3.368801  
      17A1     3.493934    18A1     3.501924     4A2     3.501924  
      10B1     3.852762    10B2     3.852762    19A1     4.443124  
      11B1     4.680240    11B2     4.680240    12B1     4.736477  
      12B2     4.736477     5A2     4.845994    20A1     4.845994  
      21A1     5.353108    13B2     6.300081    13B1     6.300081  
      22A1     6.445929     6A2     6.673514    23A1     6.673515  
      24A1     7.102596    14B1     8.014873    14B2     8.014873  
      25A1     9.758022    26A1    23.034326  

    Beta Occupied:                                                        

       1A1   -14.156919     2A1   -10.064532     3A1    -0.465659  
       1B2    -0.348815     1B1    -0.348815     4A1     0.061089  
       5A1     0.122463  

    Beta Virtual:                                                         

       2B2     0.407435     2B1     0.407435     6A1     0.425930  
       7A1     0.537319     3B1     0.604250     3B2     0.604250  
       8A1     0.789436     9A1     0.953819     1A2     0.953819  
       4B2     0.974399     4B1     0.974399    10A1     1.220191  
       5B1     1.475790     5B2     1.475790    11A1     1.534906  
       2A2     1.638666    12A1     1.638666     6B1     1.674992  
       6B2     1.674992    13A1     1.850429    14A1     2.479683  
       7B2     2.520160     7B1     2.520160     8B1     2.985728  
       8B2     2.985728    15A1     3.183427     3A2     3.183428  
      16A1     3.184492     9B1     3.368801     9B2     3.368801  
      17A1     3.493934    18A1     3.501924     4A2     3.501924  
      10B1     3.852762    10B2     3.852762    19A1     4.443124  
      11B1     4.680240    11B2     4.680240    12B1     4.736477  
      12B2     4.736477     5A2     4.845994    20A1     4.845994  
      21A1     5.353108    13B2     6.300081    13B1     6.300081  
      22A1     6.445929     6A2     6.673514    23A1     6.673515  
      24A1     7.102596    14B1     8.014873    14B2     8.014873  
      25A1     9.758022    26A1    23.034326  

    Final Occupation by Irrep:
             A1    A2    B1    B2 
    DOCC [     5,    0,    1,    1 ]
    SOCC [     0,    0,    0,    0 ]
    NA   [     5,    0,    1,    1 ]
    NB   [     5,    0,    1,    1 ]

  @DF-UKS Final Energy:   -89.01872766753755

   => Energetics <=

    Nuclear Repulsion Energy =             40.1022751802807207
    One-Electron Energy =                -199.9098239493775395
    Two-Electron Energy =                  81.8426955067920687
    DFT Exchange-Correlation Energy =     -11.0538744052327935
    Empirical Dispersion Energy =           0.0000000000000000
    VV10 Nonlocal Energy =                  0.0000000000000000
    Total Energy =                        -89.0187276675375472

  UHF NO Occupations:
  HONO-2 :    3 A1 2.0000000
  HONO-1 :    4 A1 2.0000000
  HONO-0 :    5 A1 2.0000000
  LUNO+0 :    6 A1 0.0000000
  LUNO+1 :    7 A1 0.0000000
  LUNO+2 :    8 A1 0.0000000
  LUNO+3 :    9 A1 0.0000000


Computation Completed


Properties will be evaluated at   0.000000,   0.000000,   0.000000 [a0]

Properties computed using the B3LYP density matrix


 Multipole Moments:

 ------------------------------------------------------------------------------------
     Multipole            Electronic (a.u.)      Nuclear  (a.u.)        Total (a.u.)
 ------------------------------------------------------------------------------------

 L = 1.  Multiply by 2.5417464519 to convert [e a0] to [Debye]
 Dipole X            :          0.0000000            0.0000000            0.0000000
 Dipole Y            :          0.0000000            0.0000000            0.0000000
 Dipole Z            :         -0.5120474            0.0007429           -0.5113045
 Magnitude           :                                                    0.5113045

 L = 2.  Multiply by 1.3450342976 to convert [e a0^2] to [Debye ang]
 Quadrupole XX       :         -8.1780001            0.0000000           -8.1780001
 Quadrupole XY       :          0.0000000            0.0000000            0.0000000
 Quadrupole XZ       :          0.0000000            0.0000000            0.0000000
 Quadrupole YY       :         -8.1780001            0.0000000           -8.1780001
 Quadrupole YZ       :          0.0000000            0.0000000            0.0000000
 Quadrupole ZZ       :        -16.6284841            3.5437779          -13.0847062
 Traceless XX        :          2.8168280           -1.1812593            1.6355687
 Traceless YY        :          2.8168280           -1.1812593            1.6355687
 Traceless ZZ        :         -5.6336560            2.3625186           -3.2711374

 ------------------------------------------------------------------------------------
  ==> Computing MBIS Charges <==

  Electron Count from Grid (Expected Number): 14.00000 (14.00000)
  Difference:  0.00000

  MBIS Charges: (a.u.)
   Center  Symbol  Z      Pop.       Charge
      1       N    7    7.294705   -0.294705
      2       C    6    6.705295   -0.705295

  MBIS Dipoles: [e a0]
   Center  Symbol  Z        X           Y           Z
      1       N    7   -0.000000   -0.000000    0.150593
      2       C    6   -0.000000   -0.000000   -0.406547

  MBIS Quadrupoles: [e a0^2]
   Center  Symbol  Z      XX        XY        XZ        YY        YZ        ZZ
      1       N    7   -3.1493   -0.0000    0.0000   -3.1493    0.0000   -4.3123
      2       C    6   -5.0287    0.0000    0.0000   -5.0287    0.0000   -7.8751

  MBIS Octupoles: [e a0^3]
   Center  Symbol  Z      XXX       XXY       XXZ       XYY       XYZ       XZZ       YYY       YYZ       YZZ       ZZZ
      1       N    7   -0.0000   -0.0000    0.3712   -0.0000   -0.0000    0.0000   -0.0000    0.3712   -0.0000    1.6841
      2       C    6   -0.0000   -0.0000   -1.0444   -0.0000   -0.0000    0.0000   -0.0000   -1.0444    0.0000   -1.9277

  MBIS Radial Moments:
   Center  Symbol  Z      [a0^2]      [a0^3]      [a0^4]      
      1       N    7   10.610881   21.027183   50.765001
      2       C    6   17.932476   49.860211   164.574703

  MBIS Valence Widths: [a0]
   Center  Symbol  Z     Width
      1       N    7    0.390714
      2       C    6    0.544206


  MBIS Valence Charges: (a.u.)
   Center  Symbol  Z     Charge
      1       N    7   -5.711783
      2       C    6   -4.893708

*** tstop() called on cics-quant-001 at Tue Dec 23 13:42:08 2025
Module time:
	user time   =       0.75 seconds =       0.01 minutes
	system time =       0.05 seconds =       0.00 minutes
	total time  =          1 seconds =       0.02 minutes
Total time:
	user time   =       2.14 seconds =       0.04 minutes
	system time =       0.12 seconds =       0.00 minutes
	total time  =          1 seconds =       0.02 minutes

    Psi4 stopped on: Tuesday, 23 December 2025 01:42PM
    Psi4 wall time for execution: 0:00:00.82

*** Psi4 exiting successfully. Buy a developer a beer!
