
    -----------------------------------------------------------------------
          Psi4: An Open-Source Ab Initio Electronic Structure Package
                               Psi4 1.10 release

                         Git: Rev {} zzzzzzz 


    D. G. A. Smith, L. A. Burns, A. C. Simmonett, R. M. Parrish,
    M. C. Schieber, R. Galvelis, P. Kraus, H. Kruse, R. Di Remigio,
    A. Alenaizan, A. M. James, S. Lehtola, J. P. Misiewicz, M. Scheurer,
    R. A. Shaw, J. B. Schriber, Y. Xie, Z. L. Glick, D. A. Sirianni,
    J. S. O'Brien, J. M. Waldrop, A. Kumar, E. G. Hohenstein,
    B. P. Pritchard, B. R. Brooks, H. F. Schaefer III, A. Yu. Sokolov,
    K. Patkowski, A. E. DePrince III, U. Bozkaya, R. A. King,
    F. A. Evangelista, J. M. Turney, T. D. Crawford, C. D. Sherrill,
    J. Chem. Phys. 152(18) 184108 (2020). https://doi.org/10.1063/5.0006002

                            Additional Code Authors
    E. T. Seidl, C. L. Janssen, E. F. Valeev, M. L. Leininger,
    J. F. Gonthier, R. M. Richard, H. R. McAlexander, M. Saitow, X. Wang,
    P. Verma, M. H. Lechner, A. Jiang, S. Behnle, A. G. Heide,
    M. F. Herbst, D. L. Poole, T. Győri, E. C. Mitchell, J. P. Pederson,
    and A. M. Wallace

             Previous Authors, Complete List of Code Contributors,
                       and Citations for Specific Modules
    https://github.com/psi4/psi4/blob/master/codemeta.json
    https://github.com/psi4/psi4/graphs/contributors
    https://psicode.org/psi4manual/master/introduction.html#citing-psifour

    -----------------------------------------------------------------------


    Psi4 started on: Tuesday, 23 December 2025 01:36PM

    Process ID: 486518
    Host:       cics-quant-001
    PSIDATADIR: /home/jrodriguesro/psi4conda/share/psi4
    Memory:     500.0 MiB
    Threads:    6
    Addons:     adcc, a̶m̶b̶i̶t̶, b̶s̶e̶, c̶c̶t̶3̶, c̶f̶o̶u̶r̶, c̶h̶e̶m̶p̶s̶2̶, c̶p̶p̶e̶, ddx, dftd3, dftd4,
                dkh, ecpint, einsums, f̶o̶r̶t̶e̶, g̶a̶u̶x̶c̶, gcp, g̶d̶m̶a̶, geometric,
                g̶p̶u̶_̶d̶f̶c̶c̶, i̶n̶t̶e̶g̶r̶a̶t̶o̶r̶x̶x̶, i̶p̶i̶, libefp, m̶d̶i̶, m̶p̶2̶d̶,
                m̶r̶c̶c̶, ooo, o̶p̶e̶n̶f̶e̶r̶m̶i̶o̶n̶p̶s̶i̶4̶, pcmsolver, p̶s̶i̶4̶f̶o̶c̶k̶c̶i̶,
                p̶s̶i̶x̶a̶s̶, r̶e̶s̶p̶, s̶i̶m̶i̶n̶t̶, s̶n̶s̶m̶p̶2̶, v̶2̶r̶d̶m̶_̶c̶a̶s̶s̶c̶f̶

  ==> Input File <==

--------------------------------------------------------------------------
memory 8 Gb

molecule { 
-1 2
O           0.000000           0.000000           0.000000
O           0.000000           0.000000           0.405710
}

set { 
basis              cc-pvtz
reference          uks
maxiter            500
DAMPING_PERCENTAGE 1
E_CONVERGENCE      1.0E-8
D_CONVERGENCE      1.0E-8
DIIS_MAX_VECS      400
MBIS_MAXITER       8000
guess              read
}

E, wfn = energy('b3lyp', restart_file='last_wfn', return_wfn=True)
properties('b3lyp','MBIS_CHARGES', wfn=wfn)
wfn.to_file('last_wfn')
--------------------------------------------------------------------------

  Memory set to   7.451 GiB by Python driver.

Scratch directory: /tmp/
 Found user provided orbital data. Setting orbital guess to READ 
 Copying restart file <last_wfn.npy> to </tmp/scan_OO_1.default.486518.180.npy> for internal processing
   => Libint2 <=

    Primary   basis highest AM E, G, H:  6, 6, 3
    Auxiliary basis highest AM E, G, H:  7, 7, 4
    Onebody   basis highest AM E, G, H:  -, -, -
    Solid Harmonics ordering:            Gaussian

*** tstart() called on cics-quant-001
*** at Tue Dec 23 13:36:22 2025

   => Loading Basis Set <=

    Name: CC-PVTZ
    Role: ORBITAL
    Keyword: BASIS
    atoms 1-2 entry O          line   262 file /home/jrodriguesro/psi4conda/share/psi4/basis/cc-pvtz.gbs 


         ---------------------------------------------------------
                                   SCF
               by Justin Turney, Rob Parrish, Andy Simmonett
                          and Daniel G. A. Smith
                              UKS Reference
                        6 Threads,   7629 MiB Core
         ---------------------------------------------------------

  ==> Geometry <==

    Molecular point group: d2h
    Full point group: D_inf_h

    Geometry (in Angstrom), charge = -1, multiplicity = 2:

       Center              X                  Y                   Z               Mass       
    ------------   -----------------  -----------------  -----------------  -----------------
         O            0.000000000000     0.000000000000    -0.202855000000    15.994914619570
         O            0.000000000000     0.000000000000     0.202855000000    15.994914619570

  Running in d2h symmetry.

  Rotational constants: A = ************  B =     12.80599  C =     12.80599 [cm^-1]
  Rotational constants: A = ************  B = 383913.90668  C = 383913.90668 [MHz]
  Nuclear repulsion =   83.476723479529696

  Charge       = -1
  Multiplicity = 2
  Electrons    = 17
  Nalpha       = 9
  Nbeta        = 8

  ==> Algorithm <==

  SCF Algorithm Type is DF.
  DIIS enabled.
  MOM disabled.
  Fractional occupation disabled.
  Guess Type is READ.
  Energy threshold   = 1.00e-08
  Density threshold  = 1.00e-08
  Integral threshold = 1.00e-12

  ==> Primary Basis <==

  Basis Set: CC-PVTZ
    Blend: CC-PVTZ
    Number of shells: 20
    Number of basis functions: 60
    Number of Cartesian functions: 70
    Spherical Harmonics?: true
    Max angular momentum: 3

  ==> DFT Potential <==

   => LibXC <=

    Version 7.0.0
    S. Lehtola, C. Steigemann, M. J.T. Oliveira, and M. A.L. Marques.,  SoftwareX 7, 1–5 (2018) (10.1016/j.softx.2017.11.002)

   => Composite Functional: B3LYP <= 

    B3LYP Hyb-GGA Exchange-Correlation Functional

    P. J. Stephens, F. J. Devlin, C. F. Chabalowski, and M. J. Frisch.,  J. Phys. Chem. 98, 11623 (1994) (10.1021/j100096a001)

    Deriv               =              1
    GGA                 =           TRUE
    Meta                =          FALSE

    Exchange Hybrid     =           TRUE
    MP2 Hybrid          =          FALSE

   => Exchange Functionals <=

    0.0800   Slater exchange
    0.7200         Becke 88

   => Exact (HF) Exchange <=

    0.2000               HF 

   => Correlation Functionals <=

    0.1900   Vosko, Wilk & Nusair (VWN5_RPA)
    0.8100   Lee, Yang & Parr

   => LibXC Density Thresholds  <==

    XC_HYB_GGA_XC_B3LYP:  1.00E-15 

   => Molecular Quadrature <=

    Radial Scheme          =       TREUTLER
    Pruning Scheme         =           NONE
    Nuclear Scheme         =       TREUTLER

    Blocking Scheme        =         OCTREE
    BS radius alpha        =              1
    Pruning alpha          =              1
    Radial Points          =             75
    Spherical Points       =            302
    Total Points           =          42004
    Total Blocks           =            374
    Max Points             =            255
    Max Functions          =             60
    Weights Tolerance      =       1.00E-15

   => Loading Basis Set <=

    Name: (CC-PVTZ AUX)
    Role: JKFIT
    Keyword: DF_BASIS_SCF
    atoms 1-2 entry O          line   229 file /home/jrodriguesro/psi4conda/share/psi4/basis/cc-pvtz-jkfit.gbs 

   => Loading Basis Set <=

    Name: CC-PVTZ
    Role: ORBITAL
    Keyword: BASIS
    atoms 1-2 entry O          line   262 file /home/jrodriguesro/psi4conda/share/psi4/basis/cc-pvtz.gbs 

  Reading orbitals from file /tmp/scan_OO_1.default.486518.180.npy, no projection.

  ==> Integral Setup <==

  DFHelper Memory: AOs need 0.005 GiB; user supplied 5.517 GiB. 
  SCF_SUBTYPE=INCORE selected. In-core MEM_DF algorithm will be used.
  Using in-core AOs.

  ==> MemDFJK: Density-Fitted J/K Matrices <==

    J tasked:                   Yes
    K tasked:                   Yes
    wK tasked:                   No
    OpenMP threads:               6
    Memory [MiB]:              5649
    Algorithm:                 Core
    Schwarz Cutoff:           1E-12
    Mask sparsity (%):       0.0000
    Fitting Condition:        1E-10

   => Auxiliary Basis Set <=

  Basis Set: (CC-PVTZ AUX)
    Blend: CC-PVTZ-JKFIT
    Number of shells: 50
    Number of basis functions: 158
    Number of Cartesian functions: 192
    Spherical Harmonics?: true
    Max angular momentum: 4

  Cached 100.0% of DFT collocation blocks in 0.071 [GiB].

  Minimum eigenvalue in the overlap matrix is 1.2835470164E-03.
  Reciprocal condition number of the overlap matrix is 3.1037530130E-04.
    Using symmetric orthogonalization.

  ==> Pre-Iterations <==

  SCF Guess: Orbitals guess was supplied from a previous computation.

   -------------------------------------------------------
    Irrep   Nso     Nmo     Nalpha   Nbeta   Ndocc  Nsocc
   -------------------------------------------------------
     Ag        13      13       3       3       3       0
     B1g        3       3       0       0       0       0
     B2g        7       7       1       0       0       1
     B3g        7       7       1       1       1       0
     Au         3       3       0       0       0       0
     B1u       13      13       2       2       2       0
     B2u        7       7       1       1       1       0
     B3u        7       7       1       1       1       0
   -------------------------------------------------------
    Total      60      60       9       8       8       1
   -------------------------------------------------------

  ==> Iterations <==

                           Total Energy        Delta E     RMS |[F,P]|

   @DF-UKS iter   0:  -137.21665315153416   -1.37217e+02   4.10063e-02 
    Occupation by irrep:
             Ag   B1g   B2g   B3g    Au   B1u   B2u   B3u 
Warning! Irrep has more beta than alpha electrons in symmetry 6 orbitals.
Warning! Irrep has more beta than alpha electrons in symmetry 6 orbitals.
    DOCC [     3,    0,    0,    0,    0,    2,    1,    1 ]
    SOCC [     0,    0,    1,    0,    0,    0,    1,    1 ]
    NA   [     3,    0,    1,    0,    0,    2,    1,    2 ]
    NB   [     3,    0,    0,    0,    0,    2,    2,    1 ]

   @DF-UKS iter   1:  -137.10279110854569    1.13862e-01   3.78330e-02 ADIIS/DIIS
   @DF-UKS iter   2:  -137.24697724916845   -1.44186e-01   4.18780e-02 ADIIS/DIIS/DAMP=1%
   @DF-UKS iter   3:  -137.46634225942020   -2.19365e-01   4.38977e-03 ADIIS/DIIS/DAMP=1%
   @DF-UKS iter   4:  -137.50670518772316   -4.03629e-02   5.56593e-04 ADIIS/DIIS/DAMP=1%
   @DF-UKS iter   5:  -137.50564842517588    1.05676e-03   2.94466e-05 DIIS/DAMP=1%
   @DF-UKS iter   6:  -137.50541988475700    2.28540e-04   3.69124e-06 DIIS/DAMP=1%
   @DF-UKS iter   7:  -137.50542724186931   -7.35711e-06   4.93457e-07 DIIS/DAMP=1%
   @DF-UKS iter   8:  -137.50542616564618    1.07622e-06   3.93206e-08 DIIS/DAMP=1%
   @DF-UKS iter   9:  -137.50542618186759   -1.62214e-08   3.87887e-09 DIIS/DAMP=1%
   @DF-UKS iter  10:  -137.50542616399056    1.78770e-08   3.25759e-10 DIIS/DAMP=1%
   @DF-UKS iter  11:  -137.50542616638012   -2.38956e-09   1.68468e-11 DIIS/DAMP=1%
  Energy and wave function converged.


  ==> Post-Iterations <==

   Electrons on quadrature grid:
      Nalpha   =    9.0000002097 ; deviation = 2.097e-07
      Nbeta    =    8.0000002097 ; deviation = 2.097e-07
      Ntotal   =   17.0000004194 ; deviation = 4.194e-07 

   @Spin Contamination Metric:   1.000570058E+00
   @S^2 Expected:                7.500000000E-01
   @S^2 Observed:                1.750570058E+00
   @S   Expected:                5.000000000E-01
   @S   Observed:                5.000000000E-01

    Orbital Energies [Eh]
    ---------------------

    Alpha Occupied:                                                       

       1Ag   -20.725674     1B1u  -19.456092     1B3u   -1.477781  
       1B2u   -1.468707     2Ag    -1.311966     3Ag    -0.417079  
       2B1u   -0.381573     2B3u    0.429265     1B2g    0.479540  

    Alpha Virtual:                                                        

       3B1u    0.530808     2B2u    0.539456     1B3g    0.585337  
       4Ag     0.635966     5Ag     0.881590     2B2g    1.147395  
       2B3g    1.173995     1B1g    1.326439     6Ag     1.329067  
       4B1u    1.550162     3B3u    2.072712     3B2u    2.099392  
       5B1u    2.144971     1Au     2.166528     6B1u    2.177179  
       7Ag     2.181433     3B2g    2.628512     3B3g    2.649677  
       4B3u    2.771214     4B2u    2.776406     8Ag     3.851964  
       5B2u    4.645060     5B3u    4.645140     7B1u    4.799422  
       2B1g    4.870989     9Ag     4.872034     4B2g    5.076237  
       4B3g    5.088671     8B1u    5.283312     2Au     5.490796  
       9B1u    5.493984     6B3u    5.516652     6B2u    5.528385  
       5B3g    6.327036     5B2g    6.327206    10Ag     6.352789  
       3B1g    6.485086    11Ag     6.486216     6B2g    6.745573  
       6B3g    6.748257    12Ag     6.801374    10B1u    9.002526  
      13Ag     9.110202     7B3u   10.168519     7B2u   10.174659  
       3Au    10.361140    11B1u   10.362639     7B2g   13.056097  
       7B3g   13.063626    12B1u   16.924602    13B1u   44.895547  

    Beta Occupied:                                                        

       1Ag   -20.724175     1B1u  -19.454239     1B2u   -1.479357  
       1B3u   -1.449231     2Ag    -1.303615     3Ag    -0.410229  
       2B1u   -0.360607     2B2u    0.429472  

    Beta Virtual:                                                         

       3B1u    0.553142     1B3g    0.567245     2B3u    0.570281  
       1B2g    0.622056     4Ag     0.657011     5Ag     0.883314  
       2B3g    1.169635     2B2g    1.204010     1B1g    1.336015  
       6Ag     1.339444     4B1u    1.570093     3B2u    2.082039  
       3B3u    2.129203     5B1u    2.149426     7Ag     2.185321  
       1Au     2.198768     6B1u    2.212348     3B3g    2.640617  
       3B2g    2.675501     4B2u    2.760489     4B3u    2.798522  
       8Ag     3.860959     5B3u    4.651541     5B2u    4.651631  
       7B1u    4.811872     2B1g    4.878653     9Ag     4.879197  
       4B3g    5.081541     4B2g    5.115168     8B1u    5.288793  
       2Au     5.513289     9B1u    5.515389     6B2u    5.521668  
       6B3u    5.550370     5B2g    6.345997     5B3g    6.346047  
      10Ag     6.358536     3B1g    6.499213    11Ag     6.501122  
       6B3g    6.746355     6B2g    6.770511    12Ag     6.808538  
      10B1u    9.009792    13Ag     9.113765     7B2u   10.167436  
       7B3u   10.191572     3Au    10.375917    11B1u   10.376575  
       7B3g   13.059495     7B2g   13.081512    12B1u   16.927019  
      13B1u   44.899242  

    Final Occupation by Irrep:
             Ag   B1g   B2g   B3g    Au   B1u   B2u   B3u 
Warning! Irrep has more beta than alpha electrons in symmetry 6 orbitals.
Warning! Irrep has more beta than alpha electrons in symmetry 6 orbitals.
    DOCC [     3,    0,    0,    0,    0,    2,    1,    1 ]
    SOCC [     0,    0,    1,    0,    0,    0,    1,    1 ]
    NA   [     3,    0,    1,    0,    0,    2,    1,    2 ]
    NB   [     3,    0,    0,    0,    0,    2,    2,    1 ]

  @DF-UKS Final Energy:  -137.50542616638012

   => Energetics <=

    Nuclear Repulsion Energy =             83.4767234795296957
    One-Electron Energy =                -341.7074304480322553
    Two-Electron Energy =                 136.3672341104297914
    DFT Exchange-Correlation Energy =     -15.6419533083073912
    Empirical Dispersion Energy =           0.0000000000000000
    VV10 Nonlocal Energy =                  0.0000000000000000
    Total Energy =                       -137.5054261663801469

  UHF NO Occupations:
  HONO-2 :    2B1u 1.9998542
  HONO-1 :    1B2g 1.0000000
  HONO-0 :    2B2u 1.0000000
  LUNO+0 :    2B3u 1.0000000
  LUNO+1 :    3B1u 0.0001458
  LUNO+2 :    4 Ag 0.0001231
  LUNO+3 :    3B3u 0.0000070


Computation Completed


Properties will be evaluated at   0.000000,   0.000000,   0.000000 [a0]

Properties computed using the SCF density matrix


 Multipole Moments:

 ------------------------------------------------------------------------------------
     Multipole            Electronic (a.u.)      Nuclear  (a.u.)        Total (a.u.)
 ------------------------------------------------------------------------------------

 L = 1.  Multiply by 2.5417464519 to convert [e a0] to [Debye]
 Dipole X            :          0.0000000            0.0000000            0.0000000
 Dipole Y            :          0.0000000            0.0000000            0.0000000
 Dipole Z            :          0.0000000            0.0000000            0.0000000
 Magnitude           :                                                    0.0000000

 ------------------------------------------------------------------------------------
Warning! Irrep has more beta than alpha electrons in symmetry 6 orbitals.
Warning! Irrep has more beta than alpha electrons in symmetry 6 orbitals.

*** tstop() called on cics-quant-001 at Tue Dec 23 13:36:22 2025
Module time:
	user time   =       1.47 seconds =       0.02 minutes
	system time =       0.07 seconds =       0.00 minutes
	total time  =          0 seconds =       0.00 minutes
Total time:
	user time   =       1.47 seconds =       0.02 minutes
	system time =       0.07 seconds =       0.00 minutes
	total time  =          0 seconds =       0.00 minutes

*** tstart() called on cics-quant-001
*** at Tue Dec 23 13:36:22 2025

   => Libint2 <=

    Primary   basis highest AM E, G, H:  6, 6, 3
    Auxiliary basis highest AM E, G, H:  7, 7, 4
    Onebody   basis highest AM E, G, H:  -, -, -
    Solid Harmonics ordering:            Gaussian
   => Loading Basis Set <=

    Name: CC-PVTZ
    Role: ORBITAL
    Keyword: BASIS
    atoms 1-2 entry O          line   262 file /home/jrodriguesro/psi4conda/share/psi4/basis/cc-pvtz.gbs 


         ---------------------------------------------------------
                                   SCF
               by Justin Turney, Rob Parrish, Andy Simmonett
                          and Daniel G. A. Smith
                              UKS Reference
                        6 Threads,   7629 MiB Core
         ---------------------------------------------------------

  ==> Geometry <==

    Molecular point group: d2h
    Full point group: D_inf_h

    Geometry (in Angstrom), charge = -1, multiplicity = 2:

       Center              X                  Y                   Z               Mass       
    ------------   -----------------  -----------------  -----------------  -----------------
         O            0.000000000000     0.000000000000    -0.202855000000    15.994914619570
         O            0.000000000000     0.000000000000     0.202855000000    15.994914619570

  Running in d2h symmetry.

  Rotational constants: A = ************  B =     12.80599  C =     12.80599 [cm^-1]
  Rotational constants: A = ************  B = 383913.90668  C = 383913.90668 [MHz]
  Nuclear repulsion =   83.476723479529696

  Charge       = -1
  Multiplicity = 2
  Electrons    = 17
  Nalpha       = 9
  Nbeta        = 8

  ==> Algorithm <==

  SCF Algorithm Type is DF.
  DIIS enabled.
  MOM disabled.
  Fractional occupation disabled.
  Guess Type is READ.
  Energy threshold   = 1.00e-08
  Density threshold  = 1.00e-08
  Integral threshold = 1.00e-12

  ==> Primary Basis <==

  Basis Set: CC-PVTZ
    Blend: CC-PVTZ
    Number of shells: 20
    Number of basis functions: 60
    Number of Cartesian functions: 70
    Spherical Harmonics?: true
    Max angular momentum: 3

  ==> DFT Potential <==

   => LibXC <=

    Version 7.0.0
    S. Lehtola, C. Steigemann, M. J.T. Oliveira, and M. A.L. Marques.,  SoftwareX 7, 1–5 (2018) (10.1016/j.softx.2017.11.002)

   => Composite Functional: B3LYP <= 

    B3LYP Hyb-GGA Exchange-Correlation Functional

    P. J. Stephens, F. J. Devlin, C. F. Chabalowski, and M. J. Frisch.,  J. Phys. Chem. 98, 11623 (1994) (10.1021/j100096a001)

    Deriv               =              1
    GGA                 =           TRUE
    Meta                =          FALSE

    Exchange Hybrid     =           TRUE
    MP2 Hybrid          =          FALSE

   => Exchange Functionals <=

    0.0800   Slater exchange
    0.7200         Becke 88

   => Exact (HF) Exchange <=

    0.2000               HF 

   => Correlation Functionals <=

    0.1900   Vosko, Wilk & Nusair (VWN5_RPA)
    0.8100   Lee, Yang & Parr

   => LibXC Density Thresholds  <==

    XC_HYB_GGA_XC_B3LYP:  1.00E-15 

   => Molecular Quadrature <=

    Radial Scheme          =       TREUTLER
    Pruning Scheme         =           NONE
    Nuclear Scheme         =       TREUTLER

    Blocking Scheme        =         OCTREE
    BS radius alpha        =              1
    Pruning alpha          =              1
    Radial Points          =             75
    Spherical Points       =            302
    Total Points           =          42004
    Total Blocks           =            374
    Max Points             =            255
    Max Functions          =             60
    Weights Tolerance      =       1.00E-15

   => Loading Basis Set <=

    Name: (CC-PVTZ AUX)
    Role: JKFIT
    Keyword: DF_BASIS_SCF
    atoms 1-2 entry O          line   229 file /home/jrodriguesro/psi4conda/share/psi4/basis/cc-pvtz-jkfit.gbs 

   => Loading Basis Set <=

    Name: CC-PVTZ
    Role: ORBITAL
    Keyword: BASIS
    atoms 1-2 entry O          line   262 file /home/jrodriguesro/psi4conda/share/psi4/basis/cc-pvtz.gbs 

  Reading orbitals from file /tmp/scan_OO_1.default.486518.180.npy, no projection.

  ==> Integral Setup <==

  DFHelper Memory: AOs need 0.005 GiB; user supplied 5.517 GiB. 
  SCF_SUBTYPE=INCORE selected. In-core MEM_DF algorithm will be used.
  Using in-core AOs.

  ==> MemDFJK: Density-Fitted J/K Matrices <==

    J tasked:                   Yes
    K tasked:                   Yes
    wK tasked:                   No
    OpenMP threads:               6
    Memory [MiB]:              5649
    Algorithm:                 Core
    Schwarz Cutoff:           1E-12
    Mask sparsity (%):       0.0000
    Fitting Condition:        1E-10

   => Auxiliary Basis Set <=

  Basis Set: (CC-PVTZ AUX)
    Blend: CC-PVTZ-JKFIT
    Number of shells: 50
    Number of basis functions: 158
    Number of Cartesian functions: 192
    Spherical Harmonics?: true
    Max angular momentum: 4

  Cached 100.0% of DFT collocation blocks in 0.071 [GiB].

  Minimum eigenvalue in the overlap matrix is 1.2835470164E-03.
  Reciprocal condition number of the overlap matrix is 3.1037530130E-04.
    Using symmetric orthogonalization.

  ==> Pre-Iterations <==

  SCF Guess: Orbitals guess was supplied from a previous computation.

   -------------------------------------------------------
    Irrep   Nso     Nmo     Nalpha   Nbeta   Ndocc  Nsocc
   -------------------------------------------------------
Warning! Irrep has more beta than alpha electrons in symmetry 6 orbitals.
Warning! Irrep has more beta than alpha electrons in symmetry 6 orbitals.
     Ag        13      13       3       3       3       0
Warning! Irrep has more beta than alpha electrons in symmetry 6 orbitals.
Warning! Irrep has more beta than alpha electrons in symmetry 6 orbitals.
     B1g        3       3       0       0       0       0
Warning! Irrep has more beta than alpha electrons in symmetry 6 orbitals.
Warning! Irrep has more beta than alpha electrons in symmetry 6 orbitals.
     B2g        7       7       1       0       0       1
Warning! Irrep has more beta than alpha electrons in symmetry 6 orbitals.
Warning! Irrep has more beta than alpha electrons in symmetry 6 orbitals.
     B3g        7       7       0       0       0       0
Warning! Irrep has more beta than alpha electrons in symmetry 6 orbitals.
Warning! Irrep has more beta than alpha electrons in symmetry 6 orbitals.
     Au         3       3       0       0       0       0
Warning! Irrep has more beta than alpha electrons in symmetry 6 orbitals.
Warning! Irrep has more beta than alpha electrons in symmetry 6 orbitals.
     B1u       13      13       2       2       2       0
Warning! Irrep has more beta than alpha electrons in symmetry 6 orbitals.
Warning! Irrep has more beta than alpha electrons in symmetry 6 orbitals.
     B2u        7       7       1       2       1       1
Warning! Irrep has more beta than alpha electrons in symmetry 6 orbitals.
Warning! Irrep has more beta than alpha electrons in symmetry 6 orbitals.
     B3u        7       7       2       1       1       1
   -------------------------------------------------------
    Total      60      60       9       8       8       1
   -------------------------------------------------------

  ==> Iterations <==

                           Total Energy        Delta E     RMS |[F,P]|

   @DF-UKS iter   0:  -137.50542616629011   -1.37505e+02   1.18176e-12 
   @DF-UKS iter   1:  -137.50542616629002    8.52651e-14   7.80068e-13 DIIS
  Energy and wave function converged.


  ==> Post-Iterations <==

   Electrons on quadrature grid:
      Nalpha   =    9.0000002097 ; deviation = 2.097e-07
      Nbeta    =    8.0000002097 ; deviation = 2.097e-07
      Ntotal   =   17.0000004194 ; deviation = 4.194e-07 

   @Spin Contamination Metric:   1.000570058E+00
   @S^2 Expected:                7.500000000E-01
   @S^2 Observed:                1.750570058E+00
   @S   Expected:                5.000000000E-01
   @S   Observed:                5.000000000E-01

    Orbital Energies [Eh]
    ---------------------

    Alpha Occupied:                                                       

       1Ag   -20.725674     1B1u  -19.456092     1B3u   -1.477781  
       1B2u   -1.468707     2Ag    -1.311966     3Ag    -0.417079  
       2B1u   -0.381573     2B3u    0.429265     1B2g    0.479540  

    Alpha Virtual:                                                        

       3B1u    0.530808     2B2u    0.539456     1B3g    0.585337  
       4Ag     0.635966     5Ag     0.881590     2B2g    1.147395  
       2B3g    1.173995     1B1g    1.326439     6Ag     1.329067  
       4B1u    1.550162     3B3u    2.072712     3B2u    2.099392  
       5B1u    2.144971     1Au     2.166528     6B1u    2.177179  
       7Ag     2.181433     3B2g    2.628512     3B3g    2.649677  
       4B3u    2.771214     4B2u    2.776406     8Ag     3.851964  
       5B2u    4.645060     5B3u    4.645140     7B1u    4.799422  
       2B1g    4.870989     9Ag     4.872034     4B2g    5.076237  
       4B3g    5.088671     8B1u    5.283312     2Au     5.490796  
       9B1u    5.493984     6B3u    5.516652     6B2u    5.528385  
       5B3g    6.327036     5B2g    6.327206    10Ag     6.352789  
       3B1g    6.485086    11Ag     6.486216     6B2g    6.745573  
       6B3g    6.748257    12Ag     6.801374    10B1u    9.002526  
      13Ag     9.110202     7B3u   10.168519     7B2u   10.174659  
       3Au    10.361140    11B1u   10.362639     7B2g   13.056097  
       7B3g   13.063626    12B1u   16.924602    13B1u   44.895547  

    Beta Occupied:                                                        

       1Ag   -20.724175     1B1u  -19.454239     1B2u   -1.479357  
       1B3u   -1.449231     2Ag    -1.303615     3Ag    -0.410229  
       2B1u   -0.360607     2B2u    0.429472  

    Beta Virtual:                                                         

       3B1u    0.553142     1B3g    0.567245     2B3u    0.570281  
       1B2g    0.622056     4Ag     0.657011     5Ag     0.883314  
       2B3g    1.169635     2B2g    1.204010     1B1g    1.336015  
       6Ag     1.339444     4B1u    1.570093     3B2u    2.082039  
       3B3u    2.129203     5B1u    2.149426     7Ag     2.185321  
       1Au     2.198768     6B1u    2.212348     3B3g    2.640617  
       3B2g    2.675501     4B2u    2.760489     4B3u    2.798522  
       8Ag     3.860959     5B3u    4.651541     5B2u    4.651631  
       7B1u    4.811872     2B1g    4.878653     9Ag     4.879197  
       4B3g    5.081541     4B2g    5.115168     8B1u    5.288793  
       2Au     5.513289     9B1u    5.515389     6B2u    5.521668  
       6B3u    5.550370     5B2g    6.345997     5B3g    6.346047  
      10Ag     6.358536     3B1g    6.499213    11Ag     6.501122  
       6B3g    6.746355     6B2g    6.770511    12Ag     6.808538  
      10B1u    9.009792    13Ag     9.113765     7B2u   10.167436  
       7B3u   10.191572     3Au    10.375917    11B1u   10.376575  
       7B3g   13.059495     7B2g   13.081512    12B1u   16.927019  
      13B1u   44.899242  

    Final Occupation by Irrep:
             Ag   B1g   B2g   B3g    Au   B1u   B2u   B3u 
Warning! Irrep has more beta than alpha electrons in symmetry 6 orbitals.
Warning! Irrep has more beta than alpha electrons in symmetry 6 orbitals.
    DOCC [     3,    0,    0,    0,    0,    2,    1,    1 ]
    SOCC [     0,    0,    1,    0,    0,    0,    1,    1 ]
    NA   [     3,    0,    1,    0,    0,    2,    1,    2 ]
    NB   [     3,    0,    0,    0,    0,    2,    2,    1 ]

  @DF-UKS Final Energy:  -137.50542616629002

   => Energetics <=

    Nuclear Repulsion Energy =             83.4767234795296957
    One-Electron Energy =                -341.7074304491253542
    Two-Electron Energy =                 136.3672341116950406
    DFT Exchange-Correlation Energy =     -15.6419533083894180
    Empirical Dispersion Energy =           0.0000000000000000
    VV10 Nonlocal Energy =                  0.0000000000000000
    Total Energy =                       -137.5054261662900217

  UHF NO Occupations:
  HONO-2 :    2B1u 1.9998542
  HONO-1 :    1B2g 1.0000000
  HONO-0 :    2B2u 1.0000000
  LUNO+0 :    2B3u 1.0000000
  LUNO+1 :    3B1u 0.0001458
  LUNO+2 :    4 Ag 0.0001231
  LUNO+3 :    3B3u 0.0000070


Computation Completed
Warning! Irrep has more beta than alpha electrons in symmetry 6 orbitals.
Warning! Irrep has more beta than alpha electrons in symmetry 6 orbitals.


Properties will be evaluated at   0.000000,   0.000000,   0.000000 [a0]

Properties computed using the B3LYP density matrix


 Multipole Moments:

 ------------------------------------------------------------------------------------
     Multipole            Electronic (a.u.)      Nuclear  (a.u.)        Total (a.u.)
 ------------------------------------------------------------------------------------

 L = 1.  Multiply by 2.5417464519 to convert [e a0] to [Debye]
 Dipole X            :          0.0000000            0.0000000            0.0000000
 Dipole Y            :          0.0000000            0.0000000            0.0000000
 Dipole Z            :          0.0000000            0.0000000            0.0000000
 Magnitude           :                                                    0.0000000

 L = 2.  Multiply by 1.3450342976 to convert [e a0^2] to [Debye ang]
 Quadrupole XX       :        -12.0237735            0.0000000          -12.0237735
 Quadrupole XY       :          0.0000000            0.0000000            0.0000000
 Quadrupole XZ       :          0.0000000            0.0000000            0.0000000
 Quadrupole YY       :        -10.0221519            0.0000000          -10.0221519
 Quadrupole YZ       :          0.0000000            0.0000000            0.0000000
 Quadrupole ZZ       :        -12.9031643            2.3511977          -10.5519666
 Traceless XX        :         -0.3740769           -0.7837326           -1.1578095
 Traceless YY        :          1.6275447           -0.7837326            0.8438121
 Traceless ZZ        :         -1.2534677            1.5674651            0.3139974

 ------------------------------------------------------------------------------------
  ==> Computing MBIS Charges <==

  Electron Count from Grid (Expected Number): 17.00000 (17.00000)
  Difference: -0.00000

  MBIS Charges: (a.u.)
   Center  Symbol  Z      Pop.       Charge
      1       O    8    7.008959    0.991041
      2       O    8    9.991039   -1.991039

  MBIS Dipoles: [e a0]
   Center  Symbol  Z        X           Y           Z
      1       O    8    0.000000   -0.000000   -0.104532
      2       O    8   -0.000000   -0.000000    1.247684

  MBIS Quadrupoles: [e a0^2]
   Center  Symbol  Z      XX        XY        XZ        YY        YZ        ZZ
      1       O    8   -1.6785   -0.0000   -0.0000   -1.5533   -0.0000   -1.8786
      2       O    8   -10.3452   -0.0000    0.0000   -8.4688   -0.0000   -9.5631

  MBIS Octupoles: [e a0^3]
   Center  Symbol  Z      XXX       XXY       XXZ       XYY       XYZ       XZZ       YYY       YYZ       YZZ       ZZZ
      1       O    8    0.0000   -0.0000    0.1653    0.0000    0.0000    0.0000    0.0000    0.0790   -0.0000    0.2348
      2       O    8   -0.0000   -0.0000    3.1570   -0.0000    0.0000   -0.0000   -0.0000    2.5719    0.0000    8.2666

  MBIS Radial Moments:
   Center  Symbol  Z      [a0^2]      [a0^3]      [a0^4]      
      1       O    8    5.110508    7.141946   12.340060
      2       O    8   28.377152   76.632276   234.178407

  MBIS Valence Widths: [a0]
   Center  Symbol  Z     Width
      1       O    8    0.273412
      2       O    8    0.552171


  MBIS Valence Charges: (a.u.)
   Center  Symbol  Z     Charge
      1       O    8   -5.604505
      2       O    8   -7.573137

*** tstop() called on cics-quant-001 at Tue Dec 23 13:36:24 2025
Module time:
	user time   =       2.17 seconds =       0.04 minutes
	system time =       0.06 seconds =       0.00 minutes
	total time  =          2 seconds =       0.03 minutes
Total time:
	user time   =       3.66 seconds =       0.06 minutes
	system time =       0.13 seconds =       0.00 minutes
	total time  =          2 seconds =       0.03 minutes
Warning! Irrep has more beta than alpha electrons in symmetry 6 orbitals.
Warning! Irrep has more beta than alpha electrons in symmetry 6 orbitals.

    Psi4 stopped on: Tuesday, 23 December 2025 01:36PM
    Psi4 wall time for execution: 0:00:01.57

*** Psi4 exiting successfully. Buy a developer a beer!
