
    -----------------------------------------------------------------------
          Psi4: An Open-Source Ab Initio Electronic Structure Package
                               Psi4 1.10 release

                         Git: Rev {} zzzzzzz 


    D. G. A. Smith, L. A. Burns, A. C. Simmonett, R. M. Parrish,
    M. C. Schieber, R. Galvelis, P. Kraus, H. Kruse, R. Di Remigio,
    A. Alenaizan, A. M. James, S. Lehtola, J. P. Misiewicz, M. Scheurer,
    R. A. Shaw, J. B. Schriber, Y. Xie, Z. L. Glick, D. A. Sirianni,
    J. S. O'Brien, J. M. Waldrop, A. Kumar, E. G. Hohenstein,
    B. P. Pritchard, B. R. Brooks, H. F. Schaefer III, A. Yu. Sokolov,
    K. Patkowski, A. E. DePrince III, U. Bozkaya, R. A. King,
    F. A. Evangelista, J. M. Turney, T. D. Crawford, C. D. Sherrill,
    J. Chem. Phys. 152(18) 184108 (2020). https://doi.org/10.1063/5.0006002

                            Additional Code Authors
    E. T. Seidl, C. L. Janssen, E. F. Valeev, M. L. Leininger,
    J. F. Gonthier, R. M. Richard, H. R. McAlexander, M. Saitow, X. Wang,
    P. Verma, M. H. Lechner, A. Jiang, S. Behnle, A. G. Heide,
    M. F. Herbst, D. L. Poole, T. Győri, E. C. Mitchell, J. P. Pederson,
    and A. M. Wallace

             Previous Authors, Complete List of Code Contributors,
                       and Citations for Specific Modules
    https://github.com/psi4/psi4/blob/master/codemeta.json
    https://github.com/psi4/psi4/graphs/contributors
    https://psicode.org/psi4manual/master/introduction.html#citing-psifour

    -----------------------------------------------------------------------


    Psi4 started on: Tuesday, 23 December 2025 01:43PM

    Process ID: 533491
    Host:       cics-quant-001
    PSIDATADIR: /home/jrodriguesro/psi4conda/share/psi4
    Memory:     500.0 MiB
    Threads:    6
    Addons:     adcc, a̶m̶b̶i̶t̶, b̶s̶e̶, c̶c̶t̶3̶, c̶f̶o̶u̶r̶, c̶h̶e̶m̶p̶s̶2̶, c̶p̶p̶e̶, ddx, dftd3, dftd4,
                dkh, ecpint, einsums, f̶o̶r̶t̶e̶, g̶a̶u̶x̶c̶, gcp, g̶d̶m̶a̶, geometric,
                g̶p̶u̶_̶d̶f̶c̶c̶, i̶n̶t̶e̶g̶r̶a̶t̶o̶r̶x̶x̶, i̶p̶i̶, libefp, m̶d̶i̶, m̶p̶2̶d̶,
                m̶r̶c̶c̶, ooo, o̶p̶e̶n̶f̶e̶r̶m̶i̶o̶n̶p̶s̶i̶4̶, pcmsolver, p̶s̶i̶4̶f̶o̶c̶k̶c̶i̶,
                p̶s̶i̶x̶a̶s̶, r̶e̶s̶p̶, s̶i̶m̶i̶n̶t̶, s̶n̶s̶m̶p̶2̶, v̶2̶r̶d̶m̶_̶c̶a̶s̶s̶c̶f̶

  ==> Input File <==

--------------------------------------------------------------------------
memory 8 Gb

molecule { 
-1 2
O           0.000000           0.000000           0.000000
C           0.000000           0.000000           1.596796
}

set { 
basis              cc-pvtz
reference          uks
maxiter            500
DAMPING_PERCENTAGE 1
E_CONVERGENCE      1.0E-8
D_CONVERGENCE      1.0E-8
DIIS_MAX_VECS      400
MBIS_MAXITER       8000
guess              read
}

E, wfn = energy('b3lyp', restart_file='last_wfn', return_wfn=True)
properties('b3lyp','MBIS_CHARGES', wfn=wfn)
wfn.to_file('last_wfn')
--------------------------------------------------------------------------

  Memory set to   7.451 GiB by Python driver.

Scratch directory: /tmp/
 Found user provided orbital data. Setting orbital guess to READ 
 Copying restart file <last_wfn.npy> to </tmp/scan_CO_30.default.533491.180.npy> for internal processing
   => Libint2 <=

    Primary   basis highest AM E, G, H:  6, 6, 3
    Auxiliary basis highest AM E, G, H:  7, 7, 4
    Onebody   basis highest AM E, G, H:  -, -, -
    Solid Harmonics ordering:            Gaussian

*** tstart() called on cics-quant-001
*** at Tue Dec 23 13:43:38 2025

   => Loading Basis Set <=

    Name: CC-PVTZ
    Role: ORBITAL
    Keyword: BASIS
    atoms 1 entry O          line   262 file /home/jrodriguesro/psi4conda/share/psi4/basis/cc-pvtz.gbs 
    atoms 2 entry C          line   186 file /home/jrodriguesro/psi4conda/share/psi4/basis/cc-pvtz.gbs 


         ---------------------------------------------------------
                                   SCF
               by Justin Turney, Rob Parrish, Andy Simmonett
                          and Daniel G. A. Smith
                              UKS Reference
                        6 Threads,   7629 MiB Core
         ---------------------------------------------------------

  ==> Geometry <==

    Molecular point group: c2v
    Full point group: C_inf_v

    Geometry (in Angstrom), charge = -1, multiplicity = 2:

       Center              X                  Y                   Z               Mass       
    ------------   -----------------  -----------------  -----------------  -----------------
         O            0.000000000000     0.000000000000    -0.684465455973    15.994914619570
         C            0.000000000000     0.000000000000     0.912330544027    12.000000000000

  Running in c2v symmetry.

  Rotational constants: A = ************  B =      0.96430  C =      0.96430 [cm^-1]
  Rotational constants: A = ************  B =  28909.08209  C =  28909.08209 [MHz]
  Nuclear repulsion =   15.907170428883841

  Charge       = -1
  Multiplicity = 2
  Electrons    = 15
  Nalpha       = 8
  Nbeta        = 7

  ==> Algorithm <==

  SCF Algorithm Type is DF.
  DIIS enabled.
  MOM disabled.
  Fractional occupation disabled.
  Guess Type is READ.
  Energy threshold   = 1.00e-08
  Density threshold  = 1.00e-08
  Integral threshold = 1.00e-12

  ==> Primary Basis <==

  Basis Set: CC-PVTZ
    Blend: CC-PVTZ
    Number of shells: 20
    Number of basis functions: 60
    Number of Cartesian functions: 70
    Spherical Harmonics?: true
    Max angular momentum: 3

  ==> DFT Potential <==

   => LibXC <=

    Version 7.0.0
    S. Lehtola, C. Steigemann, M. J.T. Oliveira, and M. A.L. Marques.,  SoftwareX 7, 1–5 (2018) (10.1016/j.softx.2017.11.002)

   => Composite Functional: B3LYP <= 

    B3LYP Hyb-GGA Exchange-Correlation Functional

    P. J. Stephens, F. J. Devlin, C. F. Chabalowski, and M. J. Frisch.,  J. Phys. Chem. 98, 11623 (1994) (10.1021/j100096a001)

    Deriv               =              1
    GGA                 =           TRUE
    Meta                =          FALSE

    Exchange Hybrid     =           TRUE
    MP2 Hybrid          =          FALSE

   => Exchange Functionals <=

    0.0800   Slater exchange
    0.7200         Becke 88

   => Exact (HF) Exchange <=

    0.2000               HF 

   => Correlation Functionals <=

    0.1900   Vosko, Wilk & Nusair (VWN5_RPA)
    0.8100   Lee, Yang & Parr

   => LibXC Density Thresholds  <==

    XC_HYB_GGA_XC_B3LYP:  1.00E-15 

   => Molecular Quadrature <=

    Radial Scheme          =       TREUTLER
    Pruning Scheme         =           NONE
    Nuclear Scheme         =       TREUTLER

    Blocking Scheme        =         OCTREE
    BS radius alpha        =              1
    Pruning alpha          =              1
    Radial Points          =             75
    Spherical Points       =            302
    Total Points           =          43332
    Total Blocks           =            391
    Max Points             =            253
    Max Functions          =             60
    Weights Tolerance      =       1.00E-15

   => Loading Basis Set <=

    Name: (CC-PVTZ AUX)
    Role: JKFIT
    Keyword: DF_BASIS_SCF
    atoms 1 entry O          line   229 file /home/jrodriguesro/psi4conda/share/psi4/basis/cc-pvtz-jkfit.gbs 
    atoms 2 entry C          line   125 file /home/jrodriguesro/psi4conda/share/psi4/basis/cc-pvtz-jkfit.gbs 

   => Loading Basis Set <=

    Name: CC-PVTZ
    Role: ORBITAL
    Keyword: BASIS
    atoms 1 entry O          line   262 file /home/jrodriguesro/psi4conda/share/psi4/basis/cc-pvtz.gbs 
    atoms 2 entry C          line   186 file /home/jrodriguesro/psi4conda/share/psi4/basis/cc-pvtz.gbs 

  Reading orbitals from file /tmp/scan_CO_30.default.533491.180.npy, no projection.

  ==> Integral Setup <==

  DFHelper Memory: AOs need 0.005 GiB; user supplied 5.517 GiB. 
  SCF_SUBTYPE=INCORE selected. In-core MEM_DF algorithm will be used.
  Using in-core AOs.

  ==> MemDFJK: Density-Fitted J/K Matrices <==

    J tasked:                   Yes
    K tasked:                   Yes
    wK tasked:                   No
    OpenMP threads:               6
    Memory [MiB]:              5649
    Algorithm:                 Core
    Schwarz Cutoff:           1E-12
    Mask sparsity (%):       0.0000
    Fitting Condition:        1E-10

   => Auxiliary Basis Set <=

  Basis Set: (CC-PVTZ AUX)
    Blend: CC-PVTZ-JKFIT
    Number of shells: 50
    Number of basis functions: 158
    Number of Cartesian functions: 192
    Spherical Harmonics?: true
    Max angular momentum: 4

  Cached 100.0% of DFT collocation blocks in 0.071 [GiB].

  Minimum eigenvalue in the overlap matrix is 9.9136980486E-03.
  Reciprocal condition number of the overlap matrix is 2.8009658643E-03.
    Using symmetric orthogonalization.

  ==> Pre-Iterations <==

  SCF Guess: Orbitals guess was supplied from a previous computation.

   -------------------------------------------------------
    Irrep   Nso     Nmo     Nalpha   Nbeta   Ndocc  Nsocc
   -------------------------------------------------------
     A1        26      26       5       5       5       0
     A2         6       6       0       0       0       0
     B1        14      14       2       1       1       1
     B2        14      14       1       1       1       0
   -------------------------------------------------------
    Total      60      60       8       7       7       1
   -------------------------------------------------------

  ==> Iterations <==

                           Total Energy        Delta E     RMS |[F,P]|

   @DF-UKS iter   0:  -113.18437358215280   -1.13184e+02   2.10751e-03 
   @DF-UKS iter   1:  -113.19840809171842   -1.40345e-02   1.53388e-03 ADIIS/DIIS
   @DF-UKS iter   2:  -113.18253196330444    1.58761e-02   6.15928e-03 ADIIS/DIIS/DAMP=1%
   @DF-UKS iter   3:  -113.19617669678978   -1.36447e-02   3.12837e-04 ADIIS/DIIS/DAMP=1%
   @DF-UKS iter   4:  -113.19930035680578   -3.12366e-03   1.38913e-04 ADIIS/DIIS/DAMP=1%
   @DF-UKS iter   5:  -113.19954055586068   -2.40199e-04   1.73910e-05 DIIS/DAMP=1%
   @DF-UKS iter   6:  -113.19956666047138   -2.61046e-05   9.86002e-06 DIIS/DAMP=1%
   @DF-UKS iter   7:  -113.19958960175050   -2.29413e-05   5.08050e-06 DIIS/DAMP=1%
   @DF-UKS iter   8:  -113.19958569711561    3.90463e-06   3.40104e-06 DIIS/DAMP=1%
   @DF-UKS iter   9:  -113.19958342821536    2.26890e-06   4.75508e-07 DIIS/DAMP=1%
   @DF-UKS iter  10:  -113.19958530301956   -1.87480e-06   2.37928e-07 DIIS/DAMP=1%
   @DF-UKS iter  11:  -113.19958549204492   -1.89025e-07   1.72593e-08 DIIS/DAMP=1%
   @DF-UKS iter  12:  -113.19958534194856    1.50096e-07   8.43937e-09 DIIS/DAMP=1%
   @DF-UKS iter  13:  -113.19958533626119    5.68737e-09   2.01732e-09 DIIS/DAMP=1%
  Energy and wave function converged.


  ==> Post-Iterations <==

   Electrons on quadrature grid:
      Nalpha   =    7.9999995608 ; deviation = -4.392e-07
      Nbeta    =    6.9999995800 ; deviation = -4.200e-07
      Ntotal   =   14.9999991408 ; deviation = -8.592e-07 

   @Spin Contamination Metric:   7.502616004E-03
   @S^2 Expected:                7.500000000E-01
   @S^2 Observed:                7.575026160E-01
   @S   Expected:                5.000000000E-01
   @S   Observed:                5.000000000E-01

    Orbital Energies [Eh]
    ---------------------

    Alpha Occupied:                                                       

       1A1   -18.852423     2A1    -9.993754     3A1    -0.625608  
       4A1    -0.259648     1B1    -0.053129     5A1    -0.048606  
       1B2    -0.030541     2B1     0.086451  

    Alpha Virtual:                                                        

       2B2     0.176982     6A1     0.342433     3B1     0.543415  
       3B2     0.558456     7A1     0.561682     8A1     0.598220  
       9A1     0.824523     4B1     0.893231     4B2     0.896768  
       1A2     0.929186    10A1     0.931924     5B1     1.040495  
       5B2     1.041106    11A1     1.277579    12A1     1.508261  
       2A2     1.786362    13A1     1.786875     6B1     1.948994  
       6B2     1.951189    14A1     2.146058     7B1     2.269250  
       7B2     2.284071    15A1     2.602434     8B1     2.943150  
       8B2     2.944036     3A2     2.979255    16A1     2.981811  
       9B1     3.126697     9B2     3.132598    17A1     3.155377  
       4A2     3.210028    18A1     3.216460    10B1     3.401236  
      10B2     3.409220    19A1     3.501315    11B1     4.003042  
      11B2     4.007509    20A1     4.017909    21A1     5.056943  
      12B1     5.437571    12B2     5.437609     5A2     5.481462  
      22A1     5.481879    13B2     5.713404    13B1     5.716485  
      23A1     6.090547     6A2     6.518079    24A1     6.519140  
      14B1     6.817211    14B2     6.819527    25A1     7.384081  
      26A1     8.542072  

    Beta Occupied:                                                        

       1A1   -18.847849     2A1    -9.980799     3A1    -0.614228  
       4A1    -0.222040     5A1    -0.035923     1B2    -0.029994  
       1B1    -0.007214  

    Beta Virtual:                                                         

       2B2     0.190229     2B1     0.224731     6A1     0.353987  
       3B2     0.568491     7A1     0.570125     3B1     0.593839  
       8A1     0.616021     9A1     0.829112     4B2     0.895689  
       4B1     0.910522     1A2     0.963867    10A1     0.964076  
       5B2     1.043860     5B1     1.064991    11A1     1.288511  
      12A1     1.512375     2A2     1.794406    13A1     1.794510  
       6B2     1.951896     6B1     1.970973    14A1     2.154554  
       7B2     2.296296     7B1     2.330649    15A1     2.617606  
       8B2     2.991134     8B1     2.991293    16A1     3.008917  
       3A2     3.009562     9B2     3.139158     9B1     3.167797  
      17A1     3.169579    18A1     3.273678     4A2     3.274249  
      10B2     3.414072    10B1     3.445198    19A1     3.521323  
      11B2     4.006667    11B1     4.027903    20A1     4.031889  
      21A1     5.065523    12B2     5.447918    12B1     5.447925  
       5A2     5.488184    22A1     5.488335    13B2     5.711817  
      13B1     5.729146    23A1     6.096516     6A2     6.535074  
      24A1     6.535148    14B2     6.817095    14B1     6.836503  
      25A1     7.390145    26A1     8.550368  

    Final Occupation by Irrep:
             A1    A2    B1    B2 
    DOCC [     5,    0,    1,    1 ]
    SOCC [     0,    0,    1,    0 ]
    NA   [     5,    0,    2,    1 ]
    NB   [     5,    0,    1,    1 ]

  @DF-UKS Final Energy:  -113.19958533626119

   => Energetics <=

    Nuclear Repulsion Energy =             15.9071704288838411
    One-Electron Energy =                -190.5650661790083404
    Two-Electron Energy =                  72.7575270399192959
    DFT Exchange-Correlation Energy =     -11.2992166260559799
    Empirical Dispersion Energy =           0.0000000000000000
    VV10 Nonlocal Energy =                  0.0000000000000000
    Total Energy =                       -113.1995853362611939

  UHF NO Occupations:
  HONO-2 :    5 A1 1.9989543
  HONO-1 :    1 B2 1.9983513
  HONO-0 :    2 B1 1.0000000
  LUNO+0 :    2 B2 0.0016487
  LUNO+1 :    6 A1 0.0010457
  LUNO+2 :    3 B1 0.0009516
  LUNO+3 :    7 A1 0.0000818


Computation Completed


Properties will be evaluated at   0.000000,   0.000000,   0.000000 [a0]

Properties computed using the SCF density matrix


 Multipole Moments:

 ------------------------------------------------------------------------------------
     Multipole            Electronic (a.u.)      Nuclear  (a.u.)        Total (a.u.)
 ------------------------------------------------------------------------------------

 L = 1.  Multiply by 2.5417464519 to convert [e a0] to [Debye]
 Dipole X            :          0.0000000            0.0000000            0.0000000
 Dipole Y            :          0.0000000            0.0000000            0.0000000
 Dipole Z            :         -0.2354118           -0.0032888           -0.2387007
 Magnitude           :                                                    0.2387007

 ------------------------------------------------------------------------------------

*** tstop() called on cics-quant-001 at Tue Dec 23 13:43:39 2025
Module time:
	user time   =       1.56 seconds =       0.03 minutes
	system time =       0.05 seconds =       0.00 minutes
	total time  =          1 seconds =       0.02 minutes
Total time:
	user time   =       1.56 seconds =       0.03 minutes
	system time =       0.05 seconds =       0.00 minutes
	total time  =          1 seconds =       0.02 minutes

*** tstart() called on cics-quant-001
*** at Tue Dec 23 13:43:39 2025

   => Libint2 <=

    Primary   basis highest AM E, G, H:  6, 6, 3
    Auxiliary basis highest AM E, G, H:  7, 7, 4
    Onebody   basis highest AM E, G, H:  -, -, -
    Solid Harmonics ordering:            Gaussian
   => Loading Basis Set <=

    Name: CC-PVTZ
    Role: ORBITAL
    Keyword: BASIS
    atoms 1 entry O          line   262 file /home/jrodriguesro/psi4conda/share/psi4/basis/cc-pvtz.gbs 
    atoms 2 entry C          line   186 file /home/jrodriguesro/psi4conda/share/psi4/basis/cc-pvtz.gbs 


         ---------------------------------------------------------
                                   SCF
               by Justin Turney, Rob Parrish, Andy Simmonett
                          and Daniel G. A. Smith
                              UKS Reference
                        6 Threads,   7629 MiB Core
         ---------------------------------------------------------

  ==> Geometry <==

    Molecular point group: c2v
    Full point group: C_inf_v

    Geometry (in Angstrom), charge = -1, multiplicity = 2:

       Center              X                  Y                   Z               Mass       
    ------------   -----------------  -----------------  -----------------  -----------------
         O            0.000000000000     0.000000000000    -0.684465455973    15.994914619570
         C            0.000000000000     0.000000000000     0.912330544027    12.000000000000

  Running in c2v symmetry.

  Rotational constants: A = ************  B =      0.96430  C =      0.96430 [cm^-1]
  Rotational constants: A = ************  B =  28909.08209  C =  28909.08209 [MHz]
  Nuclear repulsion =   15.907170428883841

  Charge       = -1
  Multiplicity = 2
  Electrons    = 15
  Nalpha       = 8
  Nbeta        = 7

  ==> Algorithm <==

  SCF Algorithm Type is DF.
  DIIS enabled.
  MOM disabled.
  Fractional occupation disabled.
  Guess Type is READ.
  Energy threshold   = 1.00e-08
  Density threshold  = 1.00e-08
  Integral threshold = 1.00e-12

  ==> Primary Basis <==

  Basis Set: CC-PVTZ
    Blend: CC-PVTZ
    Number of shells: 20
    Number of basis functions: 60
    Number of Cartesian functions: 70
    Spherical Harmonics?: true
    Max angular momentum: 3

  ==> DFT Potential <==

   => LibXC <=

    Version 7.0.0
    S. Lehtola, C. Steigemann, M. J.T. Oliveira, and M. A.L. Marques.,  SoftwareX 7, 1–5 (2018) (10.1016/j.softx.2017.11.002)

   => Composite Functional: B3LYP <= 

    B3LYP Hyb-GGA Exchange-Correlation Functional

    P. J. Stephens, F. J. Devlin, C. F. Chabalowski, and M. J. Frisch.,  J. Phys. Chem. 98, 11623 (1994) (10.1021/j100096a001)

    Deriv               =              1
    GGA                 =           TRUE
    Meta                =          FALSE

    Exchange Hybrid     =           TRUE
    MP2 Hybrid          =          FALSE

   => Exchange Functionals <=

    0.0800   Slater exchange
    0.7200         Becke 88

   => Exact (HF) Exchange <=

    0.2000               HF 

   => Correlation Functionals <=

    0.1900   Vosko, Wilk & Nusair (VWN5_RPA)
    0.8100   Lee, Yang & Parr

   => LibXC Density Thresholds  <==

    XC_HYB_GGA_XC_B3LYP:  1.00E-15 

   => Molecular Quadrature <=

    Radial Scheme          =       TREUTLER
    Pruning Scheme         =           NONE
    Nuclear Scheme         =       TREUTLER

    Blocking Scheme        =         OCTREE
    BS radius alpha        =              1
    Pruning alpha          =              1
    Radial Points          =             75
    Spherical Points       =            302
    Total Points           =          43332
    Total Blocks           =            391
    Max Points             =            253
    Max Functions          =             60
    Weights Tolerance      =       1.00E-15

   => Loading Basis Set <=

    Name: (CC-PVTZ AUX)
    Role: JKFIT
    Keyword: DF_BASIS_SCF
    atoms 1 entry O          line   229 file /home/jrodriguesro/psi4conda/share/psi4/basis/cc-pvtz-jkfit.gbs 
    atoms 2 entry C          line   125 file /home/jrodriguesro/psi4conda/share/psi4/basis/cc-pvtz-jkfit.gbs 

   => Loading Basis Set <=

    Name: CC-PVTZ
    Role: ORBITAL
    Keyword: BASIS
    atoms 1 entry O          line   262 file /home/jrodriguesro/psi4conda/share/psi4/basis/cc-pvtz.gbs 
    atoms 2 entry C          line   186 file /home/jrodriguesro/psi4conda/share/psi4/basis/cc-pvtz.gbs 

  Reading orbitals from file /tmp/scan_CO_30.default.533491.180.npy, no projection.

  ==> Integral Setup <==

  DFHelper Memory: AOs need 0.005 GiB; user supplied 5.517 GiB. 
  SCF_SUBTYPE=INCORE selected. In-core MEM_DF algorithm will be used.
  Using in-core AOs.

  ==> MemDFJK: Density-Fitted J/K Matrices <==

    J tasked:                   Yes
    K tasked:                   Yes
    wK tasked:                   No
    OpenMP threads:               6
    Memory [MiB]:              5649
    Algorithm:                 Core
    Schwarz Cutoff:           1E-12
    Mask sparsity (%):       0.0000
    Fitting Condition:        1E-10

   => Auxiliary Basis Set <=

  Basis Set: (CC-PVTZ AUX)
    Blend: CC-PVTZ-JKFIT
    Number of shells: 50
    Number of basis functions: 158
    Number of Cartesian functions: 192
    Spherical Harmonics?: true
    Max angular momentum: 4

  Cached 100.0% of DFT collocation blocks in 0.071 [GiB].

  Minimum eigenvalue in the overlap matrix is 9.9136980486E-03.
  Reciprocal condition number of the overlap matrix is 2.8009658643E-03.
    Using symmetric orthogonalization.

  ==> Pre-Iterations <==

  SCF Guess: Orbitals guess was supplied from a previous computation.

   -------------------------------------------------------
    Irrep   Nso     Nmo     Nalpha   Nbeta   Ndocc  Nsocc
   -------------------------------------------------------
     A1        26      26       5       5       5       0
     A2         6       6       0       0       0       0
     B1        14      14       2       1       1       1
     B2        14      14       1       1       1       0
   -------------------------------------------------------
    Total      60      60       8       7       7       1
   -------------------------------------------------------

  ==> Iterations <==

                           Total Energy        Delta E     RMS |[F,P]|

   @DF-UKS iter   0:  -113.19958533940763   -1.13200e+02   2.03216e-10 
   @DF-UKS iter   1:  -113.19958533940756    7.10543e-14   7.65396e-10 DIIS
  Energy and wave function converged.


  ==> Post-Iterations <==

   Electrons on quadrature grid:
      Nalpha   =    7.9999995608 ; deviation = -4.392e-07
      Nbeta    =    6.9999995800 ; deviation = -4.200e-07
      Ntotal   =   14.9999991408 ; deviation = -8.592e-07 

   @Spin Contamination Metric:   7.502613320E-03
   @S^2 Expected:                7.500000000E-01
   @S^2 Observed:                7.575026133E-01
   @S   Expected:                5.000000000E-01
   @S   Observed:                5.000000000E-01

    Orbital Energies [Eh]
    ---------------------

    Alpha Occupied:                                                       

       1A1   -18.852423     2A1    -9.993754     3A1    -0.625608  
       4A1    -0.259648     1B1    -0.053129     5A1    -0.048606  
       1B2    -0.030541     2B1     0.086451  

    Alpha Virtual:                                                        

       2B2     0.176982     6A1     0.342433     3B1     0.543415  
       3B2     0.558456     7A1     0.561682     8A1     0.598220  
       9A1     0.824523     4B1     0.893231     4B2     0.896768  
       1A2     0.929186    10A1     0.931924     5B1     1.040495  
       5B2     1.041106    11A1     1.277579    12A1     1.508261  
       2A2     1.786362    13A1     1.786875     6B1     1.948994  
       6B2     1.951189    14A1     2.146057     7B1     2.269250  
       7B2     2.284071    15A1     2.602434     8B1     2.943150  
       8B2     2.944036     3A2     2.979255    16A1     2.981811  
       9B1     3.126697     9B2     3.132598    17A1     3.155377  
       4A2     3.210028    18A1     3.216460    10B1     3.401236  
      10B2     3.409220    19A1     3.501315    11B1     4.003042  
      11B2     4.007509    20A1     4.017909    21A1     5.056943  
      12B1     5.437571    12B2     5.437609     5A2     5.481462  
      22A1     5.481879    13B2     5.713404    13B1     5.716485  
      23A1     6.090547     6A2     6.518079    24A1     6.519140  
      14B1     6.817211    14B2     6.819527    25A1     7.384081  
      26A1     8.542072  

    Beta Occupied:                                                        

       1A1   -18.847849     2A1    -9.980799     3A1    -0.614228  
       4A1    -0.222040     5A1    -0.035923     1B2    -0.029994  
       1B1    -0.007214  

    Beta Virtual:                                                         

       2B2     0.190229     2B1     0.224731     6A1     0.353987  
       3B2     0.568491     7A1     0.570125     3B1     0.593839  
       8A1     0.616021     9A1     0.829112     4B2     0.895689  
       4B1     0.910522     1A2     0.963867    10A1     0.964076  
       5B2     1.043860     5B1     1.064991    11A1     1.288511  
      12A1     1.512374     2A2     1.794406    13A1     1.794510  
       6B2     1.951896     6B1     1.970973    14A1     2.154554  
       7B2     2.296296     7B1     2.330649    15A1     2.617606  
       8B2     2.991134     8B1     2.991293    16A1     3.008917  
       3A2     3.009562     9B2     3.139158     9B1     3.167797  
      17A1     3.169579    18A1     3.273678     4A2     3.274249  
      10B2     3.414072    10B1     3.445198    19A1     3.521323  
      11B2     4.006667    11B1     4.027903    20A1     4.031889  
      21A1     5.065523    12B2     5.447918    12B1     5.447925  
       5A2     5.488184    22A1     5.488335    13B2     5.711817  
      13B1     5.729146    23A1     6.096516     6A2     6.535074  
      24A1     6.535148    14B2     6.817095    14B1     6.836503  
      25A1     7.390145    26A1     8.550368  

    Final Occupation by Irrep:
             A1    A2    B1    B2 
    DOCC [     5,    0,    1,    1 ]
    SOCC [     0,    0,    1,    0 ]
    NA   [     5,    0,    2,    1 ]
    NB   [     5,    0,    1,    1 ]

  @DF-UKS Final Energy:  -113.19958533940756

   => Energetics <=

    Nuclear Repulsion Energy =             15.9071704288838411
    One-Electron Energy =                -190.5650663049343621
    Two-Electron Energy =                  72.7575271754516137
    DFT Exchange-Correlation Energy =     -11.2992166388086392
    Empirical Dispersion Energy =           0.0000000000000000
    VV10 Nonlocal Energy =                  0.0000000000000000
    Total Energy =                       -113.1995853394075624

  UHF NO Occupations:
  HONO-2 :    5 A1 1.9989543
  HONO-1 :    1 B2 1.9983513
  HONO-0 :    2 B1 1.0000000
  LUNO+0 :    2 B2 0.0016487
  LUNO+1 :    6 A1 0.0010457
  LUNO+2 :    3 B1 0.0009516
  LUNO+3 :    7 A1 0.0000818


Computation Completed


Properties will be evaluated at   0.000000,   0.000000,   0.000000 [a0]

Properties computed using the B3LYP density matrix


 Multipole Moments:

 ------------------------------------------------------------------------------------
     Multipole            Electronic (a.u.)      Nuclear  (a.u.)        Total (a.u.)
 ------------------------------------------------------------------------------------

 L = 1.  Multiply by 2.5417464519 to convert [e a0] to [Debye]
 Dipole X            :          0.0000000            0.0000000            0.0000000
 Dipole Y            :          0.0000000            0.0000000            0.0000000
 Dipole Z            :         -0.2354116           -0.0032888           -0.2387004
 Magnitude           :                                                    0.2387004

 L = 2.  Multiply by 1.3450342976 to convert [e a0^2] to [Debye ang]
 Quadrupole XX       :        -11.2320345            0.0000000          -11.2320345
 Quadrupole XY       :          0.0000000            0.0000000            0.0000000
 Quadrupole XZ       :          0.0000000            0.0000000            0.0000000
 Quadrupole YY       :         -9.8781940            0.0000000           -9.8781940
 Quadrupole YZ       :          0.0000000            0.0000000            0.0000000
 Quadrupole ZZ       :        -45.3090813           31.2183409          -14.0907404
 Traceless XX        :         10.9077354          -10.4061136            0.5016218
 Traceless YY        :         12.2615760          -10.4061136            1.8554623
 Traceless ZZ        :        -23.1693114           20.8122273           -2.3570841

 ------------------------------------------------------------------------------------
  ==> Computing MBIS Charges <==

  Electron Count from Grid (Expected Number): 15.00000 (15.00000)
  Difference: -0.00000

  MBIS Charges: (a.u.)
   Center  Symbol  Z      Pop.       Charge
      1       O    8    8.572480   -0.572480
      2       C    6    6.427519   -0.427519

  MBIS Dipoles: [e a0]
   Center  Symbol  Z        X           Y           Z
      1       O    8   -0.000000    0.000000    0.045844
      2       C    6   -0.000000    0.000000   -0.287955

  MBIS Quadrupoles: [e a0^2]
   Center  Symbol  Z      XX        XY        XZ        YY        YZ        ZZ
      1       O    8   -4.7592   -0.0000    0.0000   -4.5508    0.0000   -4.5770
      2       C    6   -6.4728    0.0000    0.0000   -5.3274    0.0000   -6.1737

  MBIS Octupoles: [e a0^3]
   Center  Symbol  Z      XXX       XXY       XXZ       XYY       XYZ       XZZ       YYY       YYZ       YZZ       ZZZ
      1       O    8    0.0000   -0.0000    0.0391   -0.0000    0.0000   -0.0000    0.0000    0.0355   -0.0000   -0.0956
      2       C    6   -0.0000   -0.0000   -0.4975   -0.0000    0.0000    0.0000    0.0000   -0.0451    0.0000   -0.0377

  MBIS Radial Moments:
   Center  Symbol  Z      [a0^2]      [a0^3]      [a0^4]      
      1       O    8   13.887067   27.899878   66.885593
      2       C    6   17.973894   48.528296   154.176390

  MBIS Valence Widths: [a0]
   Center  Symbol  Z     Width
      1       O    8    0.410385
      2       C    6    0.568675


  MBIS Valence Charges: (a.u.)
   Center  Symbol  Z     Charge
      1       O    8   -6.906606
      2       C    6   -4.706422

*** tstop() called on cics-quant-001 at Tue Dec 23 13:43:39 2025
Module time:
	user time   =       0.47 seconds =       0.01 minutes
	system time =       0.03 seconds =       0.00 minutes
	total time  =          0 seconds =       0.00 minutes
Total time:
	user time   =       2.04 seconds =       0.03 minutes
	system time =       0.08 seconds =       0.00 minutes
	total time  =          1 seconds =       0.02 minutes

    Psi4 stopped on: Tuesday, 23 December 2025 01:43PM
    Psi4 wall time for execution: 0:00:00.71

*** Psi4 exiting successfully. Buy a developer a beer!
