
    -----------------------------------------------------------------------
          Psi4: An Open-Source Ab Initio Electronic Structure Package
                               Psi4 1.9.1 release

                         Git: Rev {} zzzzzzz 


    D. G. A. Smith, L. A. Burns, A. C. Simmonett, R. M. Parrish,
    M. C. Schieber, R. Galvelis, P. Kraus, H. Kruse, R. Di Remigio,
    A. Alenaizan, A. M. James, S. Lehtola, J. P. Misiewicz, M. Scheurer,
    R. A. Shaw, J. B. Schriber, Y. Xie, Z. L. Glick, D. A. Sirianni,
    J. S. O'Brien, J. M. Waldrop, A. Kumar, E. G. Hohenstein,
    B. P. Pritchard, B. R. Brooks, H. F. Schaefer III, A. Yu. Sokolov,
    K. Patkowski, A. E. DePrince III, U. Bozkaya, R. A. King,
    F. A. Evangelista, J. M. Turney, T. D. Crawford, C. D. Sherrill,
    J. Chem. Phys. 152(18) 184108 (2020). https://doi.org/10.1063/5.0006002

                            Additional Code Authors
    E. T. Seidl, C. L. Janssen, E. F. Valeev, M. L. Leininger,
    J. F. Gonthier, R. M. Richard, H. R. McAlexander, M. Saitow, X. Wang,
    P. Verma, M. H. Lechner, A. Jiang, S. Behnle, A. G. Heide,
    M. F. Herbst, and D. L. Poole

             Previous Authors, Complete List of Code Contributors,
                       and Citations for Specific Modules
    https://github.com/psi4/psi4/blob/master/codemeta.json
    https://github.com/psi4/psi4/graphs/contributors
    http://psicode.org/psi4manual/master/introduction.html#citing-psifour

    -----------------------------------------------------------------------


    Psi4 started on: Wednesday, 27 August 2025 12:41AM

    Process ID: 65589
    Host:       Mac.lan
    PSIDATADIR: /Users/joseantoniorodriguesromero/anaconda3/share/psi4
    Memory:     500.0 MiB
    Threads:    1
    
  ==> Input File <==

--------------------------------------------------------------------------
molecule { 
-1 2
N           0.000000           0.000000           0.000000
N           0.000000           0.000000           2.170858
}

set { 
basis              cc-pvtz
reference          uks
maxiter            500
DAMPING_PERCENTAGE 1
E_CONVERGENCE      1.0E-8
D_CONVERGENCE      1.0E-8
DIIS_MAX_VECS      400
MBIS_MAXITER       8000
guess              read
}

E, wfn = energy('b3lyp', restart_file='last_wfn', return_wfn=True)
properties('b3lyp','MBIS_CHARGES', wfn=wfn)
wfn.to_file('last_wfn')
--------------------------------------------------------------------------

Scratch directory: /tmp/
 Found user provided orbital data. Setting orbital guess to READ 
 Copying restart file <last_wfn.npy> to </tmp/scan_NN_45.default.65589.180.npy> for internal processing
   => Libint2 <=

    Primary   basis highest AM E, G, H:  6, 6, 3
    Auxiliary basis highest AM E, G, H:  7, 7, 4
    Onebody   basis highest AM E, G, H:  -, -, -
    Solid Harmonics ordering:            Gaussian

*** tstart() called on Mac.lan
*** at Wed Aug 27 00:41:34 2025

   => Loading Basis Set <=

    Name: CC-PVTZ
    Role: ORBITAL
    Keyword: BASIS
    atoms 1-2 entry N          line   224 file /Users/joseantoniorodriguesromero/anaconda3/share/psi4/basis/cc-pvtz.gbs 


         ---------------------------------------------------------
                                   SCF
               by Justin Turney, Rob Parrish, Andy Simmonett
                          and Daniel G. A. Smith
                              UKS Reference
                        1 Threads,    500 MiB Core
         ---------------------------------------------------------

  ==> Geometry <==

    Molecular point group: d2h
    Full point group: D_inf_h

    Geometry (in Angstrom), charge = -1, multiplicity = 2:

       Center              X                  Y                   Z               Mass       
    ------------   -----------------  -----------------  -----------------  -----------------
         N            0.000000000000     0.000000000000    -1.085429000000    14.003074004430
         N            0.000000000000     0.000000000000     1.085429000000    14.003074004430

  Running in d2h symmetry.

  Rotational constants: A = ************  B =      0.51091  C =      0.51091 [cm^-1]
  Rotational constants: A = ************  B =  15316.55089  C =  15316.55089 [MHz]
  Nuclear repulsion =   11.944440089047742

  Charge       = -1
  Multiplicity = 2
  Electrons    = 15
  Nalpha       = 8
  Nbeta        = 7

  ==> Algorithm <==

  SCF Algorithm Type is DF.
  DIIS enabled.
  MOM disabled.
  Fractional occupation disabled.
  Guess Type is READ.
  Energy threshold   = 1.00e-08
  Density threshold  = 1.00e-08
  Integral threshold = 1.00e-12

  ==> Primary Basis <==

  Basis Set: CC-PVTZ
    Blend: CC-PVTZ
    Number of shells: 20
    Number of basis functions: 60
    Number of Cartesian functions: 70
    Spherical Harmonics?: true
    Max angular momentum: 3

  ==> DFT Potential <==

   => LibXC <=

    Version 6.2.2
    S. Lehtola, C. Steigemann, M. J.T. Oliveira, and M. A.L. Marques.,  SoftwareX 7, 1–5 (2018) (10.1016/j.softx.2017.11.002)

   => Composite Functional: B3LYP <= 

    B3LYP Hyb-GGA Exchange-Correlation Functional

    P. J. Stephens, F. J. Devlin, C. F. Chabalowski, and M. J. Frisch.,  J. Phys. Chem. 98, 11623 (1994) (10.1021/j100096a001)

    Deriv               =              1
    GGA                 =           TRUE
    Meta                =          FALSE

    Exchange Hybrid     =           TRUE
    MP2 Hybrid          =          FALSE

   => Exchange Functionals <=

    0.0800   Slater exchange
    0.7200         Becke 88

   => Exact (HF) Exchange <=

    0.2000               HF 

   => Correlation Functionals <=

    0.1900   Vosko, Wilk & Nusair (VWN5_RPA)
    0.8100   Lee, Yang & Parr

   => LibXC Density Thresholds  <==

    XC_HYB_GGA_XC_B3LYP:  1.00E-15 

   => Molecular Quadrature <=

    Radial Scheme          =       TREUTLER
    Pruning Scheme         =           NONE
    Nuclear Scheme         =       TREUTLER

    Blocking Scheme        =         OCTREE
    BS radius alpha        =              1
    Pruning alpha          =              1
    Radial Points          =             75
    Spherical Points       =            302
    Total Points           =          42558
    Total Blocks           =            372
    Max Points             =            255
    Max Functions          =             60
    Weights Tolerance      =       1.00E-15

   => Loading Basis Set <=

    Name: (CC-PVTZ AUX)
    Role: JKFIT
    Keyword: DF_BASIS_SCF
    atoms 1-2 entry N          line   177 file /Users/joseantoniorodriguesromero/anaconda3/share/psi4/basis/cc-pvtz-jkfit.gbs 

   => Loading Basis Set <=

    Name: CC-PVTZ
    Role: ORBITAL
    Keyword: BASIS
    atoms 1-2 entry N          line   224 file /Users/joseantoniorodriguesromero/anaconda3/share/psi4/basis/cc-pvtz.gbs 

  Reading orbitals from file /tmp/scan_NN_45.default.65589.180.npy, no projection.

  ==> Integral Setup <==

  DFHelper Memory: AOs need 0.005 GiB; user supplied 0.297 GiB. 
  Using in-core AOs.

  ==> MemDFJK: Density-Fitted J/K Matrices <==

    J tasked:                   Yes
    K tasked:                   Yes
    wK tasked:                   No
    OpenMP threads:               1
    Memory [MiB]:               304
    Algorithm:                 Core
    Schwarz Cutoff:           1E-12
    Mask sparsity (%):       0.0000
    Fitting Condition:        1E-10

   => Auxiliary Basis Set <=

  Basis Set: (CC-PVTZ AUX)
    Blend: CC-PVTZ-JKFIT
    Number of shells: 50
    Number of basis functions: 158
    Number of Cartesian functions: 192
    Spherical Harmonics?: true
    Max angular momentum: 4

  Cached 100.0% of DFT collocation blocks in 0.069 [GiB].

  Minimum eigenvalue in the overlap matrix is 2.5428321302E-02.
  Reciprocal condition number of the overlap matrix is 9.5839696020E-03.
    Using symmetric orthogonalization.

  ==> Pre-Iterations <==

  SCF Guess: Orbitals guess was supplied from a previous computation.

   -------------------------------------------------------
    Irrep   Nso     Nmo     Nalpha   Nbeta   Ndocc  Nsocc
   -------------------------------------------------------
     Ag        13      13       3       3       3       0
     B1g        3       3       0       0       0       0
     B2g        7       7       1       0       0       1
     B3g        7       7       0       0       0       0
     Au         3       3       0       0       0       0
     B1u       13      13       2       2       2       0
     B2u        7       7       1       1       1       0
     B3u        7       7       1       1       1       0
   -------------------------------------------------------
    Total      60      60       8       7       7       1
   -------------------------------------------------------

  ==> Iterations <==

                           Total Energy        Delta E     RMS |[F,P]|

   @DF-UKS iter   0:  -109.17770181115105   -1.09178e+02   1.08344e-03 
   @DF-UKS iter   1:  -109.17977283617331   -2.07103e-03   6.58044e-04 DIIS/ADIIS
   @DF-UKS iter   2:  -109.17981784318417   -4.50070e-05   5.53182e-04 DIIS/ADIIS/DAMP=1%
   @DF-UKS iter   3:  -109.17953369692580    2.84146e-04   4.87529e-05 DIIS/DAMP=1%
   @DF-UKS iter   4:  -109.17992139747011   -3.87701e-04   8.71682e-06 DIIS/DAMP=1%
   @DF-UKS iter   5:  -109.17989228902925    2.91084e-05   3.03844e-07 DIIS/DAMP=1%
   @DF-UKS iter   6:  -109.17989807989106   -5.79086e-06   8.97869e-08 DIIS/DAMP=1%
   @DF-UKS iter   7:  -109.17989813070952   -5.08185e-08   1.60159e-08 DIIS/DAMP=1%
   @DF-UKS iter   8:  -109.17989814333718   -1.26277e-08   1.42154e-09 DIIS/DAMP=1%
   @DF-UKS iter   9:  -109.17989814059587    2.74132e-09   2.09967e-10 DIIS/DAMP=1%
  Energy and wave function converged.


  ==> Post-Iterations <==

   Electrons on quadrature grid:
      Nalpha   =    8.0000006166 ; deviation = 6.166e-07
      Nbeta    =    7.0000002482 ; deviation = 2.482e-07
      Ntotal   =   15.0000008648 ; deviation = 8.648e-07 

   @Spin Contamination Metric:   6.391997650E-03
   @S^2 Expected:                7.500000000E-01
   @S^2 Observed:                7.563919976E-01
   @S   Expected:                5.000000000E-01
   @S   Observed:                5.000000000E-01

    Orbital Energies [Eh]
    ---------------------

    Alpha Occupied:                                                       

       1Ag   -14.126263     1B1u  -14.126231     2Ag    -0.468068  
       2B1u   -0.406938     1B3u   -0.030230     3Ag    -0.019886  
       1B2u    0.009230     1B2g    0.009889  

    Alpha Virtual:                                                        

       1B3g    0.098164     3B1u    0.169661     4B1u    0.672090  
       2B3u    0.678548     2B2u    0.688866     4Ag     0.731334  
       2B2g    0.751189     2B3g    0.760677     5Ag     0.832165  
       5B1u    1.053230     3B2u    1.189328     3B3u    1.189809  
       6Ag     1.257945     1B1g    1.275978     7Ag     1.277380  
       1Au     1.338196     6B1u    1.339462     3B2g    1.530352  
       3B3g    1.531961     7B1u    1.969089     4B3u    3.063515  
       4B2u    3.076681     8Ag     3.082912     4B2g    3.102019  
       4B3g    3.115255     8B1u    3.176958     9Ag     4.061885  
       5B3u    4.082392     5B2u    4.082550     2B1g    4.140940  
      10Ag     4.142279     6B3u    4.151869     6B2u    4.152109  
       5B2g    4.153824     5B3g    4.154077     2Au     4.170090  
       9B1u    4.171438     6B2g    4.227619     6B3g    4.228278  
      10B1u    4.306860     7B3u    4.626167     7B2u    4.636338  
       3B1g    4.658840    11Ag     4.661733     3Au     4.705176  
      11B1u    4.708218    12Ag     4.749286     7B2g    4.889936  
       7B3g    4.899165    12B1u    5.241254    13Ag     5.560731  
      13B1u    6.175577  

    Beta Occupied:                                                        

       1Ag   -14.115214     1B1u  -14.115171     2Ag    -0.436565  
       2B1u   -0.370547     3Ag    -0.010491     1B2u    0.019110  
       1B3u    0.050501  

    Beta Virtual:                                                         

       1B3g    0.109596     1B2g    0.143658     3B1u    0.182686  
       4B1u    0.679199     2B2u    0.694249     2B3u    0.715819  
       4Ag     0.741918     2B3g    0.765949     2B2g    0.785442  
       5Ag     0.838915     5B1u    1.065774     3B2u    1.190668  
       3B3u    1.208522     6Ag     1.264064     1B1g    1.298358  
       7Ag     1.301518     1Au     1.362742     6B1u    1.362951  
       3B3g    1.534544     3B2g    1.555143     7B1u    1.980249  
       4B2u    3.085118     8Ag     3.089981     4B3u    3.115324  
       4B3g    3.123756     4B2g    3.153963     8B1u    3.186239  
       9Ag     4.073437     5B2u    4.085087     5B3u    4.109716  
       2B1g    4.163370    10Ag     4.166461     6B2u    4.184983  
       5B3g    4.185065     6B3u    4.185212     5B2g    4.185529  
       9B1u    4.191281     2Au     4.192738     6B3g    4.233148  
       6B2g    4.257476    10B1u    4.322223     7B2u    4.641796  
       7B3u    4.671140    11Ag     4.701467     3B1g    4.705096  
      11B1u    4.750987     3Au     4.751183    12Ag     4.766866  
       7B3g    4.904096     7B2g    4.933072    12B1u    5.251450  
      13Ag     5.583598    13B1u    6.199375  

    Final Occupation by Irrep:
             Ag   B1g   B2g   B3g    Au   B1u   B2u   B3u 
    DOCC [     3,    0,    0,    0,    0,    2,    1,    1 ]
    SOCC [     0,    0,    1,    0,    0,    0,    0,    0 ]
    NA   [     3,    0,    1,    0,    0,    2,    1,    1 ]
    NB   [     3,    0,    0,    0,    0,    2,    1,    1 ]

  @DF-UKS Final Energy:  -109.17989814059587

   => Energetics <=

    Nuclear Repulsion Energy =             11.9444400890477418
    One-Electron Energy =                -176.1726648231548324
    Two-Electron Energy =                  66.0624029602790444
    DFT Exchange-Correlation Energy =     -11.0140763667678119
    Empirical Dispersion Energy =           0.0000000000000000
    VV10 Nonlocal Energy =                  0.0000000000000000
    Total Energy =                       -109.1798981405958671

  UHF NO Occupations:
  HONO-2 :    2B1u 1.9997341
  HONO-1 :    1B3u 1.9973980
  HONO-0 :    1B2g 1.0000000
  LUNO+0 :    2B3u 0.0026020
  LUNO+1 :    3B1u 0.0002659
  LUNO+2 :    4 Ag 0.0002169
  LUNO+3 :    2B2u 0.0000687


Computation Completed


Properties will be evaluated at   0.000000,   0.000000,   0.000000 [a0]

Properties computed using the SCF density matrix


 Multipole Moments:

 ------------------------------------------------------------------------------------
     Multipole            Electronic (a.u.)      Nuclear  (a.u.)        Total (a.u.)
 ------------------------------------------------------------------------------------

 L = 1.  Multiply by 2.5417464519 to convert [e a0] to [Debye]
 Dipole X            :          0.0000000            0.0000000            0.0000000
 Dipole Y            :          0.0000000            0.0000000            0.0000000
 Dipole Z            :          0.0000000            0.0000000            0.0000000
 Magnitude           :                                                    0.0000000

 ------------------------------------------------------------------------------------

*** tstop() called on Mac.lan at Wed Aug 27 00:41:40 2025
Module time:
	user time   =      64.43 seconds =       1.07 minutes
	system time =       2.45 seconds =       0.04 minutes
	total time  =          6 seconds =       0.10 minutes
Total time:
	user time   =      64.43 seconds =       1.07 minutes
	system time =       2.45 seconds =       0.04 minutes
	total time  =          6 seconds =       0.10 minutes

*** tstart() called on Mac.lan
*** at Wed Aug 27 00:41:40 2025

   => Libint2 <=

    Primary   basis highest AM E, G, H:  6, 6, 3
    Auxiliary basis highest AM E, G, H:  7, 7, 4
    Onebody   basis highest AM E, G, H:  -, -, -
    Solid Harmonics ordering:            Gaussian
   => Loading Basis Set <=

    Name: CC-PVTZ
    Role: ORBITAL
    Keyword: BASIS
    atoms 1-2 entry N          line   224 file /Users/joseantoniorodriguesromero/anaconda3/share/psi4/basis/cc-pvtz.gbs 


         ---------------------------------------------------------
                                   SCF
               by Justin Turney, Rob Parrish, Andy Simmonett
                          and Daniel G. A. Smith
                              UKS Reference
                        1 Threads,    500 MiB Core
         ---------------------------------------------------------

  ==> Geometry <==

    Molecular point group: d2h
    Full point group: D_inf_h

    Geometry (in Angstrom), charge = -1, multiplicity = 2:

       Center              X                  Y                   Z               Mass       
    ------------   -----------------  -----------------  -----------------  -----------------
         N            0.000000000000     0.000000000000    -1.085429000000    14.003074004430
         N            0.000000000000     0.000000000000     1.085429000000    14.003074004430

  Running in d2h symmetry.

  Rotational constants: A = ************  B =      0.51091  C =      0.51091 [cm^-1]
  Rotational constants: A = ************  B =  15316.55089  C =  15316.55089 [MHz]
  Nuclear repulsion =   11.944440089047742

  Charge       = -1
  Multiplicity = 2
  Electrons    = 15
  Nalpha       = 8
  Nbeta        = 7

  ==> Algorithm <==

  SCF Algorithm Type is DF.
  DIIS enabled.
  MOM disabled.
  Fractional occupation disabled.
  Guess Type is READ.
  Energy threshold   = 1.00e-08
  Density threshold  = 1.00e-08
  Integral threshold = 1.00e-12

  ==> Primary Basis <==

  Basis Set: CC-PVTZ
    Blend: CC-PVTZ
    Number of shells: 20
    Number of basis functions: 60
    Number of Cartesian functions: 70
    Spherical Harmonics?: true
    Max angular momentum: 3

  ==> DFT Potential <==

   => LibXC <=

    Version 6.2.2
    S. Lehtola, C. Steigemann, M. J.T. Oliveira, and M. A.L. Marques.,  SoftwareX 7, 1–5 (2018) (10.1016/j.softx.2017.11.002)

   => Composite Functional: B3LYP <= 

    B3LYP Hyb-GGA Exchange-Correlation Functional

    P. J. Stephens, F. J. Devlin, C. F. Chabalowski, and M. J. Frisch.,  J. Phys. Chem. 98, 11623 (1994) (10.1021/j100096a001)

    Deriv               =              1
    GGA                 =           TRUE
    Meta                =          FALSE

    Exchange Hybrid     =           TRUE
    MP2 Hybrid          =          FALSE

   => Exchange Functionals <=

    0.0800   Slater exchange
    0.7200         Becke 88

   => Exact (HF) Exchange <=

    0.2000               HF 

   => Correlation Functionals <=

    0.1900   Vosko, Wilk & Nusair (VWN5_RPA)
    0.8100   Lee, Yang & Parr

   => LibXC Density Thresholds  <==

    XC_HYB_GGA_XC_B3LYP:  1.00E-15 

   => Molecular Quadrature <=

    Radial Scheme          =       TREUTLER
    Pruning Scheme         =           NONE
    Nuclear Scheme         =       TREUTLER

    Blocking Scheme        =         OCTREE
    BS radius alpha        =              1
    Pruning alpha          =              1
    Radial Points          =             75
    Spherical Points       =            302
    Total Points           =          42558
    Total Blocks           =            372
    Max Points             =            255
    Max Functions          =             60
    Weights Tolerance      =       1.00E-15

   => Loading Basis Set <=

    Name: (CC-PVTZ AUX)
    Role: JKFIT
    Keyword: DF_BASIS_SCF
    atoms 1-2 entry N          line   177 file /Users/joseantoniorodriguesromero/anaconda3/share/psi4/basis/cc-pvtz-jkfit.gbs 

   => Loading Basis Set <=

    Name: CC-PVTZ
    Role: ORBITAL
    Keyword: BASIS
    atoms 1-2 entry N          line   224 file /Users/joseantoniorodriguesromero/anaconda3/share/psi4/basis/cc-pvtz.gbs 

  Reading orbitals from file /tmp/scan_NN_45.default.65589.180.npy, no projection.

  ==> Integral Setup <==

  DFHelper Memory: AOs need 0.005 GiB; user supplied 0.297 GiB. 
  Using in-core AOs.

  ==> MemDFJK: Density-Fitted J/K Matrices <==

    J tasked:                   Yes
    K tasked:                   Yes
    wK tasked:                   No
    OpenMP threads:               1
    Memory [MiB]:               304
    Algorithm:                 Core
    Schwarz Cutoff:           1E-12
    Mask sparsity (%):       0.0000
    Fitting Condition:        1E-10

   => Auxiliary Basis Set <=

  Basis Set: (CC-PVTZ AUX)
    Blend: CC-PVTZ-JKFIT
    Number of shells: 50
    Number of basis functions: 158
    Number of Cartesian functions: 192
    Spherical Harmonics?: true
    Max angular momentum: 4

  Cached 100.0% of DFT collocation blocks in 0.069 [GiB].

  Minimum eigenvalue in the overlap matrix is 2.5428321302E-02.
  Reciprocal condition number of the overlap matrix is 9.5839696020E-03.
    Using symmetric orthogonalization.

  ==> Pre-Iterations <==

  SCF Guess: Orbitals guess was supplied from a previous computation.

   -------------------------------------------------------
    Irrep   Nso     Nmo     Nalpha   Nbeta   Ndocc  Nsocc
   -------------------------------------------------------
     Ag        13      13       3       3       3       0
     B1g        3       3       0       0       0       0
     B2g        7       7       1       0       0       1
     B3g        7       7       0       0       0       0
     Au         3       3       0       0       0       0
     B1u       13      13       2       2       2       0
     B2u        7       7       1       1       1       0
     B3u        7       7       1       1       1       0
   -------------------------------------------------------
    Total      60      60       8       7       7       1
   -------------------------------------------------------

  ==> Iterations <==

                           Total Energy        Delta E     RMS |[F,P]|

   @DF-UKS iter   0:  -109.17989814030193   -1.09180e+02   2.59331e-11 
   @DF-UKS iter   1:  -109.17989814030194   -1.42109e-14   2.17397e-11 DIIS
  Energy and wave function converged.


  ==> Post-Iterations <==

   Electrons on quadrature grid:
      Nalpha   =    8.0000006166 ; deviation = 6.166e-07
      Nbeta    =    7.0000002482 ; deviation = 2.482e-07
      Ntotal   =   15.0000008648 ; deviation = 8.648e-07 

   @Spin Contamination Metric:   6.391997680E-03
   @S^2 Expected:                7.500000000E-01
   @S^2 Observed:                7.563919977E-01
   @S   Expected:                5.000000000E-01
   @S   Observed:                5.000000000E-01

    Orbital Energies [Eh]
    ---------------------

    Alpha Occupied:                                                       

       1Ag   -14.126263     1B1u  -14.126231     2Ag    -0.468068  
       2B1u   -0.406938     1B3u   -0.030230     3Ag    -0.019886  
       1B2u    0.009230     1B2g    0.009889  

    Alpha Virtual:                                                        

       1B3g    0.098164     3B1u    0.169661     4B1u    0.672090  
       2B3u    0.678548     2B2u    0.688866     4Ag     0.731334  
       2B2g    0.751189     2B3g    0.760677     5Ag     0.832165  
       5B1u    1.053230     3B2u    1.189328     3B3u    1.189809  
       6Ag     1.257945     1B1g    1.275978     7Ag     1.277380  
       1Au     1.338196     6B1u    1.339462     3B2g    1.530352  
       3B3g    1.531961     7B1u    1.969089     4B3u    3.063515  
       4B2u    3.076681     8Ag     3.082912     4B2g    3.102019  
       4B3g    3.115255     8B1u    3.176958     9Ag     4.061885  
       5B3u    4.082392     5B2u    4.082550     2B1g    4.140940  
      10Ag     4.142279     6B3u    4.151869     6B2u    4.152109  
       5B2g    4.153824     5B3g    4.154077     2Au     4.170090  
       9B1u    4.171438     6B2g    4.227619     6B3g    4.228278  
      10B1u    4.306860     7B3u    4.626167     7B2u    4.636338  
       3B1g    4.658840    11Ag     4.661733     3Au     4.705176  
      11B1u    4.708218    12Ag     4.749286     7B2g    4.889936  
       7B3g    4.899165    12B1u    5.241254    13Ag     5.560731  
      13B1u    6.175577  

    Beta Occupied:                                                        

       1Ag   -14.115214     1B1u  -14.115171     2Ag    -0.436565  
       2B1u   -0.370547     3Ag    -0.010491     1B2u    0.019110  
       1B3u    0.050501  

    Beta Virtual:                                                         

       1B3g    0.109596     1B2g    0.143658     3B1u    0.182686  
       4B1u    0.679199     2B2u    0.694249     2B3u    0.715819  
       4Ag     0.741918     2B3g    0.765949     2B2g    0.785442  
       5Ag     0.838915     5B1u    1.065774     3B2u    1.190668  
       3B3u    1.208522     6Ag     1.264064     1B1g    1.298358  
       7Ag     1.301518     1Au     1.362742     6B1u    1.362951  
       3B3g    1.534544     3B2g    1.555143     7B1u    1.980249  
       4B2u    3.085118     8Ag     3.089981     4B3u    3.115324  
       4B3g    3.123756     4B2g    3.153963     8B1u    3.186239  
       9Ag     4.073437     5B2u    4.085087     5B3u    4.109716  
       2B1g    4.163370    10Ag     4.166461     6B2u    4.184983  
       5B3g    4.185065     6B3u    4.185212     5B2g    4.185529  
       9B1u    4.191281     2Au     4.192738     6B3g    4.233148  
       6B2g    4.257476    10B1u    4.322223     7B2u    4.641796  
       7B3u    4.671140    11Ag     4.701467     3B1g    4.705096  
      11B1u    4.750987     3Au     4.751183    12Ag     4.766866  
       7B3g    4.904096     7B2g    4.933072    12B1u    5.251450  
      13Ag     5.583598    13B1u    6.199375  

    Final Occupation by Irrep:
             Ag   B1g   B2g   B3g    Au   B1u   B2u   B3u 
    DOCC [     3,    0,    0,    0,    0,    2,    1,    1 ]
    SOCC [     0,    0,    1,    0,    0,    0,    0,    0 ]
    NA   [     3,    0,    1,    0,    0,    2,    1,    1 ]
    NB   [     3,    0,    0,    0,    0,    2,    1,    1 ]

  @DF-UKS Final Energy:  -109.17989814030194

   => Energetics <=

    Nuclear Repulsion Energy =             11.9444400890477418
    One-Electron Energy =                -176.1726648414832539
    Two-Electron Energy =                  66.0624029812150724
    DFT Exchange-Correlation Energy =     -11.0140763690814918
    Empirical Dispersion Energy =           0.0000000000000000
    VV10 Nonlocal Energy =                  0.0000000000000000
    Total Energy =                       -109.1798981403019440

  UHF NO Occupations:
  HONO-2 :    2B1u 1.9997341
  HONO-1 :    1B3u 1.9973980
  HONO-0 :    1B2g 1.0000000
  LUNO+0 :    2B3u 0.0026020
  LUNO+1 :    3B1u 0.0002659
  LUNO+2 :    4 Ag 0.0002169
  LUNO+3 :    2B2u 0.0000687


Computation Completed


Properties will be evaluated at   0.000000,   0.000000,   0.000000 [a0]

Properties computed using the B3LYP density matrix


 Multipole Moments:

 ------------------------------------------------------------------------------------
     Multipole            Electronic (a.u.)      Nuclear  (a.u.)        Total (a.u.)
 ------------------------------------------------------------------------------------

 L = 1.  Multiply by 2.5417464519 to convert [e a0] to [Debye]
 Dipole X            :          0.0000000            0.0000000            0.0000000
 Dipole Y            :          0.0000000            0.0000000            0.0000000
 Dipole Z            :          0.0000000            0.0000000            0.0000000
 Magnitude           :                                                    0.0000000

 L = 2.  Multiply by 1.3450342976 to convert [e a0^2] to [Debye ang]
 Quadrupole XX       :        -11.2008380            0.0000000          -11.2008380
 Quadrupole XY       :          0.0000000            0.0000000            0.0000000
 Quadrupole XZ       :          0.0000000            0.0000000            0.0000000
 Quadrupole YY       :        -10.1976869            0.0000000          -10.1976869
 Quadrupole YZ       :          0.0000000            0.0000000            0.0000000
 Quadrupole ZZ       :        -73.3023856           58.9018061          -14.4005795
 Traceless XX        :         20.3661322          -19.6339354            0.7321968
 Traceless YY        :         21.3692833          -19.6339354            1.7353479
 Traceless ZZ        :        -41.7354154           39.2678707           -2.4675447

 ------------------------------------------------------------------------------------
  ==> Computing MBIS Charges <==

  Electron Count from Grid (Expected Number): 15.00000 (15.00000)
  Difference:  0.00000

  MBIS Charges: (a.u.)
   Center  Symbol  Z      Pop.       Charge
      1       N    7    7.500000   -0.500000
      2       N    7    7.500000   -0.500000

  MBIS Dipoles: [e a0]
   Center  Symbol  Z        X           Y           Z
      1       N    7    0.000000   -0.000000   -0.038926
      2       N    7    0.000000   -0.000000    0.038926

  MBIS Quadrupoles: [e a0^2]
   Center  Symbol  Z      XX        XY        XZ        YY        YZ        ZZ
      1       N    7   -5.6004   -0.0000   -0.0000   -5.0988    0.0000   -5.2563
      2       N    7   -5.6004   -0.0000    0.0000   -5.0988   -0.0000   -5.2563

  MBIS Octupoles: [e a0^3]
   Center  Symbol  Z      XXX       XXY       XXZ       XYY       XYZ       XZZ       YYY       YYZ       YZZ       ZZZ
      1       N    7   -0.0000   -0.0000   -0.2182   -0.0000    0.0000    0.0000   -0.0000   -0.3222    0.0000   -0.7764
      2       N    7   -0.0000    0.0000    0.2182   -0.0000   -0.0000    0.0000   -0.0000    0.3222   -0.0000    0.7764

  MBIS Radial Moments:
   Center  Symbol  Z      [a0^2]      [a0^3]      [a0^4]      
      1       N    7   15.955600   37.033365   101.586467
      2       N    7   15.955600   37.033365   101.586467

  MBIS Valence Widths: [a0]
   Center  Symbol  Z     Width
      1       N    7    0.481168
      2       N    7    0.481168

*** tstop() called on Mac.lan at Wed Aug 27 00:41:43 2025
Module time:
	user time   =      27.27 seconds =       0.45 minutes
	system time =       2.25 seconds =       0.04 minutes
	total time  =          3 seconds =       0.05 minutes
Total time:
	user time   =      91.82 seconds =       1.53 minutes
	system time =       4.79 seconds =       0.08 minutes
	total time  =          9 seconds =       0.15 minutes

    Psi4 stopped on: Wednesday, 27 August 2025 12:41AM
    Psi4 wall time for execution: 0:00:09.68

*** Psi4 exiting successfully. Buy a developer a beer!
