
    -----------------------------------------------------------------------
          Psi4: An Open-Source Ab Initio Electronic Structure Package
                               Psi4 1.10 release

                         Git: Rev {} zzzzzzz 


    D. G. A. Smith, L. A. Burns, A. C. Simmonett, R. M. Parrish,
    M. C. Schieber, R. Galvelis, P. Kraus, H. Kruse, R. Di Remigio,
    A. Alenaizan, A. M. James, S. Lehtola, J. P. Misiewicz, M. Scheurer,
    R. A. Shaw, J. B. Schriber, Y. Xie, Z. L. Glick, D. A. Sirianni,
    J. S. O'Brien, J. M. Waldrop, A. Kumar, E. G. Hohenstein,
    B. P. Pritchard, B. R. Brooks, H. F. Schaefer III, A. Yu. Sokolov,
    K. Patkowski, A. E. DePrince III, U. Bozkaya, R. A. King,
    F. A. Evangelista, J. M. Turney, T. D. Crawford, C. D. Sherrill,
    J. Chem. Phys. 152(18) 184108 (2020). https://doi.org/10.1063/5.0006002

                            Additional Code Authors
    E. T. Seidl, C. L. Janssen, E. F. Valeev, M. L. Leininger,
    J. F. Gonthier, R. M. Richard, H. R. McAlexander, M. Saitow, X. Wang,
    P. Verma, M. H. Lechner, A. Jiang, S. Behnle, A. G. Heide,
    M. F. Herbst, D. L. Poole, T. Győri, E. C. Mitchell, J. P. Pederson,
    and A. M. Wallace

             Previous Authors, Complete List of Code Contributors,
                       and Citations for Specific Modules
    https://github.com/psi4/psi4/blob/master/codemeta.json
    https://github.com/psi4/psi4/graphs/contributors
    https://psicode.org/psi4manual/master/introduction.html#citing-psifour

    -----------------------------------------------------------------------


    Psi4 started on: Tuesday, 23 December 2025 01:39PM

    Process ID: 504876
    Host:       cics-quant-001
    PSIDATADIR: /home/jrodriguesro/psi4conda/share/psi4
    Memory:     500.0 MiB
    Threads:    6
    Addons:     adcc, a̶m̶b̶i̶t̶, b̶s̶e̶, c̶c̶t̶3̶, c̶f̶o̶u̶r̶, c̶h̶e̶m̶p̶s̶2̶, c̶p̶p̶e̶, ddx, dftd3, dftd4,
                dkh, ecpint, einsums, f̶o̶r̶t̶e̶, g̶a̶u̶x̶c̶, gcp, g̶d̶m̶a̶, geometric,
                g̶p̶u̶_̶d̶f̶c̶c̶, i̶n̶t̶e̶g̶r̶a̶t̶o̶r̶x̶x̶, i̶p̶i̶, libefp, m̶d̶i̶, m̶p̶2̶d̶,
                m̶r̶c̶c̶, ooo, o̶p̶e̶n̶f̶e̶r̶m̶i̶o̶n̶p̶s̶i̶4̶, pcmsolver, p̶s̶i̶4̶f̶o̶c̶k̶c̶i̶,
                p̶s̶i̶x̶a̶s̶, r̶e̶s̶p̶, s̶i̶m̶i̶n̶t̶, s̶n̶s̶m̶p̶2̶, v̶2̶r̶d̶m̶_̶c̶a̶s̶s̶c̶f̶

  ==> Input File <==

--------------------------------------------------------------------------
memory 8 Gb

molecule { 
-1 2
N           0.000000           0.000000           0.000000
N           0.000000           0.000000           1.840985
}

set { 
basis              cc-pvtz
reference          uks
maxiter            500
DAMPING_PERCENTAGE 1
E_CONVERGENCE      1.0E-8
D_CONVERGENCE      1.0E-8
DIIS_MAX_VECS      400
MBIS_MAXITER       8000
guess              read
}

E, wfn = energy('b3lyp', restart_file='last_wfn', return_wfn=True)
properties('b3lyp','MBIS_CHARGES', wfn=wfn)
wfn.to_file('last_wfn')
--------------------------------------------------------------------------

  Memory set to   7.451 GiB by Python driver.

Scratch directory: /tmp/
 Found user provided orbital data. Setting orbital guess to READ 
 Copying restart file <last_wfn.npy> to </tmp/scan_NN_37.default.504876.180.npy> for internal processing
   => Libint2 <=

    Primary   basis highest AM E, G, H:  6, 6, 3
    Auxiliary basis highest AM E, G, H:  7, 7, 4
    Onebody   basis highest AM E, G, H:  -, -, -
    Solid Harmonics ordering:            Gaussian

*** tstart() called on cics-quant-001
*** at Tue Dec 23 13:39:04 2025

   => Loading Basis Set <=

    Name: CC-PVTZ
    Role: ORBITAL
    Keyword: BASIS
    atoms 1-2 entry N          line   224 file /home/jrodriguesro/psi4conda/share/psi4/basis/cc-pvtz.gbs 


         ---------------------------------------------------------
                                   SCF
               by Justin Turney, Rob Parrish, Andy Simmonett
                          and Daniel G. A. Smith
                              UKS Reference
                        6 Threads,   7629 MiB Core
         ---------------------------------------------------------

  ==> Geometry <==

    Molecular point group: d2h
    Full point group: D_inf_h

    Geometry (in Angstrom), charge = -1, multiplicity = 2:

       Center              X                  Y                   Z               Mass       
    ------------   -----------------  -----------------  -----------------  -----------------
         N            0.000000000000     0.000000000000    -0.920492500000    14.003074004430
         N            0.000000000000     0.000000000000     0.920492500000    14.003074004430

  Running in d2h symmetry.

  Rotational constants: A = ************  B =      0.71040  C =      0.71040 [cm^-1]
  Rotational constants: A = ************  B =  21297.23932  C =  21297.23932 [MHz]
  Nuclear repulsion =   14.084679300934006

  Charge       = -1
  Multiplicity = 2
  Electrons    = 15
  Nalpha       = 8
  Nbeta        = 7

  ==> Algorithm <==

  SCF Algorithm Type is DF.
  DIIS enabled.
  MOM disabled.
  Fractional occupation disabled.
  Guess Type is READ.
  Energy threshold   = 1.00e-08
  Density threshold  = 1.00e-08
  Integral threshold = 1.00e-12

  ==> Primary Basis <==

  Basis Set: CC-PVTZ
    Blend: CC-PVTZ
    Number of shells: 20
    Number of basis functions: 60
    Number of Cartesian functions: 70
    Spherical Harmonics?: true
    Max angular momentum: 3

  ==> DFT Potential <==

   => LibXC <=

    Version 7.0.0
    S. Lehtola, C. Steigemann, M. J.T. Oliveira, and M. A.L. Marques.,  SoftwareX 7, 1–5 (2018) (10.1016/j.softx.2017.11.002)

   => Composite Functional: B3LYP <= 

    B3LYP Hyb-GGA Exchange-Correlation Functional

    P. J. Stephens, F. J. Devlin, C. F. Chabalowski, and M. J. Frisch.,  J. Phys. Chem. 98, 11623 (1994) (10.1021/j100096a001)

    Deriv               =              1
    GGA                 =           TRUE
    Meta                =          FALSE

    Exchange Hybrid     =           TRUE
    MP2 Hybrid          =          FALSE

   => Exchange Functionals <=

    0.0800   Slater exchange
    0.7200         Becke 88

   => Exact (HF) Exchange <=

    0.2000               HF 

   => Correlation Functionals <=

    0.1900   Vosko, Wilk & Nusair (VWN5_RPA)
    0.8100   Lee, Yang & Parr

   => LibXC Density Thresholds  <==

    XC_HYB_GGA_XC_B3LYP:  1.00E-15 

   => Molecular Quadrature <=

    Radial Scheme          =       TREUTLER
    Pruning Scheme         =           NONE
    Nuclear Scheme         =       TREUTLER

    Blocking Scheme        =         OCTREE
    BS radius alpha        =              1
    Pruning alpha          =              1
    Radial Points          =             75
    Spherical Points       =            302
    Total Points           =          42538
    Total Blocks           =            384
    Max Points             =            248
    Max Functions          =             60
    Weights Tolerance      =       1.00E-15

   => Loading Basis Set <=

    Name: (CC-PVTZ AUX)
    Role: JKFIT
    Keyword: DF_BASIS_SCF
    atoms 1-2 entry N          line   177 file /home/jrodriguesro/psi4conda/share/psi4/basis/cc-pvtz-jkfit.gbs 

   => Loading Basis Set <=

    Name: CC-PVTZ
    Role: ORBITAL
    Keyword: BASIS
    atoms 1-2 entry N          line   224 file /home/jrodriguesro/psi4conda/share/psi4/basis/cc-pvtz.gbs 

  Reading orbitals from file /tmp/scan_NN_37.default.504876.180.npy, no projection.

  ==> Integral Setup <==

  DFHelper Memory: AOs need 0.005 GiB; user supplied 5.518 GiB. 
  SCF_SUBTYPE=INCORE selected. In-core MEM_DF algorithm will be used.
  Using in-core AOs.

  ==> MemDFJK: Density-Fitted J/K Matrices <==

    J tasked:                   Yes
    K tasked:                   Yes
    wK tasked:                   No
    OpenMP threads:               6
    Memory [MiB]:              5650
    Algorithm:                 Core
    Schwarz Cutoff:           1E-12
    Mask sparsity (%):       0.0000
    Fitting Condition:        1E-10

   => Auxiliary Basis Set <=

  Basis Set: (CC-PVTZ AUX)
    Blend: CC-PVTZ-JKFIT
    Number of shells: 50
    Number of basis functions: 158
    Number of Cartesian functions: 192
    Spherical Harmonics?: true
    Max angular momentum: 4

  Cached 100.0% of DFT collocation blocks in 0.070 [GiB].

  Minimum eigenvalue in the overlap matrix is 1.8173627615E-02.
  Reciprocal condition number of the overlap matrix is 6.2660460700E-03.
    Using symmetric orthogonalization.

  ==> Pre-Iterations <==

  SCF Guess: Orbitals guess was supplied from a previous computation.

   -------------------------------------------------------
    Irrep   Nso     Nmo     Nalpha   Nbeta   Ndocc  Nsocc
   -------------------------------------------------------
     Ag        13      13       3       3       3       0
     B1g        3       3       0       0       0       0
     B2g        7       7       1       0       0       1
     B3g        7       7       0       0       0       0
     Au         3       3       0       0       0       0
     B1u       13      13       2       2       2       0
     B2u        7       7       1       1       1       0
     B3u        7       7       1       1       1       0
   -------------------------------------------------------
    Total      60      60       8       7       7       1
   -------------------------------------------------------

  ==> Iterations <==

                           Total Energy        Delta E     RMS |[F,P]|

   @DF-UKS iter   0:  -109.26507083204636   -1.09265e+02   1.74634e-03 
   @DF-UKS iter   1:  -109.27141199873525   -6.34117e-03   8.69398e-04 DIIS/ADIIS
   @DF-UKS iter   2:  -109.27148516145465   -7.31627e-05   7.23191e-04 DIIS/ADIIS/DAMP=1%
   @DF-UKS iter   3:  -109.27113109508922    3.54066e-04   6.69144e-05 DIIS/DAMP=1%
   @DF-UKS iter   4:  -109.27165634273778   -5.25248e-04   9.24556e-06 DIIS/DAMP=1%
   @DF-UKS iter   5:  -109.27161484898500    4.14938e-05   4.10738e-07 DIIS/DAMP=1%
   @DF-UKS iter   6:  -109.27162166869317   -6.81971e-06   8.57900e-08 DIIS/DAMP=1%
   @DF-UKS iter   7:  -109.27162146821168    2.00481e-07   1.42019e-08 DIIS/DAMP=1%
   @DF-UKS iter   8:  -109.27162148155981   -1.33481e-08   7.79405e-10 DIIS/DAMP=1%
   @DF-UKS iter   9:  -109.27162148006562    1.49419e-09   1.00182e-10 DIIS/DAMP=1%
  Energy and wave function converged.


  ==> Post-Iterations <==

   Electrons on quadrature grid:
      Nalpha   =    7.9999994373 ; deviation = -5.627e-07
      Nbeta    =    6.9999997875 ; deviation = -2.125e-07
      Ntotal   =   14.9999992248 ; deviation = -7.752e-07 

   @Spin Contamination Metric:   6.050785384E-03
   @S^2 Expected:                7.500000000E-01
   @S^2 Observed:                7.560507854E-01
   @S   Expected:                5.000000000E-01
   @S   Observed:                5.000000000E-01

    Orbital Energies [Eh]
    ---------------------

    Alpha Occupied:                                                       

       1Ag   -14.109650     1B1u  -14.109600     2Ag    -0.492987  
       2B1u   -0.367351     3Ag    -0.035199     1B3u   -0.034959  
       1B2u    0.000451     1B2g    0.041517  

    Alpha Virtual:                                                        

       1B3g    0.133394     3B1u    0.256412     4B1u    0.665813  
       2B3u    0.698814     2B2u    0.708610     4Ag     0.730159  
       2B2g    0.762559     2B3g    0.772633     5Ag     0.833681  
       5B1u    1.109930     3B2u    1.179390     3B3u    1.181158  
       1B1g    1.251477     6Ag     1.252653     1Au     1.387435  
       6B1u    1.388772     7Ag     1.484371     3B2g    1.685586  
       3B3g    1.686694     7B1u    2.037720     8Ag     2.988804  
       4B3u    3.042894     4B2u    3.056407     4B2g    3.138038  
       4B3g    3.151296     8B1u    3.439785     5B2u    3.944162  
       5B3u    3.945040     9Ag     3.978448     2B1g    4.077934  
      10Ag     4.079265     6B3u    4.156672     6B2u    4.156932  
       5B2g    4.174715     5B3g    4.174978     2Au     4.255914  
       9B1u    4.257307     6B2g    4.442690     6B3g    4.445428  
      10B1u    4.606850     3B1g    4.662209    11Ag     4.665421  
       7B3u    4.707286     7B2u    4.716882     3Au     4.753239  
      11B1u    4.756468    12Ag     4.980456     7B2g    5.120373  
       7B3g    5.126528    12B1u    5.707955    13Ag     5.732406  
      13B1u    6.224973  

    Beta Occupied:                                                        

       1Ag   -14.098356     1B1u  -14.098286     2Ag    -0.463358  
       2B1u   -0.330288     3Ag    -0.024840     1B2u    0.010162  
       1B3u    0.041824  

    Beta Virtual:                                                         

       1B3g    0.145268     1B2g    0.179986     3B1u    0.270707  
       4B1u    0.672590     2B2u    0.714081     2B3u    0.736123  
       4Ag     0.739616     2B3g    0.778116     2B2g    0.797867  
       5Ag     0.839784     5B1u    1.123515     3B2u    1.180166  
       3B3u    1.199004     6Ag     1.272450     1B1g    1.272690  
       1Au     1.412947     6B1u    1.413193     7Ag     1.496132  
       3B3g    1.689423     3B2g    1.711233     7B1u    2.047182  
       8Ag     2.995211     4B2u    3.064555     4B3u    3.094326  
       4B3g    3.160210     4B2g    3.191490     8B1u    3.451820  
       5B2u    3.947293     5B3u    3.973054     9Ag     3.991656  
       2B1g    4.099889    10Ag     4.102259     6B2u    4.189850  
       6B3u    4.189908     5B3g    4.207608     5B2g    4.207645  
       9B1u    4.278708     2Au     4.278925     6B3g    4.449725  
       6B2g    4.475659    10B1u    4.620469    11Ag     4.708797  
       3B1g    4.709299     7B2u    4.722185     7B3u    4.751960  
       3Au     4.799614    11B1u    4.800002    12Ag     4.991829  
       7B3g    5.130552     7B2g    5.158911    12B1u    5.719745  
      13Ag     5.757319    13B1u    6.245736  

    Final Occupation by Irrep:
             Ag   B1g   B2g   B3g    Au   B1u   B2u   B3u 
    DOCC [     3,    0,    0,    0,    0,    2,    1,    1 ]
    SOCC [     0,    0,    1,    0,    0,    0,    0,    0 ]
    NA   [     3,    0,    1,    0,    0,    2,    1,    1 ]
    NB   [     3,    0,    0,    0,    0,    2,    1,    1 ]

  @DF-UKS Final Energy:  -109.27162148006562

   => Energetics <=

    Nuclear Repulsion Energy =             14.0846793009340061
    One-Electron Energy =                -180.6787378837093172
    Two-Electron Energy =                  68.3739334184364367
    DFT Exchange-Correlation Energy =     -11.0514963157267339
    Empirical Dispersion Energy =           0.0000000000000000
    VV10 Nonlocal Energy =                  0.0000000000000000
    Total Energy =                       -109.2716214800656189

  UHF NO Occupations:
  HONO-2 :    2B1u 1.9996693
  HONO-1 :    1B3u 1.9976146
  HONO-0 :    1B2g 1.0000000
  LUNO+0 :    2B3u 0.0023854
  LUNO+1 :    3B1u 0.0003307
  LUNO+2 :    4 Ag 0.0002100
  LUNO+3 :    2B2u 0.0000670


Computation Completed


Properties will be evaluated at   0.000000,   0.000000,   0.000000 [a0]

Properties computed using the SCF density matrix


 Multipole Moments:

 ------------------------------------------------------------------------------------
     Multipole            Electronic (a.u.)      Nuclear  (a.u.)        Total (a.u.)
 ------------------------------------------------------------------------------------

 L = 1.  Multiply by 2.5417464519 to convert [e a0] to [Debye]
 Dipole X            :          0.0000000            0.0000000            0.0000000
 Dipole Y            :          0.0000000            0.0000000            0.0000000
 Dipole Z            :          0.0000000            0.0000000            0.0000000
 Magnitude           :                                                    0.0000000

 ------------------------------------------------------------------------------------

*** tstop() called on cics-quant-001 at Tue Dec 23 13:39:04 2025
Module time:
	user time   =       1.38 seconds =       0.02 minutes
	system time =       0.06 seconds =       0.00 minutes
	total time  =          0 seconds =       0.00 minutes
Total time:
	user time   =       1.38 seconds =       0.02 minutes
	system time =       0.06 seconds =       0.00 minutes
	total time  =          0 seconds =       0.00 minutes

*** tstart() called on cics-quant-001
*** at Tue Dec 23 13:39:04 2025

   => Libint2 <=

    Primary   basis highest AM E, G, H:  6, 6, 3
    Auxiliary basis highest AM E, G, H:  7, 7, 4
    Onebody   basis highest AM E, G, H:  -, -, -
    Solid Harmonics ordering:            Gaussian
   => Loading Basis Set <=

    Name: CC-PVTZ
    Role: ORBITAL
    Keyword: BASIS
    atoms 1-2 entry N          line   224 file /home/jrodriguesro/psi4conda/share/psi4/basis/cc-pvtz.gbs 


         ---------------------------------------------------------
                                   SCF
               by Justin Turney, Rob Parrish, Andy Simmonett
                          and Daniel G. A. Smith
                              UKS Reference
                        6 Threads,   7629 MiB Core
         ---------------------------------------------------------

  ==> Geometry <==

    Molecular point group: d2h
    Full point group: D_inf_h

    Geometry (in Angstrom), charge = -1, multiplicity = 2:

       Center              X                  Y                   Z               Mass       
    ------------   -----------------  -----------------  -----------------  -----------------
         N            0.000000000000     0.000000000000    -0.920492500000    14.003074004430
         N            0.000000000000     0.000000000000     0.920492500000    14.003074004430

  Running in d2h symmetry.

  Rotational constants: A = ************  B =      0.71040  C =      0.71040 [cm^-1]
  Rotational constants: A = ************  B =  21297.23932  C =  21297.23932 [MHz]
  Nuclear repulsion =   14.084679300934006

  Charge       = -1
  Multiplicity = 2
  Electrons    = 15
  Nalpha       = 8
  Nbeta        = 7

  ==> Algorithm <==

  SCF Algorithm Type is DF.
  DIIS enabled.
  MOM disabled.
  Fractional occupation disabled.
  Guess Type is READ.
  Energy threshold   = 1.00e-08
  Density threshold  = 1.00e-08
  Integral threshold = 1.00e-12

  ==> Primary Basis <==

  Basis Set: CC-PVTZ
    Blend: CC-PVTZ
    Number of shells: 20
    Number of basis functions: 60
    Number of Cartesian functions: 70
    Spherical Harmonics?: true
    Max angular momentum: 3

  ==> DFT Potential <==

   => LibXC <=

    Version 7.0.0
    S. Lehtola, C. Steigemann, M. J.T. Oliveira, and M. A.L. Marques.,  SoftwareX 7, 1–5 (2018) (10.1016/j.softx.2017.11.002)

   => Composite Functional: B3LYP <= 

    B3LYP Hyb-GGA Exchange-Correlation Functional

    P. J. Stephens, F. J. Devlin, C. F. Chabalowski, and M. J. Frisch.,  J. Phys. Chem. 98, 11623 (1994) (10.1021/j100096a001)

    Deriv               =              1
    GGA                 =           TRUE
    Meta                =          FALSE

    Exchange Hybrid     =           TRUE
    MP2 Hybrid          =          FALSE

   => Exchange Functionals <=

    0.0800   Slater exchange
    0.7200         Becke 88

   => Exact (HF) Exchange <=

    0.2000               HF 

   => Correlation Functionals <=

    0.1900   Vosko, Wilk & Nusair (VWN5_RPA)
    0.8100   Lee, Yang & Parr

   => LibXC Density Thresholds  <==

    XC_HYB_GGA_XC_B3LYP:  1.00E-15 

   => Molecular Quadrature <=

    Radial Scheme          =       TREUTLER
    Pruning Scheme         =           NONE
    Nuclear Scheme         =       TREUTLER

    Blocking Scheme        =         OCTREE
    BS radius alpha        =              1
    Pruning alpha          =              1
    Radial Points          =             75
    Spherical Points       =            302
    Total Points           =          42538
    Total Blocks           =            384
    Max Points             =            248
    Max Functions          =             60
    Weights Tolerance      =       1.00E-15

   => Loading Basis Set <=

    Name: (CC-PVTZ AUX)
    Role: JKFIT
    Keyword: DF_BASIS_SCF
    atoms 1-2 entry N          line   177 file /home/jrodriguesro/psi4conda/share/psi4/basis/cc-pvtz-jkfit.gbs 

   => Loading Basis Set <=

    Name: CC-PVTZ
    Role: ORBITAL
    Keyword: BASIS
    atoms 1-2 entry N          line   224 file /home/jrodriguesro/psi4conda/share/psi4/basis/cc-pvtz.gbs 

  Reading orbitals from file /tmp/scan_NN_37.default.504876.180.npy, no projection.

  ==> Integral Setup <==

  DFHelper Memory: AOs need 0.005 GiB; user supplied 5.518 GiB. 
  SCF_SUBTYPE=INCORE selected. In-core MEM_DF algorithm will be used.
  Using in-core AOs.

  ==> MemDFJK: Density-Fitted J/K Matrices <==

    J tasked:                   Yes
    K tasked:                   Yes
    wK tasked:                   No
    OpenMP threads:               6
    Memory [MiB]:              5650
    Algorithm:                 Core
    Schwarz Cutoff:           1E-12
    Mask sparsity (%):       0.0000
    Fitting Condition:        1E-10

   => Auxiliary Basis Set <=

  Basis Set: (CC-PVTZ AUX)
    Blend: CC-PVTZ-JKFIT
    Number of shells: 50
    Number of basis functions: 158
    Number of Cartesian functions: 192
    Spherical Harmonics?: true
    Max angular momentum: 4

  Cached 100.0% of DFT collocation blocks in 0.070 [GiB].

  Minimum eigenvalue in the overlap matrix is 1.8173627615E-02.
  Reciprocal condition number of the overlap matrix is 6.2660460700E-03.
    Using symmetric orthogonalization.

  ==> Pre-Iterations <==

  SCF Guess: Orbitals guess was supplied from a previous computation.

   -------------------------------------------------------
    Irrep   Nso     Nmo     Nalpha   Nbeta   Ndocc  Nsocc
   -------------------------------------------------------
     Ag        13      13       3       3       3       0
     B1g        3       3       0       0       0       0
     B2g        7       7       1       0       0       1
     B3g        7       7       0       0       0       0
     Au         3       3       0       0       0       0
     B1u       13      13       2       2       2       0
     B2u        7       7       1       1       1       0
     B3u        7       7       1       1       1       0
   -------------------------------------------------------
    Total      60      60       8       7       7       1
   -------------------------------------------------------

  ==> Iterations <==

                           Total Energy        Delta E     RMS |[F,P]|

   @DF-UKS iter   0:  -109.27162147971697   -1.09272e+02   9.52009e-12 
   @DF-UKS iter   1:  -109.27162147971700   -2.84217e-14   6.72871e-12 DIIS
  Energy and wave function converged.


  ==> Post-Iterations <==

   Electrons on quadrature grid:
      Nalpha   =    7.9999994373 ; deviation = -5.627e-07
      Nbeta    =    6.9999997875 ; deviation = -2.125e-07
      Ntotal   =   14.9999992248 ; deviation = -7.752e-07 

   @Spin Contamination Metric:   6.050785404E-03
   @S^2 Expected:                7.500000000E-01
   @S^2 Observed:                7.560507854E-01
   @S   Expected:                5.000000000E-01
   @S   Observed:                5.000000000E-01

    Orbital Energies [Eh]
    ---------------------

    Alpha Occupied:                                                       

       1Ag   -14.109650     1B1u  -14.109600     2Ag    -0.492987  
       2B1u   -0.367351     3Ag    -0.035199     1B3u   -0.034959  
       1B2u    0.000451     1B2g    0.041517  

    Alpha Virtual:                                                        

       1B3g    0.133394     3B1u    0.256412     4B1u    0.665813  
       2B3u    0.698814     2B2u    0.708610     4Ag     0.730159  
       2B2g    0.762559     2B3g    0.772633     5Ag     0.833681  
       5B1u    1.109930     3B2u    1.179390     3B3u    1.181158  
       1B1g    1.251477     6Ag     1.252653     1Au     1.387435  
       6B1u    1.388772     7Ag     1.484371     3B2g    1.685586  
       3B3g    1.686694     7B1u    2.037720     8Ag     2.988804  
       4B3u    3.042894     4B2u    3.056407     4B2g    3.138038  
       4B3g    3.151296     8B1u    3.439785     5B2u    3.944162  
       5B3u    3.945040     9Ag     3.978448     2B1g    4.077934  
      10Ag     4.079265     6B3u    4.156672     6B2u    4.156932  
       5B2g    4.174715     5B3g    4.174978     2Au     4.255914  
       9B1u    4.257307     6B2g    4.442690     6B3g    4.445428  
      10B1u    4.606850     3B1g    4.662209    11Ag     4.665421  
       7B3u    4.707286     7B2u    4.716882     3Au     4.753239  
      11B1u    4.756468    12Ag     4.980456     7B2g    5.120373  
       7B3g    5.126528    12B1u    5.707955    13Ag     5.732406  
      13B1u    6.224973  

    Beta Occupied:                                                        

       1Ag   -14.098356     1B1u  -14.098286     2Ag    -0.463358  
       2B1u   -0.330288     3Ag    -0.024840     1B2u    0.010162  
       1B3u    0.041824  

    Beta Virtual:                                                         

       1B3g    0.145268     1B2g    0.179986     3B1u    0.270707  
       4B1u    0.672590     2B2u    0.714081     2B3u    0.736123  
       4Ag     0.739616     2B3g    0.778116     2B2g    0.797867  
       5Ag     0.839784     5B1u    1.123515     3B2u    1.180166  
       3B3u    1.199004     6Ag     1.272450     1B1g    1.272690  
       1Au     1.412947     6B1u    1.413193     7Ag     1.496132  
       3B3g    1.689423     3B2g    1.711233     7B1u    2.047182  
       8Ag     2.995211     4B2u    3.064555     4B3u    3.094326  
       4B3g    3.160210     4B2g    3.191490     8B1u    3.451820  
       5B2u    3.947293     5B3u    3.973054     9Ag     3.991656  
       2B1g    4.099889    10Ag     4.102259     6B2u    4.189850  
       6B3u    4.189908     5B3g    4.207608     5B2g    4.207645  
       9B1u    4.278708     2Au     4.278925     6B3g    4.449725  
       6B2g    4.475659    10B1u    4.620469    11Ag     4.708797  
       3B1g    4.709299     7B2u    4.722185     7B3u    4.751960  
       3Au     4.799614    11B1u    4.800002    12Ag     4.991829  
       7B3g    5.130552     7B2g    5.158911    12B1u    5.719745  
      13Ag     5.757319    13B1u    6.245736  

    Final Occupation by Irrep:
             Ag   B1g   B2g   B3g    Au   B1u   B2u   B3u 
    DOCC [     3,    0,    0,    0,    0,    2,    1,    1 ]
    SOCC [     0,    0,    1,    0,    0,    0,    0,    0 ]
    NA   [     3,    0,    1,    0,    0,    2,    1,    1 ]
    NB   [     3,    0,    0,    0,    0,    2,    1,    1 ]

  @DF-UKS Final Energy:  -109.27162147971700

   => Energetics <=

    Nuclear Repulsion Energy =             14.0846793009340061
    One-Electron Energy =                -180.6787378927158727
    Two-Electron Energy =                  68.3739334289104335
    DFT Exchange-Correlation Energy =     -11.0514963168455544
    Empirical Dispersion Energy =           0.0000000000000000
    VV10 Nonlocal Energy =                  0.0000000000000000
    Total Energy =                       -109.2716214797169982

  UHF NO Occupations:
  HONO-2 :    2B1u 1.9996693
  HONO-1 :    1B3u 1.9976146
  HONO-0 :    1B2g 1.0000000
  LUNO+0 :    2B3u 0.0023854
  LUNO+1 :    3B1u 0.0003307
  LUNO+2 :    4 Ag 0.0002100
  LUNO+3 :    2B2u 0.0000670


Computation Completed


Properties will be evaluated at   0.000000,   0.000000,   0.000000 [a0]

Properties computed using the B3LYP density matrix


 Multipole Moments:

 ------------------------------------------------------------------------------------
     Multipole            Electronic (a.u.)      Nuclear  (a.u.)        Total (a.u.)
 ------------------------------------------------------------------------------------

 L = 1.  Multiply by 2.5417464519 to convert [e a0] to [Debye]
 Dipole X            :          0.0000000            0.0000000            0.0000000
 Dipole Y            :          0.0000000            0.0000000            0.0000000
 Dipole Z            :          0.0000000            0.0000000            0.0000000
 Magnitude           :                                                    0.0000000

 L = 2.  Multiply by 1.3450342976 to convert [e a0^2] to [Debye ang]
 Quadrupole XX       :        -11.0973845            0.0000000          -11.0973845
 Quadrupole XY       :          0.0000000            0.0000000            0.0000000
 Quadrupole XZ       :          0.0000000            0.0000000            0.0000000
 Quadrupole YY       :        -10.1087043            0.0000000          -10.1087043
 Quadrupole YZ       :          0.0000000            0.0000000            0.0000000
 Quadrupole ZZ       :        -56.0221461           42.3610073          -13.6611387
 Traceless XX        :         14.6453605          -14.1203358            0.5250247
 Traceless YY        :         15.6340406          -14.1203358            1.5137048
 Traceless ZZ        :        -30.2794011           28.2406715           -2.0387296

 ------------------------------------------------------------------------------------
  ==> Computing MBIS Charges <==

  Electron Count from Grid (Expected Number): 15.00000 (15.00000)
  Difference: -0.00000

  MBIS Charges: (a.u.)
   Center  Symbol  Z      Pop.       Charge
      1       N    7    7.500000   -0.500000
      2       N    7    7.500000   -0.500000

  MBIS Dipoles: [e a0]
   Center  Symbol  Z        X           Y           Z
      1       N    7    0.000000   -0.000000    0.021468
      2       N    7    0.000000   -0.000000   -0.021468

  MBIS Quadrupoles: [e a0^2]
   Center  Symbol  Z      XX        XY        XZ        YY        YZ        ZZ
      1       N    7   -5.5487   -0.0000    0.0000   -5.0544    0.0000   -5.2430
      2       N    7   -5.5487   -0.0000   -0.0000   -5.0544   -0.0000   -5.2430

  MBIS Octupoles: [e a0^3]
   Center  Symbol  Z      XXX       XXY       XXZ       XYY       XYZ       XZZ       YYY       YYZ       YZZ       ZZZ
      1       N    7    0.0000    0.0000   -0.1056   -0.0000   -0.0000    0.0000   -0.0000   -0.2442   -0.0000   -0.5575
      2       N    7    0.0000    0.0000    0.1056    0.0000    0.0000    0.0000   -0.0000    0.2442   -0.0000    0.5575

  MBIS Radial Moments:
   Center  Symbol  Z      [a0^2]      [a0^3]      [a0^4]      
      1       N    7   15.846033   36.608567   100.000484
      2       N    7   15.846033   36.608567   100.000484

  MBIS Valence Widths: [a0]
   Center  Symbol  Z     Width
      1       N    7    0.479575
      2       N    7    0.479575


  MBIS Valence Charges: (a.u.)
   Center  Symbol  Z     Charge
      1       N    7   -5.803409
      2       N    7   -5.803409

*** tstop() called on cics-quant-001 at Tue Dec 23 13:39:04 2025
Module time:
	user time   =       0.67 seconds =       0.01 minutes
	system time =       0.04 seconds =       0.00 minutes
	total time  =          0 seconds =       0.00 minutes
Total time:
	user time   =       2.07 seconds =       0.03 minutes
	system time =       0.10 seconds =       0.00 minutes
	total time  =          0 seconds =       0.00 minutes

    Psi4 stopped on: Tuesday, 23 December 2025 01:39PM
    Psi4 wall time for execution: 0:00:00.77

*** Psi4 exiting successfully. Buy a developer a beer!
