
    -----------------------------------------------------------------------
          Psi4: An Open-Source Ab Initio Electronic Structure Package
                               Psi4 1.10 release

                         Git: Rev {} zzzzzzz 


    D. G. A. Smith, L. A. Burns, A. C. Simmonett, R. M. Parrish,
    M. C. Schieber, R. Galvelis, P. Kraus, H. Kruse, R. Di Remigio,
    A. Alenaizan, A. M. James, S. Lehtola, J. P. Misiewicz, M. Scheurer,
    R. A. Shaw, J. B. Schriber, Y. Xie, Z. L. Glick, D. A. Sirianni,
    J. S. O'Brien, J. M. Waldrop, A. Kumar, E. G. Hohenstein,
    B. P. Pritchard, B. R. Brooks, H. F. Schaefer III, A. Yu. Sokolov,
    K. Patkowski, A. E. DePrince III, U. Bozkaya, R. A. King,
    F. A. Evangelista, J. M. Turney, T. D. Crawford, C. D. Sherrill,
    J. Chem. Phys. 152(18) 184108 (2020). https://doi.org/10.1063/5.0006002

                            Additional Code Authors
    E. T. Seidl, C. L. Janssen, E. F. Valeev, M. L. Leininger,
    J. F. Gonthier, R. M. Richard, H. R. McAlexander, M. Saitow, X. Wang,
    P. Verma, M. H. Lechner, A. Jiang, S. Behnle, A. G. Heide,
    M. F. Herbst, D. L. Poole, T. Győri, E. C. Mitchell, J. P. Pederson,
    and A. M. Wallace

             Previous Authors, Complete List of Code Contributors,
                       and Citations for Specific Modules
    https://github.com/psi4/psi4/blob/master/codemeta.json
    https://github.com/psi4/psi4/graphs/contributors
    https://psicode.org/psi4manual/master/introduction.html#citing-psifour

    -----------------------------------------------------------------------


    Psi4 started on: Tuesday, 23 December 2025 01:36PM

    Process ID: 484969
    Host:       cics-quant-001
    PSIDATADIR: /home/jrodriguesro/psi4conda/share/psi4
    Memory:     500.0 MiB
    Threads:    6
    Addons:     adcc, a̶m̶b̶i̶t̶, b̶s̶e̶, c̶c̶t̶3̶, c̶f̶o̶u̶r̶, c̶h̶e̶m̶p̶s̶2̶, c̶p̶p̶e̶, ddx, dftd3, dftd4,
                dkh, ecpint, einsums, f̶o̶r̶t̶e̶, g̶a̶u̶x̶c̶, gcp, g̶d̶m̶a̶, geometric,
                g̶p̶u̶_̶d̶f̶c̶c̶, i̶n̶t̶e̶g̶r̶a̶t̶o̶r̶x̶x̶, i̶p̶i̶, libefp, m̶d̶i̶, m̶p̶2̶d̶,
                m̶r̶c̶c̶, ooo, o̶p̶e̶n̶f̶e̶r̶m̶i̶o̶n̶p̶s̶i̶4̶, pcmsolver, p̶s̶i̶4̶f̶o̶c̶k̶c̶i̶,
                p̶s̶i̶x̶a̶s̶, r̶e̶s̶p̶, s̶i̶m̶i̶n̶t̶, s̶n̶s̶m̶p̶2̶, v̶2̶r̶d̶m̶_̶c̶a̶s̶s̶c̶f̶

  ==> Input File <==

--------------------------------------------------------------------------
memory 8 Gb

molecule { 
-1 2
O           0.000000           0.000000           0.000000
O           0.000000           0.000000           0.640305
}

set { 
basis              cc-pvtz
reference          uks
maxiter            500
DAMPING_PERCENTAGE 1
E_CONVERGENCE      1.0E-8
D_CONVERGENCE      1.0E-8
DIIS_MAX_VECS      400
MBIS_MAXITER       8000
guess              read
}

E, wfn = energy('b3lyp', restart_file='last_wfn', return_wfn=True)
properties('b3lyp','MBIS_CHARGES', wfn=wfn)
wfn.to_file('last_wfn')
--------------------------------------------------------------------------

  Memory set to   7.451 GiB by Python driver.

Scratch directory: /tmp/
 Found user provided orbital data. Setting orbital guess to READ 
 Copying restart file <last_wfn.npy> to </tmp/scan_OO_6.default.484969.180.npy> for internal processing
   => Libint2 <=

    Primary   basis highest AM E, G, H:  6, 6, 3
    Auxiliary basis highest AM E, G, H:  7, 7, 4
    Onebody   basis highest AM E, G, H:  -, -, -
    Solid Harmonics ordering:            Gaussian

*** tstart() called on cics-quant-001
*** at Tue Dec 23 13:36:15 2025

   => Loading Basis Set <=

    Name: CC-PVTZ
    Role: ORBITAL
    Keyword: BASIS
    atoms 1-2 entry O          line   262 file /home/jrodriguesro/psi4conda/share/psi4/basis/cc-pvtz.gbs 


         ---------------------------------------------------------
                                   SCF
               by Justin Turney, Rob Parrish, Andy Simmonett
                          and Daniel G. A. Smith
                              UKS Reference
                        6 Threads,   7629 MiB Core
         ---------------------------------------------------------

  ==> Geometry <==

    Molecular point group: d2h
    Full point group: D_inf_h

    Geometry (in Angstrom), charge = -1, multiplicity = 2:

       Center              X                  Y                   Z               Mass       
    ------------   -----------------  -----------------  -----------------  -----------------
         O            0.000000000000     0.000000000000    -0.320152500000    15.994914619570
         O            0.000000000000     0.000000000000     0.320152500000    15.994914619570

  Running in d2h symmetry.

  Rotational constants: A = ************  B =      5.14127  C =      5.14127 [cm^-1]
  Rotational constants: A = ************  B = 154131.52753  C = 154131.52753 [MHz]
  Nuclear repulsion =   52.892514478069046

  Charge       = -1
  Multiplicity = 2
  Electrons    = 17
  Nalpha       = 9
  Nbeta        = 8

  ==> Algorithm <==

  SCF Algorithm Type is DF.
  DIIS enabled.
  MOM disabled.
  Fractional occupation disabled.
  Guess Type is READ.
  Energy threshold   = 1.00e-08
  Density threshold  = 1.00e-08
  Integral threshold = 1.00e-12

  ==> Primary Basis <==

  Basis Set: CC-PVTZ
    Blend: CC-PVTZ
    Number of shells: 20
    Number of basis functions: 60
    Number of Cartesian functions: 70
    Spherical Harmonics?: true
    Max angular momentum: 3

  ==> DFT Potential <==

   => LibXC <=

    Version 7.0.0
    S. Lehtola, C. Steigemann, M. J.T. Oliveira, and M. A.L. Marques.,  SoftwareX 7, 1–5 (2018) (10.1016/j.softx.2017.11.002)

   => Composite Functional: B3LYP <= 

    B3LYP Hyb-GGA Exchange-Correlation Functional

    P. J. Stephens, F. J. Devlin, C. F. Chabalowski, and M. J. Frisch.,  J. Phys. Chem. 98, 11623 (1994) (10.1021/j100096a001)

    Deriv               =              1
    GGA                 =           TRUE
    Meta                =          FALSE

    Exchange Hybrid     =           TRUE
    MP2 Hybrid          =          FALSE

   => Exchange Functionals <=

    0.0800   Slater exchange
    0.7200         Becke 88

   => Exact (HF) Exchange <=

    0.2000               HF 

   => Correlation Functionals <=

    0.1900   Vosko, Wilk & Nusair (VWN5_RPA)
    0.8100   Lee, Yang & Parr

   => LibXC Density Thresholds  <==

    XC_HYB_GGA_XC_B3LYP:  1.00E-15 

   => Molecular Quadrature <=

    Radial Scheme          =       TREUTLER
    Pruning Scheme         =           NONE
    Nuclear Scheme         =       TREUTLER

    Blocking Scheme        =         OCTREE
    BS radius alpha        =              1
    Pruning alpha          =              1
    Radial Points          =             75
    Spherical Points       =            302
    Total Points           =          42262
    Total Blocks           =            374
    Max Points             =            253
    Max Functions          =             60
    Weights Tolerance      =       1.00E-15

   => Loading Basis Set <=

    Name: (CC-PVTZ AUX)
    Role: JKFIT
    Keyword: DF_BASIS_SCF
    atoms 1-2 entry O          line   229 file /home/jrodriguesro/psi4conda/share/psi4/basis/cc-pvtz-jkfit.gbs 

   => Loading Basis Set <=

    Name: CC-PVTZ
    Role: ORBITAL
    Keyword: BASIS
    atoms 1-2 entry O          line   262 file /home/jrodriguesro/psi4conda/share/psi4/basis/cc-pvtz.gbs 

  Reading orbitals from file /tmp/scan_OO_6.default.484969.180.npy, no projection.

  ==> Integral Setup <==

  DFHelper Memory: AOs need 0.005 GiB; user supplied 5.517 GiB. 
  SCF_SUBTYPE=INCORE selected. In-core MEM_DF algorithm will be used.
  Using in-core AOs.

  ==> MemDFJK: Density-Fitted J/K Matrices <==

    J tasked:                   Yes
    K tasked:                   Yes
    wK tasked:                   No
    OpenMP threads:               6
    Memory [MiB]:              5649
    Algorithm:                 Core
    Schwarz Cutoff:           1E-12
    Mask sparsity (%):       0.0000
    Fitting Condition:        1E-10

   => Auxiliary Basis Set <=

  Basis Set: (CC-PVTZ AUX)
    Blend: CC-PVTZ-JKFIT
    Number of shells: 50
    Number of basis functions: 158
    Number of Cartesian functions: 192
    Spherical Harmonics?: true
    Max angular momentum: 4

  Cached 100.0% of DFT collocation blocks in 0.071 [GiB].

  Minimum eigenvalue in the overlap matrix is 1.3926666994E-03.
  Reciprocal condition number of the overlap matrix is 3.4797360531E-04.
    Using symmetric orthogonalization.

  ==> Pre-Iterations <==

  SCF Guess: Orbitals guess was supplied from a previous computation.

   -------------------------------------------------------
    Irrep   Nso     Nmo     Nalpha   Nbeta   Ndocc  Nsocc
   -------------------------------------------------------
     Ag        13      13       3       3       3       0
     B1g        3       3       0       0       0       0
     B2g        7       7       1       0       0       1
     B3g        7       7       1       1       1       0
     Au         3       3       0       0       0       0
     B1u       13      13       2       2       2       0
     B2u        7       7       1       1       1       0
     B3u        7       7       1       1       1       0
   -------------------------------------------------------
    Total      60      60       9       8       8       1
   -------------------------------------------------------

  ==> Iterations <==

                           Total Energy        Delta E     RMS |[F,P]|

   @DF-UKS iter   0:  -147.75417159662177   -1.47754e+02   3.34507e-02 
   @DF-UKS iter   1:  -147.61429743647670    1.39874e-01   1.05621e-02 ADIIS/DIIS
   @DF-UKS iter   2:  -147.59725009509873    1.70473e-02   1.47729e-02 ADIIS/DIIS/DAMP=1%
   @DF-UKS iter   3:  -147.62054931945551   -2.32992e-02   4.40707e-04 ADIIS/DIIS/DAMP=1%
   @DF-UKS iter   4:  -147.63354113897933   -1.29918e-02   1.13836e-04 ADIIS/DIIS/DAMP=1%
   @DF-UKS iter   5:  -147.63382393117678   -2.82792e-04   1.84705e-05 DIIS/DAMP=1%
   @DF-UKS iter   6:  -147.63388398002374   -6.00488e-05   4.62270e-06 DIIS/DAMP=1%
   @DF-UKS iter   7:  -147.63390962743654   -2.56474e-05   4.46485e-07 DIIS/DAMP=1%
   @DF-UKS iter   8:  -147.63390465688275    4.97055e-06   2.76952e-08 DIIS/DAMP=1%
   @DF-UKS iter   9:  -147.63390499762841   -3.40746e-07   7.31045e-09 DIIS/DAMP=1%
   @DF-UKS iter  10:  -147.63390500249383   -4.86543e-09   4.74384e-10 DIIS/DAMP=1%
  Energy and wave function converged.


  ==> Post-Iterations <==

   Electrons on quadrature grid:
      Nalpha   =    9.0000002748 ; deviation = 2.748e-07
      Nbeta    =    8.0000002684 ; deviation = 2.684e-07
      Ntotal   =   17.0000005432 ; deviation = 5.432e-07 

   @Spin Contamination Metric:   5.187063252E-04
   @S^2 Expected:                7.500000000E-01
   @S^2 Observed:                7.505187063E-01
   @S   Expected:                5.000000000E-01
   @S   Observed:                5.000000000E-01

    Orbital Energies [Eh]
    ---------------------

    Alpha Occupied:                                                       

       1Ag   -18.976083     1B1u  -18.895764     2Ag    -1.512070  
       1B3u   -0.651223     1B2u   -0.618806     3Ag    -0.330487  
       2B1u   -0.285032     1B2g    0.404159     1B3g    0.435082  

    Alpha Virtual:                                                        

       3B1u    0.608523     2B3u    0.659050     2B2u    0.680155  
       4Ag     0.746360     5Ag     1.011401     2B2g    1.019856  
       2B3g    1.044271     1B1g    1.451744     6Ag     1.452182  
       4B1u    1.533196     5B1u    2.092430     3B3u    2.115549  
       3B2u    2.145153     1Au     2.220005     6B1u    2.221319  
       7Ag     2.253662     3B2g    2.584351     3B3g    2.608039  
       4B3u    3.434908     4B2u    3.462596     7B1u    4.375231  
       8Ag     4.511463     4B2g    4.595455     4B3g    4.625777  
       5B3u    4.818218     5B2u    4.818221     2B1g    5.091373  
       8B1u    5.091555     9Ag     5.091817     6B3u    5.808445  
       6B2u    5.835510    10Ag     6.006191     5B2g    6.110432  
       5B3g    6.110453     9B1u    6.160507     2Au     6.160566  
       6B2g    6.300354     6B3g    6.327795    11Ag     6.415259  
       3B1g    6.439868    12Ag     6.440601    10B1u    7.288488  
       7B3u    7.869216     7B2u    7.895964     3Au     8.399253  
      11B1u    8.399428    12B1u   10.827794     7B2g   10.884701  
       7B3g   10.912683    13Ag    12.172810    13B1u   37.119639  

    Beta Occupied:                                                        

       1Ag   -18.968486     1B1u  -18.887948     2Ag    -1.503375  
       1B2u   -0.611955     1B3u   -0.603894     3Ag    -0.307134  
       2B1u   -0.250803     1B3g    0.446164  

    Beta Virtual:                                                         

       1B2g    0.538918     3B1u    0.619335     2B2u    0.684977  
       2B3u    0.685173     4Ag     0.755701     5Ag     1.024449  
       2B3g    1.053123     2B2g    1.078391     1B1g    1.467975  
       6Ag     1.468864     4B1u    1.556369     5B1u    2.110054  
       3B2u    2.150159     3B3u    2.156240     1Au     2.253803  
       6B1u    2.255558     7Ag     2.259850     3B3g    2.613719  
       3B2g    2.623264     4B3u    3.463421     4B2u    3.467607  
       7B1u    4.386981     8Ag     4.523133     4B3g    4.633902  
       4B2g    4.639859     5B2u    4.835428     5B3u    4.835476  
       2B1g    5.104370     9Ag     5.105102     8B1u    5.116332  
       6B2u    5.839793     6B3u    5.843856    10Ag     6.019363  
       5B3g    6.140308     5B2g    6.140395     2Au     6.193494  
       9B1u    6.195084     6B3g    6.331413     6B2g    6.333543  
      11Ag     6.425259     3B1g    6.468730    12Ag     6.470043  
      10B1u    7.301542     7B3u    7.897056     7B2u    7.898939  
       3Au     8.423490    11B1u    8.424496    12B1u   10.836258  
       7B3g   10.918164     7B2g   10.921487    13Ag    12.190723  
      13B1u   37.129806  

    Final Occupation by Irrep:
             Ag   B1g   B2g   B3g    Au   B1u   B2u   B3u 
    DOCC [     3,    0,    0,    1,    0,    2,    1,    1 ]
    SOCC [     0,    0,    1,    0,    0,    0,    0,    0 ]
    NA   [     3,    0,    1,    1,    0,    2,    1,    1 ]
    NB   [     3,    0,    0,    1,    0,    2,    1,    1 ]

  @DF-UKS Final Energy:  -147.63390500249383

   => Energetics <=

    Nuclear Repulsion Energy =             52.8925144780690459
    One-Electron Energy =                -309.2635732323556113
    Two-Electron Energy =                 123.6437640108820801
    DFT Exchange-Correlation Energy =     -14.9066102590893763
    Empirical Dispersion Energy =           0.0000000000000000
    VV10 Nonlocal Energy =                  0.0000000000000000
    Total Energy =                       -147.6339050024938331

  UHF NO Occupations:
  HONO-2 :    1B3u 1.9999321
  HONO-1 :    2B1u 1.9998924
  HONO-0 :    1B2g 1.0000000
  LUNO+0 :    3B1u 0.0001076
  LUNO+1 :    2B3u 0.0000679
  LUNO+2 :    4 Ag 0.0000643
  LUNO+3 :    2B3g 0.0000143


Computation Completed


Properties will be evaluated at   0.000000,   0.000000,   0.000000 [a0]

Properties computed using the SCF density matrix


 Multipole Moments:

 ------------------------------------------------------------------------------------
     Multipole            Electronic (a.u.)      Nuclear  (a.u.)        Total (a.u.)
 ------------------------------------------------------------------------------------

 L = 1.  Multiply by 2.5417464519 to convert [e a0] to [Debye]
 Dipole X            :          0.0000000            0.0000000            0.0000000
 Dipole Y            :          0.0000000            0.0000000            0.0000000
 Dipole Z            :          0.0000000            0.0000000            0.0000000
 Magnitude           :                                                    0.0000000

 ------------------------------------------------------------------------------------

*** tstop() called on cics-quant-001 at Tue Dec 23 13:36:15 2025
Module time:
	user time   =       1.43 seconds =       0.02 minutes
	system time =       0.08 seconds =       0.00 minutes
	total time  =          0 seconds =       0.00 minutes
Total time:
	user time   =       1.43 seconds =       0.02 minutes
	system time =       0.08 seconds =       0.00 minutes
	total time  =          0 seconds =       0.00 minutes

*** tstart() called on cics-quant-001
*** at Tue Dec 23 13:36:15 2025

   => Libint2 <=

    Primary   basis highest AM E, G, H:  6, 6, 3
    Auxiliary basis highest AM E, G, H:  7, 7, 4
    Onebody   basis highest AM E, G, H:  -, -, -
    Solid Harmonics ordering:            Gaussian
   => Loading Basis Set <=

    Name: CC-PVTZ
    Role: ORBITAL
    Keyword: BASIS
    atoms 1-2 entry O          line   262 file /home/jrodriguesro/psi4conda/share/psi4/basis/cc-pvtz.gbs 


         ---------------------------------------------------------
                                   SCF
               by Justin Turney, Rob Parrish, Andy Simmonett
                          and Daniel G. A. Smith
                              UKS Reference
                        6 Threads,   7629 MiB Core
         ---------------------------------------------------------

  ==> Geometry <==

    Molecular point group: d2h
    Full point group: D_inf_h

    Geometry (in Angstrom), charge = -1, multiplicity = 2:

       Center              X                  Y                   Z               Mass       
    ------------   -----------------  -----------------  -----------------  -----------------
         O            0.000000000000     0.000000000000    -0.320152500000    15.994914619570
         O            0.000000000000     0.000000000000     0.320152500000    15.994914619570

  Running in d2h symmetry.

  Rotational constants: A = ************  B =      5.14127  C =      5.14127 [cm^-1]
  Rotational constants: A = ************  B = 154131.52753  C = 154131.52753 [MHz]
  Nuclear repulsion =   52.892514478069046

  Charge       = -1
  Multiplicity = 2
  Electrons    = 17
  Nalpha       = 9
  Nbeta        = 8

  ==> Algorithm <==

  SCF Algorithm Type is DF.
  DIIS enabled.
  MOM disabled.
  Fractional occupation disabled.
  Guess Type is READ.
  Energy threshold   = 1.00e-08
  Density threshold  = 1.00e-08
  Integral threshold = 1.00e-12

  ==> Primary Basis <==

  Basis Set: CC-PVTZ
    Blend: CC-PVTZ
    Number of shells: 20
    Number of basis functions: 60
    Number of Cartesian functions: 70
    Spherical Harmonics?: true
    Max angular momentum: 3

  ==> DFT Potential <==

   => LibXC <=

    Version 7.0.0
    S. Lehtola, C. Steigemann, M. J.T. Oliveira, and M. A.L. Marques.,  SoftwareX 7, 1–5 (2018) (10.1016/j.softx.2017.11.002)

   => Composite Functional: B3LYP <= 

    B3LYP Hyb-GGA Exchange-Correlation Functional

    P. J. Stephens, F. J. Devlin, C. F. Chabalowski, and M. J. Frisch.,  J. Phys. Chem. 98, 11623 (1994) (10.1021/j100096a001)

    Deriv               =              1
    GGA                 =           TRUE
    Meta                =          FALSE

    Exchange Hybrid     =           TRUE
    MP2 Hybrid          =          FALSE

   => Exchange Functionals <=

    0.0800   Slater exchange
    0.7200         Becke 88

   => Exact (HF) Exchange <=

    0.2000               HF 

   => Correlation Functionals <=

    0.1900   Vosko, Wilk & Nusair (VWN5_RPA)
    0.8100   Lee, Yang & Parr

   => LibXC Density Thresholds  <==

    XC_HYB_GGA_XC_B3LYP:  1.00E-15 

   => Molecular Quadrature <=

    Radial Scheme          =       TREUTLER
    Pruning Scheme         =           NONE
    Nuclear Scheme         =       TREUTLER

    Blocking Scheme        =         OCTREE
    BS radius alpha        =              1
    Pruning alpha          =              1
    Radial Points          =             75
    Spherical Points       =            302
    Total Points           =          42262
    Total Blocks           =            374
    Max Points             =            253
    Max Functions          =             60
    Weights Tolerance      =       1.00E-15

   => Loading Basis Set <=

    Name: (CC-PVTZ AUX)
    Role: JKFIT
    Keyword: DF_BASIS_SCF
    atoms 1-2 entry O          line   229 file /home/jrodriguesro/psi4conda/share/psi4/basis/cc-pvtz-jkfit.gbs 

   => Loading Basis Set <=

    Name: CC-PVTZ
    Role: ORBITAL
    Keyword: BASIS
    atoms 1-2 entry O          line   262 file /home/jrodriguesro/psi4conda/share/psi4/basis/cc-pvtz.gbs 

  Reading orbitals from file /tmp/scan_OO_6.default.484969.180.npy, no projection.

  ==> Integral Setup <==

  DFHelper Memory: AOs need 0.005 GiB; user supplied 5.517 GiB. 
  SCF_SUBTYPE=INCORE selected. In-core MEM_DF algorithm will be used.
  Using in-core AOs.

  ==> MemDFJK: Density-Fitted J/K Matrices <==

    J tasked:                   Yes
    K tasked:                   Yes
    wK tasked:                   No
    OpenMP threads:               6
    Memory [MiB]:              5649
    Algorithm:                 Core
    Schwarz Cutoff:           1E-12
    Mask sparsity (%):       0.0000
    Fitting Condition:        1E-10

   => Auxiliary Basis Set <=

  Basis Set: (CC-PVTZ AUX)
    Blend: CC-PVTZ-JKFIT
    Number of shells: 50
    Number of basis functions: 158
    Number of Cartesian functions: 192
    Spherical Harmonics?: true
    Max angular momentum: 4

  Cached 100.0% of DFT collocation blocks in 0.071 [GiB].

  Minimum eigenvalue in the overlap matrix is 1.3926666994E-03.
  Reciprocal condition number of the overlap matrix is 3.4797360531E-04.
    Using symmetric orthogonalization.

  ==> Pre-Iterations <==

  SCF Guess: Orbitals guess was supplied from a previous computation.

   -------------------------------------------------------
    Irrep   Nso     Nmo     Nalpha   Nbeta   Ndocc  Nsocc
   -------------------------------------------------------
     Ag        13      13       3       3       3       0
     B1g        3       3       0       0       0       0
     B2g        7       7       1       0       0       1
     B3g        7       7       1       1       1       0
     Au         3       3       0       0       0       0
     B1u       13      13       2       2       2       0
     B2u        7       7       1       1       1       0
     B3u        7       7       1       1       1       0
   -------------------------------------------------------
    Total      60      60       9       8       8       1
   -------------------------------------------------------

  ==> Iterations <==

                           Total Energy        Delta E     RMS |[F,P]|

   @DF-UKS iter   0:  -147.63390500929214   -1.47634e+02   4.84632e-11 
   @DF-UKS iter   1:  -147.63390500929236   -2.27374e-13   6.91077e-11 DIIS
  Energy and wave function converged.


  ==> Post-Iterations <==

   Electrons on quadrature grid:
      Nalpha   =    9.0000002748 ; deviation = 2.748e-07
      Nbeta    =    8.0000002684 ; deviation = 2.684e-07
      Ntotal   =   17.0000005432 ; deviation = 5.432e-07 

   @Spin Contamination Metric:   5.187063270E-04
   @S^2 Expected:                7.500000000E-01
   @S^2 Observed:                7.505187063E-01
   @S   Expected:                5.000000000E-01
   @S   Observed:                5.000000000E-01

    Orbital Energies [Eh]
    ---------------------

    Alpha Occupied:                                                       

       1Ag   -18.976083     1B1u  -18.895764     2Ag    -1.512070  
       1B3u   -0.651223     1B2u   -0.618806     3Ag    -0.330487  
       2B1u   -0.285032     1B2g    0.404159     1B3g    0.435082  

    Alpha Virtual:                                                        

       3B1u    0.608523     2B3u    0.659050     2B2u    0.680155  
       4Ag     0.746360     5Ag     1.011401     2B2g    1.019856  
       2B3g    1.044271     1B1g    1.451744     6Ag     1.452182  
       4B1u    1.533196     5B1u    2.092430     3B3u    2.115549  
       3B2u    2.145153     1Au     2.220005     6B1u    2.221319  
       7Ag     2.253662     3B2g    2.584351     3B3g    2.608039  
       4B3u    3.434908     4B2u    3.462596     7B1u    4.375231  
       8Ag     4.511463     4B2g    4.595455     4B3g    4.625777  
       5B3u    4.818218     5B2u    4.818221     2B1g    5.091373  
       8B1u    5.091555     9Ag     5.091817     6B3u    5.808445  
       6B2u    5.835510    10Ag     6.006191     5B2g    6.110432  
       5B3g    6.110453     9B1u    6.160507     2Au     6.160566  
       6B2g    6.300354     6B3g    6.327795    11Ag     6.415259  
       3B1g    6.439868    12Ag     6.440601    10B1u    7.288488  
       7B3u    7.869216     7B2u    7.895964     3Au     8.399253  
      11B1u    8.399428    12B1u   10.827794     7B2g   10.884701  
       7B3g   10.912683    13Ag    12.172810    13B1u   37.119639  

    Beta Occupied:                                                        

       1Ag   -18.968486     1B1u  -18.887948     2Ag    -1.503375  
       1B2u   -0.611955     1B3u   -0.603894     3Ag    -0.307134  
       2B1u   -0.250803     1B3g    0.446164  

    Beta Virtual:                                                         

       1B2g    0.538918     3B1u    0.619335     2B2u    0.684977  
       2B3u    0.685173     4Ag     0.755701     5Ag     1.024449  
       2B3g    1.053123     2B2g    1.078391     1B1g    1.467975  
       6Ag     1.468864     4B1u    1.556369     5B1u    2.110054  
       3B2u    2.150159     3B3u    2.156240     1Au     2.253803  
       6B1u    2.255558     7Ag     2.259850     3B3g    2.613719  
       3B2g    2.623264     4B3u    3.463421     4B2u    3.467607  
       7B1u    4.386981     8Ag     4.523133     4B3g    4.633902  
       4B2g    4.639859     5B2u    4.835428     5B3u    4.835476  
       2B1g    5.104370     9Ag     5.105102     8B1u    5.116332  
       6B2u    5.839793     6B3u    5.843856    10Ag     6.019363  
       5B3g    6.140308     5B2g    6.140395     2Au     6.193494  
       9B1u    6.195084     6B3g    6.331413     6B2g    6.333543  
      11Ag     6.425259     3B1g    6.468730    12Ag     6.470043  
      10B1u    7.301542     7B3u    7.897056     7B2u    7.898939  
       3Au     8.423490    11B1u    8.424496    12B1u   10.836258  
       7B3g   10.918164     7B2g   10.921487    13Ag    12.190723  
      13B1u   37.129806  

    Final Occupation by Irrep:
             Ag   B1g   B2g   B3g    Au   B1u   B2u   B3u 
    DOCC [     3,    0,    0,    1,    0,    2,    1,    1 ]
    SOCC [     0,    0,    1,    0,    0,    0,    0,    0 ]
    NA   [     3,    0,    1,    1,    0,    2,    1,    1 ]
    NB   [     3,    0,    0,    1,    0,    2,    1,    1 ]

  @DF-UKS Final Energy:  -147.63390500929236

   => Energetics <=

    Nuclear Repulsion Energy =             52.8925144780690459
    One-Electron Energy =                -309.2635731686476674
    Two-Electron Energy =                 123.6437639349908295
    DFT Exchange-Correlation Energy =     -14.9066102537046046
    Empirical Dispersion Energy =           0.0000000000000000
    VV10 Nonlocal Energy =                  0.0000000000000000
    Total Energy =                       -147.6339050092923628

  UHF NO Occupations:
  HONO-2 :    1B3u 1.9999321
  HONO-1 :    2B1u 1.9998924
  HONO-0 :    1B2g 1.0000000
  LUNO+0 :    3B1u 0.0001076
  LUNO+1 :    2B3u 0.0000679
  LUNO+2 :    4 Ag 0.0000643
  LUNO+3 :    2B3g 0.0000143


Computation Completed


Properties will be evaluated at   0.000000,   0.000000,   0.000000 [a0]

Properties computed using the B3LYP density matrix


 Multipole Moments:

 ------------------------------------------------------------------------------------
     Multipole            Electronic (a.u.)      Nuclear  (a.u.)        Total (a.u.)
 ------------------------------------------------------------------------------------

 L = 1.  Multiply by 2.5417464519 to convert [e a0] to [Debye]
 Dipole X            :          0.0000000            0.0000000            0.0000000
 Dipole Y            :          0.0000000            0.0000000            0.0000000
 Dipole Z            :          0.0000000            0.0000000            0.0000000
 Magnitude           :                                                    0.0000000

 L = 2.  Multiply by 1.3450342976 to convert [e a0^2] to [Debye ang]
 Quadrupole XX       :         -8.2065783            0.0000000           -8.2065783
 Quadrupole XY       :          0.0000000            0.0000000            0.0000000
 Quadrupole XZ       :          0.0000000            0.0000000            0.0000000
 Quadrupole YY       :         -9.6518842            0.0000000           -9.6518842
 Quadrupole YZ       :          0.0000000            0.0000000            0.0000000
 Quadrupole ZZ       :        -17.8748514            5.8564105          -12.0184409
 Traceless XX        :          3.7045264           -1.9521368            1.7523895
 Traceless YY        :          2.2592204           -1.9521368            0.3070836
 Traceless ZZ        :         -5.9637468            3.9042737           -2.0594731

 ------------------------------------------------------------------------------------
  ==> Computing MBIS Charges <==

  Electron Count from Grid (Expected Number): 17.00000 (17.00000)
  Difference: -0.00000

  MBIS Charges: (a.u.)
   Center  Symbol  Z      Pop.       Charge
      1       O    8    8.500000   -0.500000
      2       O    8    8.500000   -0.500000

  MBIS Dipoles: [e a0]
   Center  Symbol  Z        X           Y           Z
      1       O    8   -0.000000   -0.000000    0.413474
      2       O    8    0.000000    0.000000   -0.413474

  MBIS Quadrupoles: [e a0^2]
   Center  Symbol  Z      XX        XY        XZ        YY        YZ        ZZ
      1       O    8   -4.1033    0.0000   -0.0000   -4.8259   -0.0000   -5.3259
      2       O    8   -4.1033   -0.0000   -0.0000   -4.8259   -0.0000   -5.3259

  MBIS Octupoles: [e a0^3]
   Center  Symbol  Z      XXX       XXY       XXZ       XYY       XYZ       XZZ       YYY       YYZ       YZZ       ZZZ
      1       O    8   -0.0000   -0.0000    0.9065   -0.0000   -0.0000   -0.0000    0.0000    1.2953    0.0000    0.6146
      2       O    8   -0.0000   -0.0000   -0.9065   -0.0000    0.0000   -0.0000    0.0000   -1.2953    0.0000   -0.6146

  MBIS Radial Moments:
   Center  Symbol  Z      [a0^2]      [a0^3]      [a0^4]      
      1       O    8   14.255135   31.126884   82.158617
      2       O    8   14.255135   31.126884   82.158617

  MBIS Valence Widths: [a0]
   Center  Symbol  Z     Width
      1       O    8    0.411088
      2       O    8    0.411088


  MBIS Valence Charges: (a.u.)
   Center  Symbol  Z     Charge
      1       O    8   -6.739877
      2       O    8   -6.739877

*** tstop() called on cics-quant-001 at Tue Dec 23 13:36:16 2025
Module time:
	user time   =       0.66 seconds =       0.01 minutes
	system time =       0.05 seconds =       0.00 minutes
	total time  =          1 seconds =       0.02 minutes
Total time:
	user time   =       2.11 seconds =       0.04 minutes
	system time =       0.13 seconds =       0.00 minutes
	total time  =          1 seconds =       0.02 minutes

    Psi4 stopped on: Tuesday, 23 December 2025 01:36PM
    Psi4 wall time for execution: 0:00:00.86

*** Psi4 exiting successfully. Buy a developer a beer!
