
    -----------------------------------------------------------------------
          Psi4: An Open-Source Ab Initio Electronic Structure Package
                               Psi4 1.9.1 release

                         Git: Rev {} zzzzzzz 


    D. G. A. Smith, L. A. Burns, A. C. Simmonett, R. M. Parrish,
    M. C. Schieber, R. Galvelis, P. Kraus, H. Kruse, R. Di Remigio,
    A. Alenaizan, A. M. James, S. Lehtola, J. P. Misiewicz, M. Scheurer,
    R. A. Shaw, J. B. Schriber, Y. Xie, Z. L. Glick, D. A. Sirianni,
    J. S. O'Brien, J. M. Waldrop, A. Kumar, E. G. Hohenstein,
    B. P. Pritchard, B. R. Brooks, H. F. Schaefer III, A. Yu. Sokolov,
    K. Patkowski, A. E. DePrince III, U. Bozkaya, R. A. King,
    F. A. Evangelista, J. M. Turney, T. D. Crawford, C. D. Sherrill,
    J. Chem. Phys. 152(18) 184108 (2020). https://doi.org/10.1063/5.0006002

                            Additional Code Authors
    E. T. Seidl, C. L. Janssen, E. F. Valeev, M. L. Leininger,
    J. F. Gonthier, R. M. Richard, H. R. McAlexander, M. Saitow, X. Wang,
    P. Verma, M. H. Lechner, A. Jiang, S. Behnle, A. G. Heide,
    M. F. Herbst, and D. L. Poole

             Previous Authors, Complete List of Code Contributors,
                       and Citations for Specific Modules
    https://github.com/psi4/psi4/blob/master/codemeta.json
    https://github.com/psi4/psi4/graphs/contributors
    http://psicode.org/psi4manual/master/introduction.html#citing-psifour

    -----------------------------------------------------------------------


    Psi4 started on: Wednesday, 27 August 2025 12:16AM

    Process ID: 64686
    Host:       Mac.lan
    PSIDATADIR: /Users/joseantoniorodriguesromero/anaconda3/share/psi4
    Memory:     500.0 MiB
    Threads:    1
    
  ==> Input File <==

--------------------------------------------------------------------------
molecule { 
-1 2
H           0.000000           0.000000           0.000000
H           0.000000           0.000000           1.237316
}

set { 
basis              cc-pvtz
reference          uks
maxiter            500
DAMPING_PERCENTAGE 1
E_CONVERGENCE      1.0E-8
D_CONVERGENCE      1.0E-8
DIIS_MAX_VECS      400
MBIS_MAXITER       8000
guess              read
}

E, wfn = energy('b3lyp', restart_file='last_wfn', return_wfn=True)
properties('b3lyp','MBIS_CHARGES', wfn=wfn)
wfn.to_file('last_wfn')
--------------------------------------------------------------------------

Scratch directory: /tmp/
 Found user provided orbital data. Setting orbital guess to READ 
 Copying restart file <last_wfn.npy> to </tmp/scan_HH_23.default.64686.180.npy> for internal processing
   => Libint2 <=

    Primary   basis highest AM E, G, H:  6, 6, 3
    Auxiliary basis highest AM E, G, H:  7, 7, 4
    Onebody   basis highest AM E, G, H:  -, -, -
    Solid Harmonics ordering:            Gaussian

*** tstart() called on Mac.lan
*** at Wed Aug 27 00:16:31 2025

   => Loading Basis Set <=

    Name: CC-PVTZ
    Role: ORBITAL
    Keyword: BASIS
    atoms 1-2 entry H          line    23 file /Users/joseantoniorodriguesromero/anaconda3/share/psi4/basis/cc-pvtz.gbs 


         ---------------------------------------------------------
                                   SCF
               by Justin Turney, Rob Parrish, Andy Simmonett
                          and Daniel G. A. Smith
                              UKS Reference
                        1 Threads,    500 MiB Core
         ---------------------------------------------------------

  ==> Geometry <==

    Molecular point group: d2h
    Full point group: D_inf_h

    Geometry (in Angstrom), charge = -1, multiplicity = 2:

       Center              X                  Y                   Z               Mass       
    ------------   -----------------  -----------------  -----------------  -----------------
         H            0.000000000000     0.000000000000    -0.618658000000     1.007825032230
         H            0.000000000000     0.000000000000     0.618658000000     1.007825032230

  Running in d2h symmetry.

  Rotational constants: A = ************  B =     21.85144  C =     21.85144 [cm^-1]
  Rotational constants: A = ************  B = 655089.73771  C = 655089.73771 [MHz]
  Nuclear repulsion =    0.427681538644938

  Charge       = -1
  Multiplicity = 2
  Electrons    = 3
  Nalpha       = 2
  Nbeta        = 1

  ==> Algorithm <==

  SCF Algorithm Type is DF.
  DIIS enabled.
  MOM disabled.
  Fractional occupation disabled.
  Guess Type is READ.
  Energy threshold   = 1.00e-08
  Density threshold  = 1.00e-08
  Integral threshold = 1.00e-12

  ==> Primary Basis <==

  Basis Set: CC-PVTZ
    Blend: CC-PVTZ
    Number of shells: 12
    Number of basis functions: 28
    Number of Cartesian functions: 30
    Spherical Harmonics?: true
    Max angular momentum: 2

  ==> DFT Potential <==

   => LibXC <=

    Version 6.2.2
    S. Lehtola, C. Steigemann, M. J.T. Oliveira, and M. A.L. Marques.,  SoftwareX 7, 1–5 (2018) (10.1016/j.softx.2017.11.002)

   => Composite Functional: B3LYP <= 

    B3LYP Hyb-GGA Exchange-Correlation Functional

    P. J. Stephens, F. J. Devlin, C. F. Chabalowski, and M. J. Frisch.,  J. Phys. Chem. 98, 11623 (1994) (10.1021/j100096a001)

    Deriv               =              1
    GGA                 =           TRUE
    Meta                =          FALSE

    Exchange Hybrid     =           TRUE
    MP2 Hybrid          =          FALSE

   => Exchange Functionals <=

    0.0800   Slater exchange
    0.7200         Becke 88

   => Exact (HF) Exchange <=

    0.2000               HF 

   => Correlation Functionals <=

    0.1900   Vosko, Wilk & Nusair (VWN5_RPA)
    0.8100   Lee, Yang & Parr

   => LibXC Density Thresholds  <==

    XC_HYB_GGA_XC_B3LYP:  1.00E-15 

   => Molecular Quadrature <=

    Radial Scheme          =       TREUTLER
    Pruning Scheme         =           NONE
    Nuclear Scheme         =       TREUTLER

    Blocking Scheme        =         OCTREE
    BS radius alpha        =              1
    Pruning alpha          =              1
    Radial Points          =             75
    Spherical Points       =            302
    Total Points           =          44656
    Total Blocks           =            388
    Max Points             =            253
    Max Functions          =             28
    Weights Tolerance      =       1.00E-15

   => Loading Basis Set <=

    Name: (CC-PVTZ AUX)
    Role: JKFIT
    Keyword: DF_BASIS_SCF
    atoms 1-2 entry H          line    51 file /Users/joseantoniorodriguesromero/anaconda3/share/psi4/basis/cc-pvtz-jkfit.gbs 

   => Loading Basis Set <=

    Name: CC-PVTZ
    Role: ORBITAL
    Keyword: BASIS
    atoms 1-2 entry H          line    23 file /Users/joseantoniorodriguesromero/anaconda3/share/psi4/basis/cc-pvtz.gbs 

  Reading orbitals from file /tmp/scan_HH_23.default.64686.180.npy, no projection.

  ==> Integral Setup <==

  DFHelper Memory: AOs need 0.001 GiB; user supplied 0.330 GiB. 
  Using in-core AOs.

  ==> MemDFJK: Density-Fitted J/K Matrices <==

    J tasked:                   Yes
    K tasked:                   Yes
    wK tasked:                   No
    OpenMP threads:               1
    Memory [MiB]:               337
    Algorithm:                 Core
    Schwarz Cutoff:           1E-12
    Mask sparsity (%):       0.0000
    Fitting Condition:        1E-10

   => Auxiliary Basis Set <=

  Basis Set: (CC-PVTZ AUX)
    Blend: CC-PVTZ-JKFIT
    Number of shells: 20
    Number of basis functions: 60
    Number of Cartesian functions: 70
    Spherical Harmonics?: true
    Max angular momentum: 3

  Cached 100.0% of DFT collocation blocks in 0.037 [GiB].

  Minimum eigenvalue in the overlap matrix is 3.8385623630E-02.
  Reciprocal condition number of the overlap matrix is 1.2643891667E-02.
    Using symmetric orthogonalization.

  ==> Pre-Iterations <==

  SCF Guess: Orbitals guess was supplied from a previous computation.

   -------------------------------------------------------
    Irrep   Nso     Nmo     Nalpha   Nbeta   Ndocc  Nsocc
   -------------------------------------------------------
     Ag         7       7       1       1       1       0
     B1g        1       1       0       0       0       0
     B2g        3       3       0       0       0       0
     B3g        3       3       0       0       0       0
     Au         1       1       0       0       0       0
     B1u        7       7       1       0       0       1
     B2u        3       3       0       0       0       0
     B3u        3       3       0       0       0       0
   -------------------------------------------------------
    Total      28      28       2       1       1       1
   -------------------------------------------------------

  ==> Iterations <==

                           Total Energy        Delta E     RMS |[F,P]|

   @DF-UKS iter   0:    -1.06621324286984   -1.06621e+00   1.17132e-03 
   @DF-UKS iter   1:    -1.05804697006312    8.16627e-03   2.20191e-04 DIIS/ADIIS
   @DF-UKS iter   2:    -1.05805823558996   -1.12655e-05   8.71531e-05 DIIS/DAMP=1%
   @DF-UKS iter   3:    -1.05805378961978    4.44597e-06   1.96973e-05 DIIS/DAMP=1%
   @DF-UKS iter   4:    -1.05806057807705   -6.78846e-06   3.48857e-06 DIIS/DAMP=1%
   @DF-UKS iter   5:    -1.05805961905954    9.59018e-07   2.78868e-07 DIIS/DAMP=1%
   @DF-UKS iter   6:    -1.05805960914981    9.90973e-09   2.16461e-08 DIIS/DAMP=1%
   @DF-UKS iter   7:    -1.05805959360747    1.55423e-08   4.26006e-09 DIIS/DAMP=1%
   @DF-UKS iter   8:    -1.05805959541231   -1.80484e-09   3.58062e-10 DIIS/DAMP=1%
  Energy and wave function converged.


  ==> Post-Iterations <==

   Electrons on quadrature grid:
      Nalpha   =    2.0000000053 ; deviation = 5.256e-09
      Nbeta    =    1.0000000029 ; deviation = 2.869e-09
      Ntotal   =    3.0000000081 ; deviation = 8.125e-09 

   @Spin Contamination Metric:   1.961906940E-03
   @S^2 Expected:                7.500000000E-01
   @S^2 Observed:                7.519619069E-01
   @S   Expected:                5.000000000E-01
   @S   Observed:                5.000000000E-01

    Orbital Energies [Eh]
    ---------------------

    Alpha Occupied:                                                       

       1Ag    -0.059756     1B1u    0.155868  

    Alpha Virtual:                                                        

       2Ag     0.476976     2B1u    0.575942     1B2u    0.795960  
       1B3u    0.795960     3Ag     1.017658     1B3g    1.101105  
       1B2g    1.101105     3B1u    1.508694     4Ag     2.569156  
       4B1u    2.703530     2B2u    3.164347     2B3u    3.164347  
       5Ag     3.222881     6Ag     3.356590     1B1g    3.356590  
       5B1u    3.686490     1Au     3.686490     3B3u    3.906054  
       3B2u    3.906054     2B3g    3.972539     2B2g    3.972539  
       6B1u    4.090909     3B2g    4.434356     3B3g    4.434356  
       7Ag     4.577405     7B1u    5.708817  

    Beta Occupied:                                                        

       1Ag    -0.015724  

    Beta Virtual:                                                         

       1B1u    0.258988     2Ag     0.496062     2B1u    0.626288  
       1B2u    0.814826     1B3u    0.814826     3Ag     1.060333  
       1B3g    1.141122     1B2g    1.141122     3B1u    1.551668  
       4Ag     2.619427     4B1u    2.755820     2B2u    3.188371  
       2B3u    3.188371     5Ag     3.247933     1B1g    3.387755  
       6Ag     3.387755     1Au     3.722598     5B1u    3.722598  
       3B3u    3.954857     3B2u    3.954857     2B2g    4.019039  
       2B3g    4.019039     6B1u    4.147804     3B2g    4.473545  
       3B3g    4.473545     7Ag     4.626933     7B1u    5.742510  

    Final Occupation by Irrep:
             Ag   B1g   B2g   B3g    Au   B1u   B2u   B3u 
    DOCC [     1,    0,    0,    0,    0,    0,    0,    0 ]
    SOCC [     0,    0,    0,    0,    0,    1,    0,    0 ]
    NA   [     1,    0,    0,    0,    0,    1,    0,    0 ]
    NB   [     1,    0,    0,    0,    0,    0,    0,    0 ]

  @DF-UKS Final Energy:    -1.05805959541231

   => Energetics <=

    Nuclear Repulsion Energy =              0.4276815386449379
    One-Electron Energy =                  -2.5601709285094429
    Two-Electron Energy =                   1.7525120627144559
    DFT Exchange-Correlation Energy =      -0.6780822682622656
    Empirical Dispersion Energy =           0.0000000000000000
    VV10 Nonlocal Energy =                  0.0000000000000000
    Total Energy =                         -1.0580595954123149

  UHF NO Occupations:
  HONO-1 :    1 Ag 1.9990186
  HONO-0 :    1B1u 1.0000000
  LUNO+0 :    2 Ag 0.0009814
  LUNO+1 :    3 Ag 0.0000000
  LUNO+2 :    4 Ag 0.0000000
  LUNO+3 :    2B1u 0.0000000


Computation Completed


Properties will be evaluated at   0.000000,   0.000000,   0.000000 [a0]

Properties computed using the SCF density matrix


 Multipole Moments:

 ------------------------------------------------------------------------------------
     Multipole            Electronic (a.u.)      Nuclear  (a.u.)        Total (a.u.)
 ------------------------------------------------------------------------------------

 L = 1.  Multiply by 2.5417464519 to convert [e a0] to [Debye]
 Dipole X            :          0.0000000            0.0000000            0.0000000
 Dipole Y            :          0.0000000            0.0000000            0.0000000
 Dipole Z            :          0.0000000            0.0000000            0.0000000
 Magnitude           :                                                    0.0000000

 ------------------------------------------------------------------------------------

*** tstop() called on Mac.lan at Wed Aug 27 00:16:32 2025
Module time:
	user time   =       2.10 seconds =       0.04 minutes
	system time =       1.08 seconds =       0.02 minutes
	total time  =          1 seconds =       0.02 minutes
Total time:
	user time   =       2.10 seconds =       0.04 minutes
	system time =       1.08 seconds =       0.02 minutes
	total time  =          1 seconds =       0.02 minutes

*** tstart() called on Mac.lan
*** at Wed Aug 27 00:16:32 2025

   => Libint2 <=

    Primary   basis highest AM E, G, H:  6, 6, 3
    Auxiliary basis highest AM E, G, H:  7, 7, 4
    Onebody   basis highest AM E, G, H:  -, -, -
    Solid Harmonics ordering:            Gaussian
   => Loading Basis Set <=

    Name: CC-PVTZ
    Role: ORBITAL
    Keyword: BASIS
    atoms 1-2 entry H          line    23 file /Users/joseantoniorodriguesromero/anaconda3/share/psi4/basis/cc-pvtz.gbs 


         ---------------------------------------------------------
                                   SCF
               by Justin Turney, Rob Parrish, Andy Simmonett
                          and Daniel G. A. Smith
                              UKS Reference
                        1 Threads,    500 MiB Core
         ---------------------------------------------------------

  ==> Geometry <==

    Molecular point group: d2h
    Full point group: D_inf_h

    Geometry (in Angstrom), charge = -1, multiplicity = 2:

       Center              X                  Y                   Z               Mass       
    ------------   -----------------  -----------------  -----------------  -----------------
         H            0.000000000000     0.000000000000    -0.618658000000     1.007825032230
         H            0.000000000000     0.000000000000     0.618658000000     1.007825032230

  Running in d2h symmetry.

  Rotational constants: A = ************  B =     21.85144  C =     21.85144 [cm^-1]
  Rotational constants: A = ************  B = 655089.73771  C = 655089.73771 [MHz]
  Nuclear repulsion =    0.427681538644938

  Charge       = -1
  Multiplicity = 2
  Electrons    = 3
  Nalpha       = 2
  Nbeta        = 1

  ==> Algorithm <==

  SCF Algorithm Type is DF.
  DIIS enabled.
  MOM disabled.
  Fractional occupation disabled.
  Guess Type is READ.
  Energy threshold   = 1.00e-08
  Density threshold  = 1.00e-08
  Integral threshold = 1.00e-12

  ==> Primary Basis <==

  Basis Set: CC-PVTZ
    Blend: CC-PVTZ
    Number of shells: 12
    Number of basis functions: 28
    Number of Cartesian functions: 30
    Spherical Harmonics?: true
    Max angular momentum: 2

  ==> DFT Potential <==

   => LibXC <=

    Version 6.2.2
    S. Lehtola, C. Steigemann, M. J.T. Oliveira, and M. A.L. Marques.,  SoftwareX 7, 1–5 (2018) (10.1016/j.softx.2017.11.002)

   => Composite Functional: B3LYP <= 

    B3LYP Hyb-GGA Exchange-Correlation Functional

    P. J. Stephens, F. J. Devlin, C. F. Chabalowski, and M. J. Frisch.,  J. Phys. Chem. 98, 11623 (1994) (10.1021/j100096a001)

    Deriv               =              1
    GGA                 =           TRUE
    Meta                =          FALSE

    Exchange Hybrid     =           TRUE
    MP2 Hybrid          =          FALSE

   => Exchange Functionals <=

    0.0800   Slater exchange
    0.7200         Becke 88

   => Exact (HF) Exchange <=

    0.2000               HF 

   => Correlation Functionals <=

    0.1900   Vosko, Wilk & Nusair (VWN5_RPA)
    0.8100   Lee, Yang & Parr

   => LibXC Density Thresholds  <==

    XC_HYB_GGA_XC_B3LYP:  1.00E-15 

   => Molecular Quadrature <=

    Radial Scheme          =       TREUTLER
    Pruning Scheme         =           NONE
    Nuclear Scheme         =       TREUTLER

    Blocking Scheme        =         OCTREE
    BS radius alpha        =              1
    Pruning alpha          =              1
    Radial Points          =             75
    Spherical Points       =            302
    Total Points           =          44656
    Total Blocks           =            388
    Max Points             =            253
    Max Functions          =             28
    Weights Tolerance      =       1.00E-15

   => Loading Basis Set <=

    Name: (CC-PVTZ AUX)
    Role: JKFIT
    Keyword: DF_BASIS_SCF
    atoms 1-2 entry H          line    51 file /Users/joseantoniorodriguesromero/anaconda3/share/psi4/basis/cc-pvtz-jkfit.gbs 

   => Loading Basis Set <=

    Name: CC-PVTZ
    Role: ORBITAL
    Keyword: BASIS
    atoms 1-2 entry H          line    23 file /Users/joseantoniorodriguesromero/anaconda3/share/psi4/basis/cc-pvtz.gbs 

  Reading orbitals from file /tmp/scan_HH_23.default.64686.180.npy, no projection.

  ==> Integral Setup <==

  DFHelper Memory: AOs need 0.001 GiB; user supplied 0.330 GiB. 
  Using in-core AOs.

  ==> MemDFJK: Density-Fitted J/K Matrices <==

    J tasked:                   Yes
    K tasked:                   Yes
    wK tasked:                   No
    OpenMP threads:               1
    Memory [MiB]:               337
    Algorithm:                 Core
    Schwarz Cutoff:           1E-12
    Mask sparsity (%):       0.0000
    Fitting Condition:        1E-10

   => Auxiliary Basis Set <=

  Basis Set: (CC-PVTZ AUX)
    Blend: CC-PVTZ-JKFIT
    Number of shells: 20
    Number of basis functions: 60
    Number of Cartesian functions: 70
    Spherical Harmonics?: true
    Max angular momentum: 3

  Cached 100.0% of DFT collocation blocks in 0.037 [GiB].

  Minimum eigenvalue in the overlap matrix is 3.8385623630E-02.
  Reciprocal condition number of the overlap matrix is 1.2643891667E-02.
    Using symmetric orthogonalization.

  ==> Pre-Iterations <==

  SCF Guess: Orbitals guess was supplied from a previous computation.

   -------------------------------------------------------
    Irrep   Nso     Nmo     Nalpha   Nbeta   Ndocc  Nsocc
   -------------------------------------------------------
     Ag         7       7       1       1       1       0
     B1g        1       1       0       0       0       0
     B2g        3       3       0       0       0       0
     B3g        3       3       0       0       0       0
     Au         1       1       0       0       0       0
     B1u        7       7       1       0       0       1
     B2u        3       3       0       0       0       0
     B3u        3       3       0       0       0       0
   -------------------------------------------------------
    Total      28      28       2       1       1       1
   -------------------------------------------------------

  ==> Iterations <==

                           Total Energy        Delta E     RMS |[F,P]|

   @DF-UKS iter   0:    -1.05805959510512   -1.05806e+00   2.87805e-11 
   @DF-UKS iter   1:    -1.05805959510512    4.44089e-16   1.17904e-11 DIIS
  Energy and wave function converged.


  ==> Post-Iterations <==

   Electrons on quadrature grid:
      Nalpha   =    2.0000000053 ; deviation = 5.256e-09
      Nbeta    =    1.0000000029 ; deviation = 2.869e-09
      Ntotal   =    3.0000000081 ; deviation = 8.125e-09 

   @Spin Contamination Metric:   1.961906941E-03
   @S^2 Expected:                7.500000000E-01
   @S^2 Observed:                7.519619069E-01
   @S   Expected:                5.000000000E-01
   @S   Observed:                5.000000000E-01

    Orbital Energies [Eh]
    ---------------------

    Alpha Occupied:                                                       

       1Ag    -0.059756     1B1u    0.155868  

    Alpha Virtual:                                                        

       2Ag     0.476976     2B1u    0.575942     1B2u    0.795960  
       1B3u    0.795960     3Ag     1.017658     1B3g    1.101105  
       1B2g    1.101105     3B1u    1.508694     4Ag     2.569156  
       4B1u    2.703530     2B2u    3.164347     2B3u    3.164347  
       5Ag     3.222881     6Ag     3.356590     1B1g    3.356590  
       5B1u    3.686490     1Au     3.686490     3B3u    3.906054  
       3B2u    3.906054     2B3g    3.972539     2B2g    3.972539  
       6B1u    4.090909     3B2g    4.434356     3B3g    4.434356  
       7Ag     4.577405     7B1u    5.708817  

    Beta Occupied:                                                        

       1Ag    -0.015724  

    Beta Virtual:                                                         

       1B1u    0.258988     2Ag     0.496062     2B1u    0.626288  
       1B3u    0.814826     1B2u    0.814826     3Ag     1.060333  
       1B3g    1.141122     1B2g    1.141122     3B1u    1.551668  
       4Ag     2.619427     4B1u    2.755820     2B2u    3.188371  
       2B3u    3.188371     5Ag     3.247933     1B1g    3.387755  
       6Ag     3.387755     1Au     3.722598     5B1u    3.722598  
       3B3u    3.954857     3B2u    3.954857     2B2g    4.019039  
       2B3g    4.019039     6B1u    4.147804     3B2g    4.473545  
       3B3g    4.473545     7Ag     4.626933     7B1u    5.742510  

    Final Occupation by Irrep:
             Ag   B1g   B2g   B3g    Au   B1u   B2u   B3u 
    DOCC [     1,    0,    0,    0,    0,    0,    0,    0 ]
    SOCC [     0,    0,    0,    0,    0,    1,    0,    0 ]
    NA   [     1,    0,    0,    0,    0,    1,    0,    0 ]
    NB   [     1,    0,    0,    0,    0,    0,    0,    0 ]

  @DF-UKS Final Energy:    -1.05805959510512

   => Energetics <=

    Nuclear Repulsion Energy =              0.4276815386449379
    One-Electron Energy =                  -2.5601709315383001
    Two-Electron Energy =                   1.7525120680085085
    DFT Exchange-Correlation Energy =      -0.6780822702202661
    Empirical Dispersion Energy =           0.0000000000000000
    VV10 Nonlocal Energy =                  0.0000000000000000
    Total Energy =                         -1.0580595951051199

  UHF NO Occupations:
  HONO-1 :    1 Ag 1.9990186
  HONO-0 :    1B1u 1.0000000
  LUNO+0 :    2 Ag 0.0009814
  LUNO+1 :    3 Ag 0.0000000
  LUNO+2 :    4 Ag 0.0000000
  LUNO+3 :    2B1u 0.0000000


Computation Completed


Properties will be evaluated at   0.000000,   0.000000,   0.000000 [a0]

Properties computed using the B3LYP density matrix


 Multipole Moments:

 ------------------------------------------------------------------------------------
     Multipole            Electronic (a.u.)      Nuclear  (a.u.)        Total (a.u.)
 ------------------------------------------------------------------------------------

 L = 1.  Multiply by 2.5417464519 to convert [e a0] to [Debye]
 Dipole X            :          0.0000000            0.0000000            0.0000000
 Dipole Y            :          0.0000000            0.0000000            0.0000000
 Dipole Z            :          0.0000000            0.0000000            0.0000000
 Magnitude           :                                                    0.0000000

 L = 2.  Multiply by 1.3450342976 to convert [e a0^2] to [Debye ang]
 Quadrupole XX       :         -4.3179975            0.0000000           -4.3179975
 Quadrupole XY       :          0.0000000            0.0000000            0.0000000
 Quadrupole XZ       :          0.0000000            0.0000000            0.0000000
 Quadrupole YY       :         -4.3179975            0.0000000           -4.3179975
 Quadrupole YZ       :          0.0000000            0.0000000            0.0000000
 Quadrupole ZZ       :        -10.6161942            2.7335624           -7.8826318
 Traceless XX        :          2.0993989           -0.9111875            1.1882114
 Traceless YY        :          2.0993989           -0.9111875            1.1882114
 Traceless ZZ        :         -4.1987978            1.8223750           -2.3764229

 ------------------------------------------------------------------------------------
  ==> Computing MBIS Charges <==

  Electron Count from Grid (Expected Number):  3.00000 ( 3.00000)
  Difference:  0.00000

  MBIS Charges: (a.u.)
   Center  Symbol  Z      Pop.       Charge
      1       H    1    1.500000   -0.500000
      2       H    1    1.500000   -0.500000

  MBIS Dipoles: [e a0]
   Center  Symbol  Z        X           Y           Z
      1       H    1    0.000000    0.000000    0.235527
      2       H    1   -0.000000   -0.000000   -0.235527

  MBIS Quadrupoles: [e a0^2]
   Center  Symbol  Z      XX        XY        XZ        YY        YZ        ZZ
      1       H    1   -2.1590   -0.0000   -0.0000   -2.1590    0.0000   -2.7072
      2       H    1   -2.1590   -0.0000    0.0000   -2.1590   -0.0000   -2.7072

  MBIS Octupoles: [e a0^3]
   Center  Symbol  Z      XXX       XXY       XXZ       XYY       XYZ       XZZ       YYY       YYZ       YZZ       ZZZ
      1       H    1   -0.0000   -0.0000    0.5616    0.0000    0.0000    0.0000    0.0000    0.5616   -0.0000    0.9819
      2       H    1    0.0000    0.0000   -0.5616   -0.0000   -0.0000    0.0000    0.0000   -0.5616    0.0000   -0.9819

  MBIS Radial Moments:
   Center  Symbol  Z      [a0^2]      [a0^3]      [a0^4]      
      1       H    1    7.025216   21.627836   77.443466
      2       H    1    7.025216   21.627836   77.443466

  MBIS Valence Widths: [a0]
   Center  Symbol  Z     Width
      1       H    1    0.622620
      2       H    1    0.622620

*** tstop() called on Mac.lan at Wed Aug 27 00:16:32 2025
Module time:
	user time   =       0.75 seconds =       0.01 minutes
	system time =       1.02 seconds =       0.02 minutes
	total time  =          0 seconds =       0.00 minutes
Total time:
	user time   =       2.88 seconds =       0.05 minutes
	system time =       2.10 seconds =       0.04 minutes
	total time  =          1 seconds =       0.02 minutes

    Psi4 stopped on: Wednesday, 27 August 2025 12:16AM
    Psi4 wall time for execution: 0:00:00.81

*** Psi4 exiting successfully. Buy a developer a beer!
