
    -----------------------------------------------------------------------
          Psi4: An Open-Source Ab Initio Electronic Structure Package
                               Psi4 1.9.1 release

                         Git: Rev {} zzzzzzz 


    D. G. A. Smith, L. A. Burns, A. C. Simmonett, R. M. Parrish,
    M. C. Schieber, R. Galvelis, P. Kraus, H. Kruse, R. Di Remigio,
    A. Alenaizan, A. M. James, S. Lehtola, J. P. Misiewicz, M. Scheurer,
    R. A. Shaw, J. B. Schriber, Y. Xie, Z. L. Glick, D. A. Sirianni,
    J. S. O'Brien, J. M. Waldrop, A. Kumar, E. G. Hohenstein,
    B. P. Pritchard, B. R. Brooks, H. F. Schaefer III, A. Yu. Sokolov,
    K. Patkowski, A. E. DePrince III, U. Bozkaya, R. A. King,
    F. A. Evangelista, J. M. Turney, T. D. Crawford, C. D. Sherrill,
    J. Chem. Phys. 152(18) 184108 (2020). https://doi.org/10.1063/5.0006002

                            Additional Code Authors
    E. T. Seidl, C. L. Janssen, E. F. Valeev, M. L. Leininger,
    J. F. Gonthier, R. M. Richard, H. R. McAlexander, M. Saitow, X. Wang,
    P. Verma, M. H. Lechner, A. Jiang, S. Behnle, A. G. Heide,
    M. F. Herbst, and D. L. Poole

             Previous Authors, Complete List of Code Contributors,
                       and Citations for Specific Modules
    https://github.com/psi4/psi4/blob/master/codemeta.json
    https://github.com/psi4/psi4/graphs/contributors
    http://psicode.org/psi4manual/master/introduction.html#citing-psifour

    -----------------------------------------------------------------------


    Psi4 started on: Wednesday, 27 August 2025 12:20AM

    Process ID: 64864
    Host:       Mac.lan
    PSIDATADIR: /Users/joseantoniorodriguesromero/anaconda3/share/psi4
    Memory:     500.0 MiB
    Threads:    1
    
  ==> Input File <==

--------------------------------------------------------------------------
molecule { 
-1 2
O           0.000000           0.000000           0.000000
O           0.000000           0.000000           0.921818
}

set { 
basis              cc-pvtz
reference          uks
maxiter            500
DAMPING_PERCENTAGE 1
E_CONVERGENCE      1.0E-8
D_CONVERGENCE      1.0E-8
DIIS_MAX_VECS      400
MBIS_MAXITER       8000
guess              read
}

E, wfn = energy('b3lyp', restart_file='last_wfn', return_wfn=True)
properties('b3lyp','MBIS_CHARGES', wfn=wfn)
wfn.to_file('last_wfn')
--------------------------------------------------------------------------

Scratch directory: /tmp/
 Found user provided orbital data. Setting orbital guess to READ 
 Copying restart file <last_wfn.npy> to </tmp/scan_OO_12.default.64864.180.npy> for internal processing
   => Libint2 <=

    Primary   basis highest AM E, G, H:  6, 6, 3
    Auxiliary basis highest AM E, G, H:  7, 7, 4
    Onebody   basis highest AM E, G, H:  -, -, -
    Solid Harmonics ordering:            Gaussian

*** tstart() called on Mac.lan
*** at Wed Aug 27 00:20:32 2025

   => Loading Basis Set <=

    Name: CC-PVTZ
    Role: ORBITAL
    Keyword: BASIS
    atoms 1-2 entry O          line   262 file /Users/joseantoniorodriguesromero/anaconda3/share/psi4/basis/cc-pvtz.gbs 


         ---------------------------------------------------------
                                   SCF
               by Justin Turney, Rob Parrish, Andy Simmonett
                          and Daniel G. A. Smith
                              UKS Reference
                        1 Threads,    500 MiB Core
         ---------------------------------------------------------

  ==> Geometry <==

    Molecular point group: d2h
    Full point group: D_inf_h

    Geometry (in Angstrom), charge = -1, multiplicity = 2:

       Center              X                  Y                   Z               Mass       
    ------------   -----------------  -----------------  -----------------  -----------------
         O            0.000000000000     0.000000000000    -0.460909000000    15.994914619570
         O            0.000000000000     0.000000000000     0.460909000000    15.994914619570

  Running in d2h symmetry.

  Rotational constants: A = ************  B =      2.48059  C =      2.48059 [cm^-1]
  Rotational constants: A = ************  B =  74366.08188  C =  74366.08188 [MHz]
  Nuclear repulsion =   36.739726803859341

  Charge       = -1
  Multiplicity = 2
  Electrons    = 17
  Nalpha       = 9
  Nbeta        = 8

  ==> Algorithm <==

  SCF Algorithm Type is DF.
  DIIS enabled.
  MOM disabled.
  Fractional occupation disabled.
  Guess Type is READ.
  Energy threshold   = 1.00e-08
  Density threshold  = 1.00e-08
  Integral threshold = 1.00e-12

  ==> Primary Basis <==

  Basis Set: CC-PVTZ
    Blend: CC-PVTZ
    Number of shells: 20
    Number of basis functions: 60
    Number of Cartesian functions: 70
    Spherical Harmonics?: true
    Max angular momentum: 3

  ==> DFT Potential <==

   => LibXC <=

    Version 6.2.2
    S. Lehtola, C. Steigemann, M. J.T. Oliveira, and M. A.L. Marques.,  SoftwareX 7, 1–5 (2018) (10.1016/j.softx.2017.11.002)

   => Composite Functional: B3LYP <= 

    B3LYP Hyb-GGA Exchange-Correlation Functional

    P. J. Stephens, F. J. Devlin, C. F. Chabalowski, and M. J. Frisch.,  J. Phys. Chem. 98, 11623 (1994) (10.1021/j100096a001)

    Deriv               =              1
    GGA                 =           TRUE
    Meta                =          FALSE

    Exchange Hybrid     =           TRUE
    MP2 Hybrid          =          FALSE

   => Exchange Functionals <=

    0.0800   Slater exchange
    0.7200         Becke 88

   => Exact (HF) Exchange <=

    0.2000               HF 

   => Correlation Functionals <=

    0.1900   Vosko, Wilk & Nusair (VWN5_RPA)
    0.8100   Lee, Yang & Parr

   => LibXC Density Thresholds  <==

    XC_HYB_GGA_XC_B3LYP:  1.00E-15 

   => Molecular Quadrature <=

    Radial Scheme          =       TREUTLER
    Pruning Scheme         =           NONE
    Nuclear Scheme         =       TREUTLER

    Blocking Scheme        =         OCTREE
    BS radius alpha        =              1
    Pruning alpha          =              1
    Radial Points          =             75
    Spherical Points       =            302
    Total Points           =          42368
    Total Blocks           =            378
    Max Points             =            255
    Max Functions          =             60
    Weights Tolerance      =       1.00E-15

   => Loading Basis Set <=

    Name: (CC-PVTZ AUX)
    Role: JKFIT
    Keyword: DF_BASIS_SCF
    atoms 1-2 entry O          line   229 file /Users/joseantoniorodriguesromero/anaconda3/share/psi4/basis/cc-pvtz-jkfit.gbs 

   => Loading Basis Set <=

    Name: CC-PVTZ
    Role: ORBITAL
    Keyword: BASIS
    atoms 1-2 entry O          line   262 file /Users/joseantoniorodriguesromero/anaconda3/share/psi4/basis/cc-pvtz.gbs 

  Reading orbitals from file /tmp/scan_OO_12.default.64864.180.npy, no projection.

  ==> Integral Setup <==

  DFHelper Memory: AOs need 0.005 GiB; user supplied 0.296 GiB. 
  Using in-core AOs.

  ==> MemDFJK: Density-Fitted J/K Matrices <==

    J tasked:                   Yes
    K tasked:                   Yes
    wK tasked:                   No
    OpenMP threads:               1
    Memory [MiB]:               302
    Algorithm:                 Core
    Schwarz Cutoff:           1E-12
    Mask sparsity (%):       0.0000
    Fitting Condition:        1E-10

   => Auxiliary Basis Set <=

  Basis Set: (CC-PVTZ AUX)
    Blend: CC-PVTZ-JKFIT
    Number of shells: 50
    Number of basis functions: 158
    Number of Cartesian functions: 192
    Spherical Harmonics?: true
    Max angular momentum: 4

  Cached 100.0% of DFT collocation blocks in 0.070 [GiB].

  Minimum eigenvalue in the overlap matrix is 2.3690484127E-03.
  Reciprocal condition number of the overlap matrix is 6.3045554192E-04.
    Using symmetric orthogonalization.

  ==> Pre-Iterations <==

  SCF Guess: Orbitals guess was supplied from a previous computation.

   -------------------------------------------------------
    Irrep   Nso     Nmo     Nalpha   Nbeta   Ndocc  Nsocc
   -------------------------------------------------------
     Ag        13      13       3       3       3       0
     B1g        3       3       0       0       0       0
     B2g        7       7       1       1       1       0
     B3g        7       7       1       0       0       1
     Au         3       3       0       0       0       0
     B1u       13      13       2       2       2       0
     B2u        7       7       1       1       1       0
     B3u        7       7       1       1       1       0
   -------------------------------------------------------
    Total      60      60       9       8       8       1
   -------------------------------------------------------

  ==> Iterations <==

                           Total Energy        Delta E     RMS |[F,P]|

   @DF-UKS iter   0:  -150.04939532830628   -1.50049e+02   1.53192e-02 
   @DF-UKS iter   1:  -149.98018431029971    6.92110e-02   2.18921e-03 ADIIS/DIIS
   @DF-UKS iter   2:  -149.97992828926658    2.56021e-04   2.52541e-03 ADIIS/DIIS/DAMP=1%
   @DF-UKS iter   3:  -149.97879140124880    1.13689e-03   2.13521e-04 ADIIS/DIIS/DAMP=1%
   @DF-UKS iter   4:  -149.98115228054672   -2.36088e-03   1.99785e-05 DIIS/DAMP=1%
   @DF-UKS iter   5:  -149.98102398321618    1.28297e-04   1.95579e-06 DIIS/DAMP=1%
   @DF-UKS iter   6:  -149.98104024011343   -1.62569e-05   4.03749e-07 DIIS/DAMP=1%
   @DF-UKS iter   7:  -149.98103867149197    1.56862e-06   3.98453e-08 DIIS/DAMP=1%
   @DF-UKS iter   8:  -149.98103897848111   -3.06989e-07   3.12777e-09 DIIS/DAMP=1%
   @DF-UKS iter   9:  -149.98103896089896    1.75822e-08   3.54442e-10 DIIS/DAMP=1%
   @DF-UKS iter  10:  -149.98103895895292    1.94603e-09   1.54194e-11 DIIS/DAMP=1%
  Energy and wave function converged.


  ==> Post-Iterations <==

   Electrons on quadrature grid:
      Nalpha   =    8.9999997295 ; deviation = -2.705e-07
      Nbeta    =    7.9999998010 ; deviation = -1.990e-07
      Ntotal   =   16.9999995305 ; deviation = -4.695e-07 

   @Spin Contamination Metric:   1.789709964E-03
   @S^2 Expected:                7.500000000E-01
   @S^2 Observed:                7.517897100E-01
   @S   Expected:                5.000000000E-01
   @S   Observed:                5.000000000E-01

    Orbital Energies [Eh]
    ---------------------

    Alpha Occupied:                                                       

       1Ag   -18.780385     1B1u  -18.777455     2Ag    -1.146023  
       2B1u   -0.313087     1B2u   -0.281600     1B3u   -0.242444  
       3Ag    -0.176195     1B3g    0.239856     1B2g    0.279471  

    Alpha Virtual:                                                        

       3B1u    0.630562     2B2u    0.782282     2B3u    0.803042  
       4Ag     0.819151     2B3g    0.960267     2B2g    0.982814  
       5Ag     1.028703     4B1u    1.356298     5B1u    1.530069  
       1B1g    1.539760     6Ag     1.540082     3B2u    1.898785  
       3B3u    1.928340     1Au     2.134389     6B1u    2.134672  
       7Ag     2.542868     3B3g    2.636877     3B2g    2.662790  
       7B1u    2.958518     4B2u    3.818886     4B3u    3.853640  
       8Ag     4.226366     4B3g    4.356196     4B2g    4.392910  
       8B1u    4.797599     2B1g    4.981326     9Ag     4.981744  
       5B2u    5.091594     5B3u    5.091629     6B2u    5.277527  
       6B3u    5.306988     5B3g    5.794179     5B2g    5.794193  
      10Ag     5.846242     6B3g    6.418172     6B2g    6.447839  
      11Ag     6.450292     3B1g    6.450307     9B1u    6.623464  
       2Au     6.630493    10B1u    6.650564     3Au     6.966123  
      11B1u    6.967107    12Ag     7.072994     7B2u    7.242872  
       7B3u    7.275820    12B1u    8.256559     7B3g    9.086642  
       7B2g    9.118742    13Ag     9.349046    13B1u   23.653819  

    Beta Occupied:                                                        

       1Ag   -18.767481     1B1u  -18.764437     2Ag    -1.126958  
       2B1u   -0.272943     1B3u   -0.231630     1B2u   -0.209001  
       3Ag    -0.152975     1B2g    0.293485  

    Beta Virtual:                                                         

       1B3g    0.400427     3B1u    0.638022     2B3u    0.806999  
       2B2u    0.807354     4Ag     0.824243     2B2g    0.990349  
       2B3g    1.010018     5Ag     1.041583     4B1u    1.375557  
       5B1u    1.550876     1B1g    1.558217     6Ag     1.559311  
       3B3u    1.931602     3B2u    1.934164     1Au     2.166185  
       6B1u    2.167815     7Ag     2.553584     3B2g    2.667611  
       3B3g    2.672760     7B1u    2.972669     4B3u    3.863655  
       4B2u    3.874245     8Ag     4.238285     4B2g    4.403662  
       4B3g    4.412851     8B1u    4.819719     2B1g    4.996894  
       9Ag     4.997861     5B3u    5.120273     5B2u    5.120440  
       6B2u    5.308337     6B3u    5.310793     5B2g    5.829184  
       5B3g    5.829404    10Ag     5.859802     6B2g    6.452497  
       6B3g    6.458989     3B1g    6.495919    11Ag     6.498719  
       9B1u    6.661417     2Au     6.677456    10B1u    6.681112  
       3Au     6.990153    11B1u    6.991414    12Ag     7.094368  
       7B3u    7.280592     7B2u    7.282206    12B1u    8.272002  
       7B2g    9.124212     7B3g    9.125219    13Ag     9.366158  
      13B1u   23.671882  

    Final Occupation by Irrep:
             Ag   B1g   B2g   B3g    Au   B1u   B2u   B3u 
    DOCC [     3,    0,    1,    0,    0,    2,    1,    1 ]
    SOCC [     0,    0,    0,    1,    0,    0,    0,    0 ]
    NA   [     3,    0,    1,    1,    0,    2,    1,    1 ]
    NB   [     3,    0,    1,    0,    0,    2,    1,    1 ]

  @DF-UKS Final Energy:  -149.98103895895292

   => Energetics <=

    Nuclear Repulsion Energy =             36.7397268038593410
    One-Electron Energy =                -284.6940468682007577
    Two-Electron Energy =                 112.3608373284769044
    DFT Exchange-Correlation Energy =     -14.3875562230884277
    Empirical Dispersion Energy =           0.0000000000000000
    VV10 Nonlocal Energy =                  0.0000000000000000
    Total Energy =                       -149.9810389589529223

  UHF NO Occupations:
  HONO-2 :    2B1u 1.9997732
  HONO-1 :    1B2u 1.9995355
  HONO-0 :    1B3g 1.0000000
  LUNO+0 :    2B2u 0.0004645
  LUNO+1 :    3B1u 0.0002268
  LUNO+2 :    4 Ag 0.0001201
  LUNO+3 :    2B2g 0.0000591


Computation Completed


Properties will be evaluated at   0.000000,   0.000000,   0.000000 [a0]

Properties computed using the SCF density matrix


 Multipole Moments:

 ------------------------------------------------------------------------------------
     Multipole            Electronic (a.u.)      Nuclear  (a.u.)        Total (a.u.)
 ------------------------------------------------------------------------------------

 L = 1.  Multiply by 2.5417464519 to convert [e a0] to [Debye]
 Dipole X            :          0.0000000            0.0000000            0.0000000
 Dipole Y            :          0.0000000            0.0000000            0.0000000
 Dipole Z            :          0.0000000            0.0000000            0.0000000
 Magnitude           :                                                    0.0000000

 ------------------------------------------------------------------------------------

*** tstop() called on Mac.lan at Wed Aug 27 00:20:38 2025
Module time:
	user time   =      49.55 seconds =       0.83 minutes
	system time =       3.23 seconds =       0.05 minutes
	total time  =          6 seconds =       0.10 minutes
Total time:
	user time   =      49.55 seconds =       0.83 minutes
	system time =       3.23 seconds =       0.05 minutes
	total time  =          6 seconds =       0.10 minutes

*** tstart() called on Mac.lan
*** at Wed Aug 27 00:20:38 2025

   => Libint2 <=

    Primary   basis highest AM E, G, H:  6, 6, 3
    Auxiliary basis highest AM E, G, H:  7, 7, 4
    Onebody   basis highest AM E, G, H:  -, -, -
    Solid Harmonics ordering:            Gaussian
   => Loading Basis Set <=

    Name: CC-PVTZ
    Role: ORBITAL
    Keyword: BASIS
    atoms 1-2 entry O          line   262 file /Users/joseantoniorodriguesromero/anaconda3/share/psi4/basis/cc-pvtz.gbs 


         ---------------------------------------------------------
                                   SCF
               by Justin Turney, Rob Parrish, Andy Simmonett
                          and Daniel G. A. Smith
                              UKS Reference
                        1 Threads,    500 MiB Core
         ---------------------------------------------------------

  ==> Geometry <==

    Molecular point group: d2h
    Full point group: D_inf_h

    Geometry (in Angstrom), charge = -1, multiplicity = 2:

       Center              X                  Y                   Z               Mass       
    ------------   -----------------  -----------------  -----------------  -----------------
         O            0.000000000000     0.000000000000    -0.460909000000    15.994914619570
         O            0.000000000000     0.000000000000     0.460909000000    15.994914619570

  Running in d2h symmetry.

  Rotational constants: A = ************  B =      2.48059  C =      2.48059 [cm^-1]
  Rotational constants: A = ************  B =  74366.08188  C =  74366.08188 [MHz]
  Nuclear repulsion =   36.739726803859348

  Charge       = -1
  Multiplicity = 2
  Electrons    = 17
  Nalpha       = 9
  Nbeta        = 8

  ==> Algorithm <==

  SCF Algorithm Type is DF.
  DIIS enabled.
  MOM disabled.
  Fractional occupation disabled.
  Guess Type is READ.
  Energy threshold   = 1.00e-08
  Density threshold  = 1.00e-08
  Integral threshold = 1.00e-12

  ==> Primary Basis <==

  Basis Set: CC-PVTZ
    Blend: CC-PVTZ
    Number of shells: 20
    Number of basis functions: 60
    Number of Cartesian functions: 70
    Spherical Harmonics?: true
    Max angular momentum: 3

  ==> DFT Potential <==

   => LibXC <=

    Version 6.2.2
    S. Lehtola, C. Steigemann, M. J.T. Oliveira, and M. A.L. Marques.,  SoftwareX 7, 1–5 (2018) (10.1016/j.softx.2017.11.002)

   => Composite Functional: B3LYP <= 

    B3LYP Hyb-GGA Exchange-Correlation Functional

    P. J. Stephens, F. J. Devlin, C. F. Chabalowski, and M. J. Frisch.,  J. Phys. Chem. 98, 11623 (1994) (10.1021/j100096a001)

    Deriv               =              1
    GGA                 =           TRUE
    Meta                =          FALSE

    Exchange Hybrid     =           TRUE
    MP2 Hybrid          =          FALSE

   => Exchange Functionals <=

    0.0800   Slater exchange
    0.7200         Becke 88

   => Exact (HF) Exchange <=

    0.2000               HF 

   => Correlation Functionals <=

    0.1900   Vosko, Wilk & Nusair (VWN5_RPA)
    0.8100   Lee, Yang & Parr

   => LibXC Density Thresholds  <==

    XC_HYB_GGA_XC_B3LYP:  1.00E-15 

   => Molecular Quadrature <=

    Radial Scheme          =       TREUTLER
    Pruning Scheme         =           NONE
    Nuclear Scheme         =       TREUTLER

    Blocking Scheme        =         OCTREE
    BS radius alpha        =              1
    Pruning alpha          =              1
    Radial Points          =             75
    Spherical Points       =            302
    Total Points           =          42368
    Total Blocks           =            378
    Max Points             =            255
    Max Functions          =             60
    Weights Tolerance      =       1.00E-15

   => Loading Basis Set <=

    Name: (CC-PVTZ AUX)
    Role: JKFIT
    Keyword: DF_BASIS_SCF
    atoms 1-2 entry O          line   229 file /Users/joseantoniorodriguesromero/anaconda3/share/psi4/basis/cc-pvtz-jkfit.gbs 

   => Loading Basis Set <=

    Name: CC-PVTZ
    Role: ORBITAL
    Keyword: BASIS
    atoms 1-2 entry O          line   262 file /Users/joseantoniorodriguesromero/anaconda3/share/psi4/basis/cc-pvtz.gbs 

  Reading orbitals from file /tmp/scan_OO_12.default.64864.180.npy, no projection.

  ==> Integral Setup <==

  DFHelper Memory: AOs need 0.005 GiB; user supplied 0.296 GiB. 
  Using in-core AOs.

  ==> MemDFJK: Density-Fitted J/K Matrices <==

    J tasked:                   Yes
    K tasked:                   Yes
    wK tasked:                   No
    OpenMP threads:               1
    Memory [MiB]:               302
    Algorithm:                 Core
    Schwarz Cutoff:           1E-12
    Mask sparsity (%):       0.0000
    Fitting Condition:        1E-10

   => Auxiliary Basis Set <=

  Basis Set: (CC-PVTZ AUX)
    Blend: CC-PVTZ-JKFIT
    Number of shells: 50
    Number of basis functions: 158
    Number of Cartesian functions: 192
    Spherical Harmonics?: true
    Max angular momentum: 4

  Cached 100.0% of DFT collocation blocks in 0.070 [GiB].

  Minimum eigenvalue in the overlap matrix is 2.3690484127E-03.
  Reciprocal condition number of the overlap matrix is 6.3045554192E-04.
    Using symmetric orthogonalization.

  ==> Pre-Iterations <==

  SCF Guess: Orbitals guess was supplied from a previous computation.

   -------------------------------------------------------
    Irrep   Nso     Nmo     Nalpha   Nbeta   Ndocc  Nsocc
   -------------------------------------------------------
     Ag        13      13       3       3       3       0
     B1g        3       3       0       0       0       0
     B2g        7       7       1       1       1       0
     B3g        7       7       1       0       0       1
     Au         3       3       0       0       0       0
     B1u       13      13       2       2       2       0
     B2u        7       7       1       1       1       0
     B3u        7       7       1       1       1       0
   -------------------------------------------------------
    Total      60      60       9       8       8       1
   -------------------------------------------------------

  ==> Iterations <==

                           Total Energy        Delta E     RMS |[F,P]|

   @DF-UKS iter   0:  -149.98103895916574   -1.49981e+02   1.75039e-12 
   @DF-UKS iter   1:  -149.98103895916560    1.42109e-13   1.68803e-12 DIIS
  Energy and wave function converged.


  ==> Post-Iterations <==

   Electrons on quadrature grid:
      Nalpha   =    8.9999997295 ; deviation = -2.705e-07
      Nbeta    =    7.9999998010 ; deviation = -1.990e-07
      Ntotal   =   16.9999995305 ; deviation = -4.695e-07 

   @Spin Contamination Metric:   1.789709964E-03
   @S^2 Expected:                7.500000000E-01
   @S^2 Observed:                7.517897100E-01
   @S   Expected:                5.000000000E-01
   @S   Observed:                5.000000000E-01

    Orbital Energies [Eh]
    ---------------------

    Alpha Occupied:                                                       

       1Ag   -18.780385     1B1u  -18.777455     2Ag    -1.146023  
       2B1u   -0.313087     1B2u   -0.281600     1B3u   -0.242444  
       3Ag    -0.176195     1B3g    0.239856     1B2g    0.279471  

    Alpha Virtual:                                                        

       3B1u    0.630562     2B2u    0.782282     2B3u    0.803042  
       4Ag     0.819151     2B3g    0.960267     2B2g    0.982814  
       5Ag     1.028703     4B1u    1.356298     5B1u    1.530069  
       1B1g    1.539760     6Ag     1.540082     3B2u    1.898785  
       3B3u    1.928340     1Au     2.134389     6B1u    2.134672  
       7Ag     2.542868     3B3g    2.636877     3B2g    2.662790  
       7B1u    2.958518     4B2u    3.818886     4B3u    3.853640  
       8Ag     4.226366     4B3g    4.356196     4B2g    4.392910  
       8B1u    4.797599     2B1g    4.981326     9Ag     4.981744  
       5B2u    5.091594     5B3u    5.091629     6B2u    5.277527  
       6B3u    5.306988     5B3g    5.794179     5B2g    5.794193  
      10Ag     5.846242     6B3g    6.418172     6B2g    6.447839  
      11Ag     6.450292     3B1g    6.450307     9B1u    6.623464  
       2Au     6.630493    10B1u    6.650564     3Au     6.966123  
      11B1u    6.967107    12Ag     7.072994     7B2u    7.242872  
       7B3u    7.275820    12B1u    8.256559     7B3g    9.086642  
       7B2g    9.118742    13Ag     9.349046    13B1u   23.653819  

    Beta Occupied:                                                        

       1Ag   -18.767481     1B1u  -18.764437     2Ag    -1.126958  
       2B1u   -0.272943     1B3u   -0.231630     1B2u   -0.209001  
       3Ag    -0.152975     1B2g    0.293485  

    Beta Virtual:                                                         

       1B3g    0.400427     3B1u    0.638022     2B3u    0.806999  
       2B2u    0.807354     4Ag     0.824243     2B2g    0.990349  
       2B3g    1.010018     5Ag     1.041583     4B1u    1.375557  
       5B1u    1.550876     1B1g    1.558217     6Ag     1.559311  
       3B3u    1.931602     3B2u    1.934164     1Au     2.166185  
       6B1u    2.167815     7Ag     2.553584     3B2g    2.667611  
       3B3g    2.672760     7B1u    2.972669     4B3u    3.863655  
       4B2u    3.874245     8Ag     4.238285     4B2g    4.403662  
       4B3g    4.412851     8B1u    4.819719     2B1g    4.996894  
       9Ag     4.997861     5B3u    5.120273     5B2u    5.120440  
       6B2u    5.308337     6B3u    5.310793     5B2g    5.829184  
       5B3g    5.829404    10Ag     5.859802     6B2g    6.452497  
       6B3g    6.458989     3B1g    6.495919    11Ag     6.498719  
       9B1u    6.661417     2Au     6.677456    10B1u    6.681112  
       3Au     6.990153    11B1u    6.991414    12Ag     7.094368  
       7B3u    7.280592     7B2u    7.282206    12B1u    8.272002  
       7B2g    9.124212     7B3g    9.125219    13Ag     9.366158  
      13B1u   23.671882  

    Final Occupation by Irrep:
             Ag   B1g   B2g   B3g    Au   B1u   B2u   B3u 
    DOCC [     3,    0,    1,    0,    0,    2,    1,    1 ]
    SOCC [     0,    0,    0,    1,    0,    0,    0,    0 ]
    NA   [     3,    0,    1,    1,    0,    2,    1,    1 ]
    NB   [     3,    0,    1,    0,    0,    2,    1,    1 ]

  @DF-UKS Final Energy:  -149.98103895916560

   => Energetics <=

    Nuclear Repulsion Energy =             36.7397268038593481
    One-Electron Energy =                -284.6940468688898136
    Two-Electron Energy =                 112.3608373290343110
    DFT Exchange-Correlation Energy =     -14.3875562231694367
    Empirical Dispersion Energy =           0.0000000000000000
    VV10 Nonlocal Energy =                  0.0000000000000000
    Total Energy =                       -149.9810389591655735

  UHF NO Occupations:
  HONO-2 :    2B1u 1.9997732
  HONO-1 :    1B2u 1.9995355
  HONO-0 :    1B3g 1.0000000
  LUNO+0 :    2B2u 0.0004645
  LUNO+1 :    3B1u 0.0002268
  LUNO+2 :    4 Ag 0.0001201
  LUNO+3 :    2B2g 0.0000591


Computation Completed


Properties will be evaluated at   0.000000,   0.000000,   0.000000 [a0]

Properties computed using the B3LYP density matrix


 Multipole Moments:

 ------------------------------------------------------------------------------------
     Multipole            Electronic (a.u.)      Nuclear  (a.u.)        Total (a.u.)
 ------------------------------------------------------------------------------------

 L = 1.  Multiply by 2.5417464519 to convert [e a0] to [Debye]
 Dipole X            :          0.0000000            0.0000000            0.0000000
 Dipole Y            :          0.0000000            0.0000000            0.0000000
 Dipole Z            :          0.0000000            0.0000000            0.0000000
 Magnitude           :                                                    0.0000000

 L = 2.  Multiply by 1.3450342976 to convert [e a0^2] to [Debye ang]
 Quadrupole XX       :         -9.2337499            0.0000000           -9.2337499
 Quadrupole XY       :          0.0000000            0.0000000            0.0000000
 Quadrupole XZ       :          0.0000000            0.0000000            0.0000000
 Quadrupole YY       :         -8.2497451            0.0000000           -8.2497451
 Quadrupole YZ       :          0.0000000            0.0000000            0.0000000
 Quadrupole ZZ       :        -23.4811471           12.1380269          -11.3431202
 Traceless XX        :          4.4211308           -4.0460090            0.3751218
 Traceless YY        :          5.4051356           -4.0460090            1.3591266
 Traceless ZZ        :         -9.8262664            8.0920179           -1.7342484

 ------------------------------------------------------------------------------------
  ==> Computing MBIS Charges <==

  Electron Count from Grid (Expected Number): 17.00000 (17.00000)
  Difference: -0.00000

  MBIS Charges: (a.u.)
   Center  Symbol  Z      Pop.       Charge
      1       O    8    8.500000   -0.500000
      2       O    8    8.500000   -0.500000

  MBIS Dipoles: [e a0]
   Center  Symbol  Z        X           Y           Z
      1       O    8   -0.000000    0.000000    0.372052
      2       O    8   -0.000000   -0.000000   -0.372052

  MBIS Quadrupoles: [e a0^2]
   Center  Symbol  Z      XX        XY        XZ        YY        YZ        ZZ
      1       O    8   -4.6169    0.0000    0.0000   -4.1249    0.0000   -4.6441
      2       O    8   -4.6169   -0.0000    0.0000   -4.1249    0.0000   -4.6441

  MBIS Octupoles: [e a0^3]
   Center  Symbol  Z      XXX       XXY       XXZ       XYY       XYZ       XZZ       YYY       YYZ       YZZ       ZZZ
      1       O    8   -0.0000   -0.0000    0.7843   -0.0000   -0.0000   -0.0000    0.0000    0.5474   -0.0000    0.3023
      2       O    8   -0.0000   -0.0000   -0.7843   -0.0000   -0.0000   -0.0000   -0.0000   -0.5474   -0.0000   -0.3023

  MBIS Radial Moments:
   Center  Symbol  Z      [a0^2]      [a0^3]      [a0^4]      
      1       O    8   13.385886   26.998489   65.375907
      2       O    8   13.385886   26.998489   65.375907

  MBIS Valence Widths: [a0]
   Center  Symbol  Z     Width
      1       O    8    0.402677
      2       O    8    0.402677

*** tstop() called on Mac.lan at Wed Aug 27 00:20:40 2025
Module time:
	user time   =      17.72 seconds =       0.30 minutes
	system time =       1.86 seconds =       0.03 minutes
	total time  =          2 seconds =       0.03 minutes
Total time:
	user time   =      67.30 seconds =       1.12 minutes
	system time =       5.23 seconds =       0.09 minutes
	total time  =          8 seconds =       0.13 minutes

    Psi4 stopped on: Wednesday, 27 August 2025 12:20AM
    Psi4 wall time for execution: 0:00:07.27

*** Psi4 exiting successfully. Buy a developer a beer!
