
    -----------------------------------------------------------------------
          Psi4: An Open-Source Ab Initio Electronic Structure Package
                               Psi4 1.10 release

                         Git: Rev {} zzzzzzz 


    D. G. A. Smith, L. A. Burns, A. C. Simmonett, R. M. Parrish,
    M. C. Schieber, R. Galvelis, P. Kraus, H. Kruse, R. Di Remigio,
    A. Alenaizan, A. M. James, S. Lehtola, J. P. Misiewicz, M. Scheurer,
    R. A. Shaw, J. B. Schriber, Y. Xie, Z. L. Glick, D. A. Sirianni,
    J. S. O'Brien, J. M. Waldrop, A. Kumar, E. G. Hohenstein,
    B. P. Pritchard, B. R. Brooks, H. F. Schaefer III, A. Yu. Sokolov,
    K. Patkowski, A. E. DePrince III, U. Bozkaya, R. A. King,
    F. A. Evangelista, J. M. Turney, T. D. Crawford, C. D. Sherrill,
    J. Chem. Phys. 152(18) 184108 (2020). https://doi.org/10.1063/5.0006002

                            Additional Code Authors
    E. T. Seidl, C. L. Janssen, E. F. Valeev, M. L. Leininger,
    J. F. Gonthier, R. M. Richard, H. R. McAlexander, M. Saitow, X. Wang,
    P. Verma, M. H. Lechner, A. Jiang, S. Behnle, A. G. Heide,
    M. F. Herbst, D. L. Poole, T. Győri, E. C. Mitchell, J. P. Pederson,
    and A. M. Wallace

             Previous Authors, Complete List of Code Contributors,
                       and Citations for Specific Modules
    https://github.com/psi4/psi4/blob/master/codemeta.json
    https://github.com/psi4/psi4/graphs/contributors
    https://psicode.org/psi4manual/master/introduction.html#citing-psifour

    -----------------------------------------------------------------------


    Psi4 started on: Tuesday, 23 December 2025 01:39PM

    Process ID: 510594
    Host:       cics-quant-001
    PSIDATADIR: /home/jrodriguesro/psi4conda/share/psi4
    Memory:     500.0 MiB
    Threads:    6
    Addons:     adcc, a̶m̶b̶i̶t̶, b̶s̶e̶, c̶c̶t̶3̶, c̶f̶o̶u̶r̶, c̶h̶e̶m̶p̶s̶2̶, c̶p̶p̶e̶, ddx, dftd3, dftd4,
                dkh, ecpint, einsums, f̶o̶r̶t̶e̶, g̶a̶u̶x̶c̶, gcp, g̶d̶m̶a̶, geometric,
                g̶p̶u̶_̶d̶f̶c̶c̶, i̶n̶t̶e̶g̶r̶a̶t̶o̶r̶x̶x̶, i̶p̶i̶, libefp, m̶d̶i̶, m̶p̶2̶d̶,
                m̶r̶c̶c̶, ooo, o̶p̶e̶n̶f̶e̶r̶m̶i̶o̶n̶p̶s̶i̶4̶, pcmsolver, p̶s̶i̶4̶f̶o̶c̶k̶c̶i̶,
                p̶s̶i̶x̶a̶s̶, r̶e̶s̶p̶, s̶i̶m̶i̶n̶t̶, s̶n̶s̶m̶p̶2̶, v̶2̶r̶d̶m̶_̶c̶a̶s̶s̶c̶f̶

  ==> Input File <==

--------------------------------------------------------------------------
memory 8 Gb

molecule { 
-1 3
C           0.000000           0.000000           0.000000
H           0.000000           0.000000           0.345393
}

set { 
basis              cc-pvtz
reference          uks
maxiter            500
DAMPING_PERCENTAGE 1
E_CONVERGENCE      1.0E-8
D_CONVERGENCE      1.0E-8
DIIS_MAX_VECS      400
MBIS_MAXITER       8000
guess              read
}

E, wfn = energy('b3lyp', restart_file='last_wfn', return_wfn=True)
properties('b3lyp','MBIS_CHARGES', wfn=wfn)
wfn.to_file('last_wfn')
--------------------------------------------------------------------------

  Memory set to   7.451 GiB by Python driver.

Scratch directory: /tmp/
 Found user provided orbital data. Setting orbital guess to READ 
 Copying restart file <last_wfn.npy> to </tmp/scan_HC_1.default.510594.180.npy> for internal processing
   => Libint2 <=

    Primary   basis highest AM E, G, H:  6, 6, 3
    Auxiliary basis highest AM E, G, H:  7, 7, 4
    Onebody   basis highest AM E, G, H:  -, -, -
    Solid Harmonics ordering:            Gaussian

*** tstart() called on cics-quant-001
*** at Tue Dec 23 13:39:57 2025

   => Loading Basis Set <=

    Name: CC-PVTZ
    Role: ORBITAL
    Keyword: BASIS
    atoms 1 entry C          line   186 file /home/jrodriguesro/psi4conda/share/psi4/basis/cc-pvtz.gbs 
    atoms 2 entry H          line    23 file /home/jrodriguesro/psi4conda/share/psi4/basis/cc-pvtz.gbs 


         ---------------------------------------------------------
                                   SCF
               by Justin Turney, Rob Parrish, Andy Simmonett
                          and Daniel G. A. Smith
                              UKS Reference
                        6 Threads,   7629 MiB Core
         ---------------------------------------------------------

  ==> Geometry <==

    Molecular point group: c2v
    Full point group: C_inf_v

    Geometry (in Angstrom), charge = -1, multiplicity = 3:

       Center              X                  Y                   Z               Mass       
    ------------   -----------------  -----------------  -----------------  -----------------
         C            0.000000000000     0.000000000000    -0.026760485361    12.000000000000
         H            0.000000000000     0.000000000000     0.318632514639     1.007825032230

  Running in c2v symmetry.

  Rotational constants: A = ************  B =    151.98745  C =    151.98745 [cm^-1]
  Rotational constants: A = ************  B = 4556469.16526  C = 4556469.16526 [MHz]
  Nuclear repulsion =    9.192610342479437

  Charge       = -1
  Multiplicity = 3
  Electrons    = 8
  Nalpha       = 5
  Nbeta        = 3

  ==> Algorithm <==

  SCF Algorithm Type is DF.
  DIIS enabled.
  MOM disabled.
  Fractional occupation disabled.
  Guess Type is READ.
  Energy threshold   = 1.00e-08
  Density threshold  = 1.00e-08
  Integral threshold = 1.00e-12

  ==> Primary Basis <==

  Basis Set: CC-PVTZ
    Blend: CC-PVTZ
    Number of shells: 16
    Number of basis functions: 44
    Number of Cartesian functions: 50
    Spherical Harmonics?: true
    Max angular momentum: 3

  ==> DFT Potential <==

   => LibXC <=

    Version 7.0.0
    S. Lehtola, C. Steigemann, M. J.T. Oliveira, and M. A.L. Marques.,  SoftwareX 7, 1–5 (2018) (10.1016/j.softx.2017.11.002)

   => Composite Functional: B3LYP <= 

    B3LYP Hyb-GGA Exchange-Correlation Functional

    P. J. Stephens, F. J. Devlin, C. F. Chabalowski, and M. J. Frisch.,  J. Phys. Chem. 98, 11623 (1994) (10.1021/j100096a001)

    Deriv               =              1
    GGA                 =           TRUE
    Meta                =          FALSE

    Exchange Hybrid     =           TRUE
    MP2 Hybrid          =          FALSE

   => Exchange Functionals <=

    0.0800   Slater exchange
    0.7200         Becke 88

   => Exact (HF) Exchange <=

    0.2000               HF 

   => Correlation Functionals <=

    0.1900   Vosko, Wilk & Nusair (VWN5_RPA)
    0.8100   Lee, Yang & Parr

   => LibXC Density Thresholds  <==

    XC_HYB_GGA_XC_B3LYP:  1.00E-15 

   => Molecular Quadrature <=

    Radial Scheme          =       TREUTLER
    Pruning Scheme         =           NONE
    Nuclear Scheme         =       TREUTLER

    Blocking Scheme        =         OCTREE
    BS radius alpha        =              1
    Pruning alpha          =              1
    Radial Points          =             75
    Spherical Points       =            302
    Total Points           =          43654
    Total Blocks           =            382
    Max Points             =            253
    Max Functions          =             44
    Weights Tolerance      =       1.00E-15

   => Loading Basis Set <=

    Name: (CC-PVTZ AUX)
    Role: JKFIT
    Keyword: DF_BASIS_SCF
    atoms 1 entry C          line   125 file /home/jrodriguesro/psi4conda/share/psi4/basis/cc-pvtz-jkfit.gbs 
    atoms 2 entry H          line    51 file /home/jrodriguesro/psi4conda/share/psi4/basis/cc-pvtz-jkfit.gbs 

   => Loading Basis Set <=

    Name: CC-PVTZ
    Role: ORBITAL
    Keyword: BASIS
    atoms 1 entry C          line   186 file /home/jrodriguesro/psi4conda/share/psi4/basis/cc-pvtz.gbs 
    atoms 2 entry H          line    23 file /home/jrodriguesro/psi4conda/share/psi4/basis/cc-pvtz.gbs 

  Reading orbitals from file /tmp/scan_HC_1.default.510594.180.npy, no projection.

  ==> Integral Setup <==

  DFHelper Memory: AOs need 0.002 GiB; user supplied 5.532 GiB. 
  SCF_SUBTYPE=INCORE selected. In-core MEM_DF algorithm will be used.
  Using in-core AOs.

  ==> MemDFJK: Density-Fitted J/K Matrices <==

    J tasked:                   Yes
    K tasked:                   Yes
    wK tasked:                   No
    OpenMP threads:               6
    Memory [MiB]:              5665
    Algorithm:                 Core
    Schwarz Cutoff:           1E-12
    Mask sparsity (%):       0.0000
    Fitting Condition:        1E-10

   => Auxiliary Basis Set <=

  Basis Set: (CC-PVTZ AUX)
    Blend: CC-PVTZ-JKFIT
    Number of shells: 35
    Number of basis functions: 109
    Number of Cartesian functions: 131
    Spherical Harmonics?: true
    Max angular momentum: 4

  Cached 100.0% of DFT collocation blocks in 0.056 [GiB].

  Minimum eigenvalue in the overlap matrix is 5.0937830706E-04.
  Reciprocal condition number of the overlap matrix is 1.1355624793E-04.
    Using symmetric orthogonalization.

  ==> Pre-Iterations <==

  SCF Guess: Orbitals guess was supplied from a previous computation.

   -------------------------------------------------------
    Irrep   Nso     Nmo     Nalpha   Nbeta   Ndocc  Nsocc
   -------------------------------------------------------
     A1        20      20       3       3       3       0
     A2         4       4       0       0       0       0
     B1        10      10       1       0       0       1
     B2        10      10       1       0       0       1
   -------------------------------------------------------
    Total      44      44       5       3       3       2
   -------------------------------------------------------

  ==> Iterations <==

                           Total Energy        Delta E     RMS |[F,P]|

   @DF-UKS iter   0:   -36.00462018237159   -3.60046e+01   1.09547e-02 
   @DF-UKS iter   1:   -35.99616369599350    8.45649e-03   3.88968e-03 DIIS/ADIIS
   @DF-UKS iter   2:   -35.99402384698646    2.13985e-03   4.56955e-03 DIIS/ADIIS/DAMP=1%
   @DF-UKS iter   3:   -35.99800074002261   -3.97689e-03   1.54614e-04 DIIS/ADIIS/DAMP=1%
   @DF-UKS iter   4:   -36.00089344165596   -2.89270e-03   2.16786e-05 DIIS/DAMP=1%
   @DF-UKS iter   5:   -36.00082177649679    7.16652e-05   3.02150e-06 DIIS/DAMP=1%
   @DF-UKS iter   6:   -36.00082851030120   -6.73380e-06   5.15310e-07 DIIS/DAMP=1%
   @DF-UKS iter   7:   -36.00083058952021   -2.07922e-06   9.55779e-08 DIIS/DAMP=1%
   @DF-UKS iter   8:   -36.00083034221843    2.47302e-07   5.84493e-09 DIIS/DAMP=1%
   @DF-UKS iter   9:   -36.00083038196709   -3.97487e-08   3.80456e-10 DIIS/DAMP=1%
   @DF-UKS iter  10:   -36.00083038498827   -3.02118e-09   5.26320e-11 DIIS/DAMP=1%
  Energy and wave function converged.


  ==> Post-Iterations <==

   Electrons on quadrature grid:
      Nalpha   =    5.0000000013 ; deviation = 1.347e-09
      Nbeta    =    3.0000000013 ; deviation = 1.288e-09
      Ntotal   =    8.0000000026 ; deviation = 2.636e-09 

   @Spin Contamination Metric:   6.490567487E-03
   @S^2 Expected:                2.000000000E+00
   @S^2 Observed:                2.006490567E+00
   @S   Expected:                1.000000000E+00
   @S   Observed:                1.000000000E+00

    Orbital Energies [Eh]
    ---------------------

    Alpha Occupied:                                                       

       1A1   -10.101533     2A1    -0.410760     3A1     0.001229  
       1B1     0.081332     1B2     0.081332  

    Alpha Virtual:                                                        

       4A1     0.295637     5A1     0.503089     2B1     0.560265  
       2B2     0.560265     6A1     0.828773     3B1     0.948305  
       3B2     0.948305     7A1     0.980844     1A2     0.980844  
       8A1     1.024651     9A1     1.414853     4B1     1.611085  
       4B2     1.611085    10A1     2.061904     5B1     2.150559  
       5B2     2.150559    11A1     2.680116     2A2     2.913357  
      12A1     2.913357     6B1     3.016482     6B2     3.016482  
      13A1     3.053630     7B2     3.057335     7B1     3.057335  
      14A1     3.192776     3A2     3.192776    15A1     3.624548  
       8B1     3.786991     8B2     3.786991     9B1     5.307696  
       9B2     5.307696     4A2     5.317968    16A1     5.317968  
      17A1     5.328595    18A1     6.366168    10B2     8.344761  
      10B1     8.344761    19A1    11.883035    20A1    25.613186  

    Beta Occupied:                                                        

       1A1   -10.073662     2A1    -0.337843     3A1     0.052004  

    Beta Virtual:                                                         

       1B2     0.246139     1B1     0.246139     4A1     0.306721  
       5A1     0.516472     2B1     0.630664     2B2     0.630664  
       6A1     0.867804     3B1     0.981577     3B2     0.981577  
       7A1     1.051795     8A1     1.054852     1A2     1.054852  
       9A1     1.419871     4B1     1.635768     4B2     1.635768  
      10A1     2.098229     5B1     2.233592     5B2     2.233592  
      11A1     2.725979     2A2     2.968712    12A1     2.968712  
       6B2     3.102338     6B1     3.102338    13A1     3.106250  
       7B1     3.111810     7B2     3.111810    14A1     3.305612  
       3A2     3.305612    15A1     3.656200     8B1     3.834079  
       8B2     3.834079     9B1     5.348839     9B2     5.348839  
      16A1     5.370036    17A1     5.379186     4A2     5.379186  
      18A1     6.402067    10B2     8.392089    10B1     8.392089  
      19A1    11.896312    20A1    25.636811  

    Final Occupation by Irrep:
             A1    A2    B1    B2 
    DOCC [     3,    0,    0,    0 ]
    SOCC [     0,    0,    1,    1 ]
    NA   [     3,    0,    1,    1 ]
    NB   [     3,    0,    0,    0 ]

  @DF-UKS Final Energy:   -36.00083038498827

   => Energetics <=

    Nuclear Repulsion Energy =              9.1926103424794370
    One-Electron Energy =                 -65.9735049323715970
    Two-Electron Energy =                  25.9276643141407881
    DFT Exchange-Correlation Energy =      -5.1476001092369001
    Empirical Dispersion Energy =           0.0000000000000000
    VV10 Nonlocal Energy =                  0.0000000000000000
    Total Energy =                        -36.0008303849882694

  UHF NO Occupations:
  HONO-2 :    3 A1 1.9969324
  HONO-1 :    1 B1 1.0000000
  HONO-0 :    1 B2 1.0000000
  LUNO+0 :    4 A1 0.0030676
  LUNO+1 :    5 A1 0.0001810
  LUNO+2 :    6 A1 0.0000014
  LUNO+3 :    7 A1 0.0000000


Computation Completed


Properties will be evaluated at   0.000000,   0.000000,   0.000000 [a0]

Properties computed using the SCF density matrix


 Multipole Moments:

 ------------------------------------------------------------------------------------
     Multipole            Electronic (a.u.)      Nuclear  (a.u.)        Total (a.u.)
 ------------------------------------------------------------------------------------

 L = 1.  Multiply by 2.5417464519 to convert [e a0] to [Debye]
 Dipole X            :          0.0000000            0.0000000            0.0000000
 Dipole Y            :          0.0000000            0.0000000            0.0000000
 Dipole Z            :          0.5449517            0.2987083            0.8436600
 Magnitude           :                                                    0.8436600

 ------------------------------------------------------------------------------------

*** tstop() called on cics-quant-001 at Tue Dec 23 13:39:57 2025
Module time:
	user time   =       0.90 seconds =       0.02 minutes
	system time =       0.07 seconds =       0.00 minutes
	total time  =          0 seconds =       0.00 minutes
Total time:
	user time   =       0.90 seconds =       0.02 minutes
	system time =       0.07 seconds =       0.00 minutes
	total time  =          0 seconds =       0.00 minutes

*** tstart() called on cics-quant-001
*** at Tue Dec 23 13:39:57 2025

   => Libint2 <=

    Primary   basis highest AM E, G, H:  6, 6, 3
    Auxiliary basis highest AM E, G, H:  7, 7, 4
    Onebody   basis highest AM E, G, H:  -, -, -
    Solid Harmonics ordering:            Gaussian
   => Loading Basis Set <=

    Name: CC-PVTZ
    Role: ORBITAL
    Keyword: BASIS
    atoms 1 entry C          line   186 file /home/jrodriguesro/psi4conda/share/psi4/basis/cc-pvtz.gbs 
    atoms 2 entry H          line    23 file /home/jrodriguesro/psi4conda/share/psi4/basis/cc-pvtz.gbs 


         ---------------------------------------------------------
                                   SCF
               by Justin Turney, Rob Parrish, Andy Simmonett
                          and Daniel G. A. Smith
                              UKS Reference
                        6 Threads,   7629 MiB Core
         ---------------------------------------------------------

  ==> Geometry <==

    Molecular point group: c2v
    Full point group: C_inf_v

    Geometry (in Angstrom), charge = -1, multiplicity = 3:

       Center              X                  Y                   Z               Mass       
    ------------   -----------------  -----------------  -----------------  -----------------
         C            0.000000000000     0.000000000000    -0.026760485361    12.000000000000
         H            0.000000000000     0.000000000000     0.318632514639     1.007825032230

  Running in c2v symmetry.

  Rotational constants: A = ************  B =    151.98745  C =    151.98745 [cm^-1]
  Rotational constants: A = ************  B = 4556469.16526  C = 4556469.16526 [MHz]
  Nuclear repulsion =    9.192610342479437

  Charge       = -1
  Multiplicity = 3
  Electrons    = 8
  Nalpha       = 5
  Nbeta        = 3

  ==> Algorithm <==

  SCF Algorithm Type is DF.
  DIIS enabled.
  MOM disabled.
  Fractional occupation disabled.
  Guess Type is READ.
  Energy threshold   = 1.00e-08
  Density threshold  = 1.00e-08
  Integral threshold = 1.00e-12

  ==> Primary Basis <==

  Basis Set: CC-PVTZ
    Blend: CC-PVTZ
    Number of shells: 16
    Number of basis functions: 44
    Number of Cartesian functions: 50
    Spherical Harmonics?: true
    Max angular momentum: 3

  ==> DFT Potential <==

   => LibXC <=

    Version 7.0.0
    S. Lehtola, C. Steigemann, M. J.T. Oliveira, and M. A.L. Marques.,  SoftwareX 7, 1–5 (2018) (10.1016/j.softx.2017.11.002)

   => Composite Functional: B3LYP <= 

    B3LYP Hyb-GGA Exchange-Correlation Functional

    P. J. Stephens, F. J. Devlin, C. F. Chabalowski, and M. J. Frisch.,  J. Phys. Chem. 98, 11623 (1994) (10.1021/j100096a001)

    Deriv               =              1
    GGA                 =           TRUE
    Meta                =          FALSE

    Exchange Hybrid     =           TRUE
    MP2 Hybrid          =          FALSE

   => Exchange Functionals <=

    0.0800   Slater exchange
    0.7200         Becke 88

   => Exact (HF) Exchange <=

    0.2000               HF 

   => Correlation Functionals <=

    0.1900   Vosko, Wilk & Nusair (VWN5_RPA)
    0.8100   Lee, Yang & Parr

   => LibXC Density Thresholds  <==

    XC_HYB_GGA_XC_B3LYP:  1.00E-15 

   => Molecular Quadrature <=

    Radial Scheme          =       TREUTLER
    Pruning Scheme         =           NONE
    Nuclear Scheme         =       TREUTLER

    Blocking Scheme        =         OCTREE
    BS radius alpha        =              1
    Pruning alpha          =              1
    Radial Points          =             75
    Spherical Points       =            302
    Total Points           =          43654
    Total Blocks           =            382
    Max Points             =            253
    Max Functions          =             44
    Weights Tolerance      =       1.00E-15

   => Loading Basis Set <=

    Name: (CC-PVTZ AUX)
    Role: JKFIT
    Keyword: DF_BASIS_SCF
    atoms 1 entry C          line   125 file /home/jrodriguesro/psi4conda/share/psi4/basis/cc-pvtz-jkfit.gbs 
    atoms 2 entry H          line    51 file /home/jrodriguesro/psi4conda/share/psi4/basis/cc-pvtz-jkfit.gbs 

   => Loading Basis Set <=

    Name: CC-PVTZ
    Role: ORBITAL
    Keyword: BASIS
    atoms 1 entry C          line   186 file /home/jrodriguesro/psi4conda/share/psi4/basis/cc-pvtz.gbs 
    atoms 2 entry H          line    23 file /home/jrodriguesro/psi4conda/share/psi4/basis/cc-pvtz.gbs 

  Reading orbitals from file /tmp/scan_HC_1.default.510594.180.npy, no projection.

  ==> Integral Setup <==

  DFHelper Memory: AOs need 0.002 GiB; user supplied 5.532 GiB. 
  SCF_SUBTYPE=INCORE selected. In-core MEM_DF algorithm will be used.
  Using in-core AOs.

  ==> MemDFJK: Density-Fitted J/K Matrices <==

    J tasked:                   Yes
    K tasked:                   Yes
    wK tasked:                   No
    OpenMP threads:               6
    Memory [MiB]:              5665
    Algorithm:                 Core
    Schwarz Cutoff:           1E-12
    Mask sparsity (%):       0.0000
    Fitting Condition:        1E-10

   => Auxiliary Basis Set <=

  Basis Set: (CC-PVTZ AUX)
    Blend: CC-PVTZ-JKFIT
    Number of shells: 35
    Number of basis functions: 109
    Number of Cartesian functions: 131
    Spherical Harmonics?: true
    Max angular momentum: 4

  Cached 100.0% of DFT collocation blocks in 0.056 [GiB].

  Minimum eigenvalue in the overlap matrix is 5.0937830706E-04.
  Reciprocal condition number of the overlap matrix is 1.1355624793E-04.
    Using symmetric orthogonalization.

  ==> Pre-Iterations <==

  SCF Guess: Orbitals guess was supplied from a previous computation.

   -------------------------------------------------------
    Irrep   Nso     Nmo     Nalpha   Nbeta   Ndocc  Nsocc
   -------------------------------------------------------
     A1        20      20       3       3       3       0
     A2         4       4       0       0       0       0
     B1        10      10       1       0       0       1
     B2        10      10       1       0       0       1
   -------------------------------------------------------
    Total      44      44       5       3       3       2
   -------------------------------------------------------

  ==> Iterations <==

                           Total Energy        Delta E     RMS |[F,P]|

   @DF-UKS iter   0:   -36.00083038500976   -3.60008e+01   7.00507e-12 
   @DF-UKS iter   1:   -36.00083038500971    4.97380e-14   7.72031e-12 DIIS
  Energy and wave function converged.


  ==> Post-Iterations <==

   Electrons on quadrature grid:
      Nalpha   =    5.0000000013 ; deviation = 1.347e-09
      Nbeta    =    3.0000000013 ; deviation = 1.288e-09
      Ntotal   =    8.0000000026 ; deviation = 2.636e-09 

   @Spin Contamination Metric:   6.490567519E-03
   @S^2 Expected:                2.000000000E+00
   @S^2 Observed:                2.006490568E+00
   @S   Expected:                1.000000000E+00
   @S   Observed:                1.000000000E+00

    Orbital Energies [Eh]
    ---------------------

    Alpha Occupied:                                                       

       1A1   -10.101533     2A1    -0.410760     3A1     0.001229  
       1B1     0.081332     1B2     0.081332  

    Alpha Virtual:                                                        

       4A1     0.295637     5A1     0.503089     2B1     0.560265  
       2B2     0.560265     6A1     0.828773     3B1     0.948305  
       3B2     0.948305     7A1     0.980844     1A2     0.980844  
       8A1     1.024651     9A1     1.414853     4B1     1.611085  
       4B2     1.611085    10A1     2.061904     5B1     2.150559  
       5B2     2.150559    11A1     2.680116     2A2     2.913357  
      12A1     2.913357     6B1     3.016482     6B2     3.016482  
      13A1     3.053630     7B2     3.057335     7B1     3.057335  
      14A1     3.192776     3A2     3.192776    15A1     3.624548  
       8B1     3.786991     8B2     3.786991     9B1     5.307696  
       9B2     5.307696     4A2     5.317968    16A1     5.317968  
      17A1     5.328595    18A1     6.366168    10B2     8.344761  
      10B1     8.344761    19A1    11.883035    20A1    25.613186  

    Beta Occupied:                                                        

       1A1   -10.073662     2A1    -0.337843     3A1     0.052004  

    Beta Virtual:                                                         

       1B2     0.246139     1B1     0.246139     4A1     0.306721  
       5A1     0.516472     2B1     0.630664     2B2     0.630664  
       6A1     0.867804     3B1     0.981577     3B2     0.981577  
       7A1     1.051795     8A1     1.054852     1A2     1.054852  
       9A1     1.419871     4B1     1.635768     4B2     1.635768  
      10A1     2.098229     5B1     2.233592     5B2     2.233592  
      11A1     2.725979     2A2     2.968712    12A1     2.968712  
       6B2     3.102338     6B1     3.102338    13A1     3.106250  
       7B1     3.111810     7B2     3.111810    14A1     3.305612  
       3A2     3.305612    15A1     3.656200     8B1     3.834079  
       8B2     3.834079     9B1     5.348839     9B2     5.348839  
      16A1     5.370036    17A1     5.379186     4A2     5.379186  
      18A1     6.402067    10B2     8.392089    10B1     8.392089  
      19A1    11.896312    20A1    25.636811  

    Final Occupation by Irrep:
             A1    A2    B1    B2 
    DOCC [     3,    0,    0,    0 ]
    SOCC [     0,    0,    1,    1 ]
    NA   [     3,    0,    1,    1 ]
    NB   [     3,    0,    0,    0 ]

  @DF-UKS Final Energy:   -36.00083038500971

   => Energetics <=

    Nuclear Repulsion Energy =              9.1926103424794370
    One-Electron Energy =                 -65.9735049309613828
    Two-Electron Energy =                  25.9276643125458186
    DFT Exchange-Correlation Energy =      -5.1476001090735792
    Empirical Dispersion Energy =           0.0000000000000000
    VV10 Nonlocal Energy =                  0.0000000000000000
    Total Energy =                        -36.0008303850097064

  UHF NO Occupations:
  HONO-2 :    3 A1 1.9969324
  HONO-1 :    1 B1 1.0000000
  HONO-0 :    1 B2 1.0000000
  LUNO+0 :    4 A1 0.0030676
  LUNO+1 :    5 A1 0.0001810
  LUNO+2 :    6 A1 0.0000014
  LUNO+3 :    7 A1 0.0000000


Computation Completed


Properties will be evaluated at   0.000000,   0.000000,   0.000000 [a0]

Properties computed using the B3LYP density matrix


 Multipole Moments:

 ------------------------------------------------------------------------------------
     Multipole            Electronic (a.u.)      Nuclear  (a.u.)        Total (a.u.)
 ------------------------------------------------------------------------------------

 L = 1.  Multiply by 2.5417464519 to convert [e a0] to [Debye]
 Dipole X            :          0.0000000            0.0000000            0.0000000
 Dipole Y            :          0.0000000            0.0000000            0.0000000
 Dipole Z            :          0.5449517            0.2987083            0.8436600
 Magnitude           :                                                    0.8436600

 L = 2.  Multiply by 1.3450342976 to convert [e a0^2] to [Debye ang]
 Quadrupole XX       :         -7.4083527            0.0000000           -7.4083527
 Quadrupole XY       :          0.0000000            0.0000000            0.0000000
 Quadrupole XZ       :          0.0000000            0.0000000            0.0000000
 Quadrupole YY       :         -7.4083527            0.0000000           -7.4083527
 Quadrupole YZ       :          0.0000000            0.0000000            0.0000000
 Quadrupole ZZ       :         -7.7497843            0.3779023           -7.3718820
 Traceless XX        :          0.1138105           -0.1259674           -0.0121569
 Traceless YY        :          0.1138105           -0.1259674           -0.0121569
 Traceless ZZ        :         -0.2276211            0.2519349            0.0243138

 ------------------------------------------------------------------------------------
  ==> Computing MBIS Charges <==

  Electron Count from Grid (Expected Number):  8.00000 ( 8.00000)
  Difference: -0.00000

  MBIS Charges: (a.u.)
   Center  Symbol  Z      Pop.       Charge
      1       C    6    6.990229   -0.990229
      2       H    1    1.009771   -0.009771

  MBIS Dipoles: [e a0]
   Center  Symbol  Z        X           Y           Z
      1       C    6    0.000000    0.000000    0.813647
      2       H    1    0.000000   -0.000000   -0.014180

  MBIS Quadrupoles: [e a0^2]
   Center  Symbol  Z      XX        XY        XZ        YY        YZ        ZZ
      1       C    6   -7.1718   -0.0000    0.0000   -7.1718   -0.0000   -7.0296
      2       H    1   -0.2365    0.0000   -0.0000   -0.2365   -0.0000   -0.2368

  MBIS Octupoles: [e a0^3]
   Center  Symbol  Z      XXX       XXY       XXZ       XYY       XYZ       XZZ       YYY       YYZ       YZZ       ZZZ
      1       C    6    0.0000    0.0000    1.7593   -0.0000   -0.0000   -0.0000    0.0000    1.7593   -0.0000    5.3743
      2       H    1    0.0000    0.0000    0.0020   -0.0000    0.0000    0.0000   -0.0000    0.0020   -0.0000    0.0150

  MBIS Radial Moments:
   Center  Symbol  Z      [a0^2]      [a0^3]      [a0^4]      
      1       C    6   21.373240   60.679704   203.318261
      2       H    1    0.709904    0.844968    1.206696

  MBIS Valence Widths: [a0]
   Center  Symbol  Z     Width
      1       C    6    0.581090
      2       H    1    0.244352


  MBIS Valence Charges: (a.u.)
   Center  Symbol  Z     Charge
      1       C    6   -5.279195
      2       H    1   -1.009771

*** tstop() called on cics-quant-001 at Tue Dec 23 13:39:57 2025
Module time:
	user time   =       0.77 seconds =       0.01 minutes
	system time =       0.05 seconds =       0.00 minutes
	total time  =          0 seconds =       0.00 minutes
Total time:
	user time   =       1.68 seconds =       0.03 minutes
	system time =       0.12 seconds =       0.00 minutes
	total time  =          0 seconds =       0.00 minutes

    Psi4 stopped on: Tuesday, 23 December 2025 01:39PM
    Psi4 wall time for execution: 0:00:00.80

*** Psi4 exiting successfully. Buy a developer a beer!
