
    -----------------------------------------------------------------------
          Psi4: An Open-Source Ab Initio Electronic Structure Package
                               Psi4 1.9.1 release

                         Git: Rev {} zzzzzzz 


    D. G. A. Smith, L. A. Burns, A. C. Simmonett, R. M. Parrish,
    M. C. Schieber, R. Galvelis, P. Kraus, H. Kruse, R. Di Remigio,
    A. Alenaizan, A. M. James, S. Lehtola, J. P. Misiewicz, M. Scheurer,
    R. A. Shaw, J. B. Schriber, Y. Xie, Z. L. Glick, D. A. Sirianni,
    J. S. O'Brien, J. M. Waldrop, A. Kumar, E. G. Hohenstein,
    B. P. Pritchard, B. R. Brooks, H. F. Schaefer III, A. Yu. Sokolov,
    K. Patkowski, A. E. DePrince III, U. Bozkaya, R. A. King,
    F. A. Evangelista, J. M. Turney, T. D. Crawford, C. D. Sherrill,
    J. Chem. Phys. 152(18) 184108 (2020). https://doi.org/10.1063/5.0006002

                            Additional Code Authors
    E. T. Seidl, C. L. Janssen, E. F. Valeev, M. L. Leininger,
    J. F. Gonthier, R. M. Richard, H. R. McAlexander, M. Saitow, X. Wang,
    P. Verma, M. H. Lechner, A. Jiang, S. Behnle, A. G. Heide,
    M. F. Herbst, and D. L. Poole

             Previous Authors, Complete List of Code Contributors,
                       and Citations for Specific Modules
    https://github.com/psi4/psi4/blob/master/codemeta.json
    https://github.com/psi4/psi4/graphs/contributors
    http://psicode.org/psi4manual/master/introduction.html#citing-psifour

    -----------------------------------------------------------------------


    Psi4 started on: Wednesday, 27 August 2025 10:08AM

    Process ID: 66899
    Host:       Mac.lan
    PSIDATADIR: /Users/joseantoniorodriguesromero/anaconda3/share/psi4
    Memory:     500.0 MiB
    Threads:    1
    
  ==> Input File <==

--------------------------------------------------------------------------
molecule { 
-1 2
O           0.000000           0.000000           0.000000
C           0.000000           0.000000           2.063359
}

set { 
basis              cc-pvtz
reference          uks
maxiter            500
DAMPING_PERCENTAGE 1
E_CONVERGENCE      1.0E-8
D_CONVERGENCE      1.0E-8
DIIS_MAX_VECS      400
MBIS_MAXITER       8000
guess              read
}

E, wfn = energy('b3lyp', restart_file='last_wfn', return_wfn=True)
properties('b3lyp','MBIS_CHARGES', wfn=wfn)
wfn.to_file('last_wfn')
--------------------------------------------------------------------------

Scratch directory: /tmp/
 Found user provided orbital data. Setting orbital guess to READ 
 Copying restart file <last_wfn.npy> to </tmp/scan_CO_41.default.66899.180.npy> for internal processing
   => Libint2 <=

    Primary   basis highest AM E, G, H:  6, 6, 3
    Auxiliary basis highest AM E, G, H:  7, 7, 4
    Onebody   basis highest AM E, G, H:  -, -, -
    Solid Harmonics ordering:            Gaussian

*** tstart() called on Mac.lan
*** at Wed Aug 27 10:08:08 2025

   => Loading Basis Set <=

    Name: CC-PVTZ
    Role: ORBITAL
    Keyword: BASIS
    atoms 1 entry O          line   262 file /Users/joseantoniorodriguesromero/anaconda3/share/psi4/basis/cc-pvtz.gbs 
    atoms 2 entry C          line   186 file /Users/joseantoniorodriguesromero/anaconda3/share/psi4/basis/cc-pvtz.gbs 


         ---------------------------------------------------------
                                   SCF
               by Justin Turney, Rob Parrish, Andy Simmonett
                          and Daniel G. A. Smith
                              UKS Reference
                        1 Threads,    500 MiB Core
         ---------------------------------------------------------

  ==> Geometry <==

    Molecular point group: c2v
    Full point group: C_inf_v

    Geometry (in Angstrom), charge = -1, multiplicity = 2:

       Center              X                  Y                   Z               Mass       
    ------------   -----------------  -----------------  -----------------  -----------------
         O            0.000000000000     0.000000000000    -0.884457350075    15.994914619570
         C            0.000000000000     0.000000000000     1.178901649925    12.000000000000

  Running in c2v symmetry.

  Rotational constants: A = ************  B =      0.57751  C =      0.57751 [cm^-1]
  Rotational constants: A = ************  B =  17313.44857  C =  17313.44857 [MHz]
  Nuclear repulsion =   12.310269861987175

  Charge       = -1
  Multiplicity = 2
  Electrons    = 15
  Nalpha       = 8
  Nbeta        = 7

  ==> Algorithm <==

  SCF Algorithm Type is DF.
  DIIS enabled.
  MOM disabled.
  Fractional occupation disabled.
  Guess Type is READ.
  Energy threshold   = 1.00e-08
  Density threshold  = 1.00e-08
  Integral threshold = 1.00e-12

  ==> Primary Basis <==

  Basis Set: CC-PVTZ
    Blend: CC-PVTZ
    Number of shells: 20
    Number of basis functions: 60
    Number of Cartesian functions: 70
    Spherical Harmonics?: true
    Max angular momentum: 3

  ==> DFT Potential <==

   => LibXC <=

    Version 6.2.2
    S. Lehtola, C. Steigemann, M. J.T. Oliveira, and M. A.L. Marques.,  SoftwareX 7, 1–5 (2018) (10.1016/j.softx.2017.11.002)

   => Composite Functional: B3LYP <= 

    B3LYP Hyb-GGA Exchange-Correlation Functional

    P. J. Stephens, F. J. Devlin, C. F. Chabalowski, and M. J. Frisch.,  J. Phys. Chem. 98, 11623 (1994) (10.1021/j100096a001)

    Deriv               =              1
    GGA                 =           TRUE
    Meta                =          FALSE

    Exchange Hybrid     =           TRUE
    MP2 Hybrid          =          FALSE

   => Exchange Functionals <=

    0.0800   Slater exchange
    0.7200         Becke 88

   => Exact (HF) Exchange <=

    0.2000               HF 

   => Correlation Functionals <=

    0.1900   Vosko, Wilk & Nusair (VWN5_RPA)
    0.8100   Lee, Yang & Parr

   => LibXC Density Thresholds  <==

    XC_HYB_GGA_XC_B3LYP:  1.00E-15 

   => Molecular Quadrature <=

    Radial Scheme          =       TREUTLER
    Pruning Scheme         =           NONE
    Nuclear Scheme         =       TREUTLER

    Blocking Scheme        =         OCTREE
    BS radius alpha        =              1
    Pruning alpha          =              1
    Radial Points          =             75
    Spherical Points       =            302
    Total Points           =          43376
    Total Blocks           =            390
    Max Points             =            255
    Max Functions          =             60
    Weights Tolerance      =       1.00E-15

   => Loading Basis Set <=

    Name: (CC-PVTZ AUX)
    Role: JKFIT
    Keyword: DF_BASIS_SCF
    atoms 1 entry O          line   229 file /Users/joseantoniorodriguesromero/anaconda3/share/psi4/basis/cc-pvtz-jkfit.gbs 
    atoms 2 entry C          line   125 file /Users/joseantoniorodriguesromero/anaconda3/share/psi4/basis/cc-pvtz-jkfit.gbs 

   => Loading Basis Set <=

    Name: CC-PVTZ
    Role: ORBITAL
    Keyword: BASIS
    atoms 1 entry O          line   262 file /Users/joseantoniorodriguesromero/anaconda3/share/psi4/basis/cc-pvtz.gbs 
    atoms 2 entry C          line   186 file /Users/joseantoniorodriguesromero/anaconda3/share/psi4/basis/cc-pvtz.gbs 

  Reading orbitals from file /tmp/scan_CO_41.default.66899.180.npy, no projection.

  ==> Integral Setup <==

  DFHelper Memory: AOs need 0.005 GiB; user supplied 0.298 GiB. 
  Using in-core AOs.

  ==> MemDFJK: Density-Fitted J/K Matrices <==

    J tasked:                   Yes
    K tasked:                   Yes
    wK tasked:                   No
    OpenMP threads:               1
    Memory [MiB]:               304
    Algorithm:                 Core
    Schwarz Cutoff:           1E-12
    Mask sparsity (%):       0.0000
    Fitting Condition:        1E-10

   => Auxiliary Basis Set <=

  Basis Set: (CC-PVTZ AUX)
    Blend: CC-PVTZ-JKFIT
    Number of shells: 50
    Number of basis functions: 158
    Number of Cartesian functions: 192
    Spherical Harmonics?: true
    Max angular momentum: 4

  Cached 100.0% of DFT collocation blocks in 0.069 [GiB].

  Minimum eigenvalue in the overlap matrix is 2.0321944633E-02.
  Reciprocal condition number of the overlap matrix is 6.7094502778E-03.
    Using symmetric orthogonalization.

  ==> Pre-Iterations <==

  SCF Guess: Orbitals guess was supplied from a previous computation.

   -------------------------------------------------------
    Irrep   Nso     Nmo     Nalpha   Nbeta   Ndocc  Nsocc
   -------------------------------------------------------
     A1        26      26       5       5       5       0
     A2         6       6       0       0       0       0
     B1        14      14       2       1       1       1
     B2        14      14       1       1       1       0
   -------------------------------------------------------
    Total      60      60       8       7       7       1
   -------------------------------------------------------

  ==> Iterations <==

                           Total Energy        Delta E     RMS |[F,P]|

   @DF-UKS iter   0:  -113.08798158331814   -1.13088e+02   9.03952e-04 
   @DF-UKS iter   1:  -113.09214305859312   -4.16148e-03   4.51969e-04 ADIIS/DIIS
   @DF-UKS iter   2:  -113.09148630288415    6.56756e-04   1.25114e-03 ADIIS/DIIS/DAMP=1%
   @DF-UKS iter   3:  -113.09143809666003    4.82062e-05   2.35365e-04 ADIIS/DIIS/DAMP=1%
   @DF-UKS iter   4:  -113.09236743744702   -9.29341e-04   1.06439e-04 ADIIS/DIIS/DAMP=1%
   @DF-UKS iter   5:  -113.09230909927858    5.83382e-05   2.28560e-05 DIIS/DAMP=1%
   @DF-UKS iter   6:  -113.09232940655262   -2.03073e-05   6.00349e-06 DIIS/DAMP=1%
   @DF-UKS iter   7:  -113.09234771648481   -1.83099e-05   1.97315e-06 DIIS/DAMP=1%
   @DF-UKS iter   8:  -113.09234082967274    6.88681e-06   8.55675e-07 DIIS/DAMP=1%
   @DF-UKS iter   9:  -113.09234148496890   -6.55296e-07   4.84855e-07 DIIS/DAMP=1%
   @DF-UKS iter  10:  -113.09234213207870   -6.47110e-07   1.47498e-07 DIIS/DAMP=1%
   @DF-UKS iter  11:  -113.09234167702557    4.55053e-07   2.03910e-08 DIIS/DAMP=1%
   @DF-UKS iter  12:  -113.09234176888290   -9.18573e-08   5.67132e-09 DIIS/DAMP=1%
   @DF-UKS iter  13:  -113.09234175557361    1.33093e-08   1.71330e-09 DIIS/DAMP=1%
   @DF-UKS iter  14:  -113.09234176046952   -4.89591e-09   2.07795e-10 DIIS/DAMP=1%
  Energy and wave function converged.


  ==> Post-Iterations <==

   Electrons on quadrature grid:
      Nalpha   =    8.0000005117 ; deviation = 5.117e-07
      Nbeta    =    7.0000015054 ; deviation = 1.505e-06
      Ntotal   =   15.0000020171 ; deviation = 2.017e-06 

   @Spin Contamination Metric:   8.108091834E-01
   @S^2 Expected:                7.500000000E-01
   @S^2 Observed:                1.560809183E+00
   @S   Expected:                5.000000000E-01
   @S   Observed:                5.000000000E-01

    Orbital Energies [Eh]
    ---------------------

    Alpha Occupied:                                                       

       1A1   -18.852405     2A1   -10.003263     3A1    -0.554267  
       4A1    -0.295065     1B1    -0.018321     5A1    -0.016635  
       1B2     0.015973     2B1     0.040071  

    Alpha Virtual:                                                        

       2B2     0.144596     6A1     0.206806     7A1     0.534265  
       3B1     0.535362     3B2     0.536859     8A1     0.628065  
       4B1     0.844677     4B2     0.861025     9A1     0.861742  
       1A2     0.913970    10A1     0.914105     5B1     1.005662  
       5B2     1.010511    11A1     1.084896    12A1     1.451138  
       2A2     1.787457    13A1     1.791525     6B1     1.841732  
       6B2     1.847427    14A1     1.884924     7B1     2.197671  
       7B2     2.200125    15A1     2.493893     8B1     2.920938  
       8B2     2.920947     3A2     2.930928    16A1     2.931079  
       9B2     2.983830     9B1     2.985736    17A1     3.076278  
       4A2     3.176119    18A1     3.176438    10B1     3.265171  
      10B2     3.266430    19A1     3.456005    11B1     3.922197  
      11B2     3.951351    20A1     4.076875    21A1     4.142027  
       5A2     5.445944    22A1     5.449589    12B1     5.453050  
      12B2     5.454304    13B1     5.477394    13B2     5.480938  
      23A1     5.554262     6A2     6.520496    24A1     6.530267  
      14B1     6.585684    14B2     6.607196    25A1     6.772599  
      26A1     8.199998  

    Beta Occupied:                                                        

       1A1   -18.877627     2A1    -9.976905     3A1    -0.627673  
       4A1    -0.202157     1B2    -0.084383     5A1    -0.040178  
       1B1    -0.022299  

    Beta Virtual:                                                         

       2B2     0.187746     2B1     0.198010     6A1     0.228964  
       7A1     0.557482     3B2     0.592630     3B1     0.600306  
       8A1     0.667893     4B2     0.822619     9A1     0.848021  
       4B1     0.851131     1A2     0.983913    10A1     0.983916  
       5B2     1.023210     5B1     1.035746    11A1     1.097246  
      12A1     1.431878     2A2     1.744753    13A1     1.745086  
       6B2     1.803985     6B1     1.836744    14A1     1.884720  
       7B2     2.271709     7B1     2.280938    15A1     2.521125  
      16A1     3.000896     3A2     3.000983     8B2     3.011175  
       8B1     3.011224     9B2     3.036509     9B1     3.044966  
      17A1     3.117230    18A1     3.291429     4A2     3.291469  
      10B2     3.332072    10B1     3.341473    19A1     3.483373  
      11B2     3.850087    11B1     3.905350    20A1     4.116654  
      21A1     4.133449    12B2     5.389210    12B1     5.393943  
      22A1     5.394638     5A2     5.400302    13B2     5.422950  
      13B1     5.462161    23A1     5.520544    24A1     6.442301  
       6A2     6.444339    14B2     6.507497    14B1     6.559714  
      25A1     6.723437    26A1     8.152502  

    Final Occupation by Irrep:
             A1    A2    B1    B2 
    DOCC [     5,    0,    1,    1 ]
    SOCC [     0,    0,    1,    0 ]
    NA   [     5,    0,    2,    1 ]
    NB   [     5,    0,    1,    1 ]

  @DF-UKS Final Energy:  -113.09234176046952

   => Energetics <=

    Nuclear Repulsion Energy =             12.3102698619871749
    One-Electron Energy =                -183.1707841063065985
    Two-Electron Energy =                  69.0469849320281810
    DFT Exchange-Correlation Energy =     -11.2788124481782699
    Empirical Dispersion Energy =           0.0000000000000000
    VV10 Nonlocal Energy =                  0.0000000000000000
    Total Energy =                       -113.0923417604695231

  UHF NO Occupations:
  HONO-2 :    5 A1 1.9714525
  HONO-1 :    1 B2 1.4984035
  HONO-0 :    2 B1 1.0000000
  LUNO+0 :    2 B2 0.5015965
  LUNO+1 :    6 A1 0.0285475
  LUNO+2 :    7 A1 0.0009976
  LUNO+3 :    8 A1 0.0003303


Computation Completed


Properties will be evaluated at   0.000000,   0.000000,   0.000000 [a0]

Properties computed using the SCF density matrix


 Multipole Moments:

 ------------------------------------------------------------------------------------
     Multipole            Electronic (a.u.)      Nuclear  (a.u.)        Total (a.u.)
 ------------------------------------------------------------------------------------

 L = 1.  Multiply by 2.5417464519 to convert [e a0] to [Debye]
 Dipole X            :          0.0000000            0.0000000            0.0000000
 Dipole Y            :          0.0000000            0.0000000            0.0000000
 Dipole Z            :         -0.2910555           -0.0042498           -0.2953053
 Magnitude           :                                                    0.2953053

 ------------------------------------------------------------------------------------

*** tstop() called on Mac.lan at Wed Aug 27 10:08:15 2025
Module time:
	user time   =      69.84 seconds =       1.16 minutes
	system time =       2.95 seconds =       0.05 minutes
	total time  =          7 seconds =       0.12 minutes
Total time:
	user time   =      69.84 seconds =       1.16 minutes
	system time =       2.95 seconds =       0.05 minutes
	total time  =          7 seconds =       0.12 minutes

*** tstart() called on Mac.lan
*** at Wed Aug 27 10:08:15 2025

   => Libint2 <=

    Primary   basis highest AM E, G, H:  6, 6, 3
    Auxiliary basis highest AM E, G, H:  7, 7, 4
    Onebody   basis highest AM E, G, H:  -, -, -
    Solid Harmonics ordering:            Gaussian
   => Loading Basis Set <=

    Name: CC-PVTZ
    Role: ORBITAL
    Keyword: BASIS
    atoms 1 entry O          line   262 file /Users/joseantoniorodriguesromero/anaconda3/share/psi4/basis/cc-pvtz.gbs 
    atoms 2 entry C          line   186 file /Users/joseantoniorodriguesromero/anaconda3/share/psi4/basis/cc-pvtz.gbs 


         ---------------------------------------------------------
                                   SCF
               by Justin Turney, Rob Parrish, Andy Simmonett
                          and Daniel G. A. Smith
                              UKS Reference
                        1 Threads,    500 MiB Core
         ---------------------------------------------------------

  ==> Geometry <==

    Molecular point group: c2v
    Full point group: C_inf_v

    Geometry (in Angstrom), charge = -1, multiplicity = 2:

       Center              X                  Y                   Z               Mass       
    ------------   -----------------  -----------------  -----------------  -----------------
         O            0.000000000000     0.000000000000    -0.884457350075    15.994914619570
         C            0.000000000000     0.000000000000     1.178901649925    12.000000000000

  Running in c2v symmetry.

  Rotational constants: A = ************  B =      0.57751  C =      0.57751 [cm^-1]
  Rotational constants: A = ************  B =  17313.44857  C =  17313.44857 [MHz]
  Nuclear repulsion =   12.310269861987175

  Charge       = -1
  Multiplicity = 2
  Electrons    = 15
  Nalpha       = 8
  Nbeta        = 7

  ==> Algorithm <==

  SCF Algorithm Type is DF.
  DIIS enabled.
  MOM disabled.
  Fractional occupation disabled.
  Guess Type is READ.
  Energy threshold   = 1.00e-08
  Density threshold  = 1.00e-08
  Integral threshold = 1.00e-12

  ==> Primary Basis <==

  Basis Set: CC-PVTZ
    Blend: CC-PVTZ
    Number of shells: 20
    Number of basis functions: 60
    Number of Cartesian functions: 70
    Spherical Harmonics?: true
    Max angular momentum: 3

  ==> DFT Potential <==

   => LibXC <=

    Version 6.2.2
    S. Lehtola, C. Steigemann, M. J.T. Oliveira, and M. A.L. Marques.,  SoftwareX 7, 1–5 (2018) (10.1016/j.softx.2017.11.002)

   => Composite Functional: B3LYP <= 

    B3LYP Hyb-GGA Exchange-Correlation Functional

    P. J. Stephens, F. J. Devlin, C. F. Chabalowski, and M. J. Frisch.,  J. Phys. Chem. 98, 11623 (1994) (10.1021/j100096a001)

    Deriv               =              1
    GGA                 =           TRUE
    Meta                =          FALSE

    Exchange Hybrid     =           TRUE
    MP2 Hybrid          =          FALSE

   => Exchange Functionals <=

    0.0800   Slater exchange
    0.7200         Becke 88

   => Exact (HF) Exchange <=

    0.2000               HF 

   => Correlation Functionals <=

    0.1900   Vosko, Wilk & Nusair (VWN5_RPA)
    0.8100   Lee, Yang & Parr

   => LibXC Density Thresholds  <==

    XC_HYB_GGA_XC_B3LYP:  1.00E-15 

   => Molecular Quadrature <=

    Radial Scheme          =       TREUTLER
    Pruning Scheme         =           NONE
    Nuclear Scheme         =       TREUTLER

    Blocking Scheme        =         OCTREE
    BS radius alpha        =              1
    Pruning alpha          =              1
    Radial Points          =             75
    Spherical Points       =            302
    Total Points           =          43376
    Total Blocks           =            390
    Max Points             =            255
    Max Functions          =             60
    Weights Tolerance      =       1.00E-15

   => Loading Basis Set <=

    Name: (CC-PVTZ AUX)
    Role: JKFIT
    Keyword: DF_BASIS_SCF
    atoms 1 entry O          line   229 file /Users/joseantoniorodriguesromero/anaconda3/share/psi4/basis/cc-pvtz-jkfit.gbs 
    atoms 2 entry C          line   125 file /Users/joseantoniorodriguesromero/anaconda3/share/psi4/basis/cc-pvtz-jkfit.gbs 

   => Loading Basis Set <=

    Name: CC-PVTZ
    Role: ORBITAL
    Keyword: BASIS
    atoms 1 entry O          line   262 file /Users/joseantoniorodriguesromero/anaconda3/share/psi4/basis/cc-pvtz.gbs 
    atoms 2 entry C          line   186 file /Users/joseantoniorodriguesromero/anaconda3/share/psi4/basis/cc-pvtz.gbs 

  Reading orbitals from file /tmp/scan_CO_41.default.66899.180.npy, no projection.

  ==> Integral Setup <==

  DFHelper Memory: AOs need 0.005 GiB; user supplied 0.298 GiB. 
  Using in-core AOs.

  ==> MemDFJK: Density-Fitted J/K Matrices <==

    J tasked:                   Yes
    K tasked:                   Yes
    wK tasked:                   No
    OpenMP threads:               1
    Memory [MiB]:               304
    Algorithm:                 Core
    Schwarz Cutoff:           1E-12
    Mask sparsity (%):       0.0000
    Fitting Condition:        1E-10

   => Auxiliary Basis Set <=

  Basis Set: (CC-PVTZ AUX)
    Blend: CC-PVTZ-JKFIT
    Number of shells: 50
    Number of basis functions: 158
    Number of Cartesian functions: 192
    Spherical Harmonics?: true
    Max angular momentum: 4

  Cached 100.0% of DFT collocation blocks in 0.069 [GiB].

  Minimum eigenvalue in the overlap matrix is 2.0321944633E-02.
  Reciprocal condition number of the overlap matrix is 6.7094502778E-03.
    Using symmetric orthogonalization.

  ==> Pre-Iterations <==

  SCF Guess: Orbitals guess was supplied from a previous computation.

   -------------------------------------------------------
    Irrep   Nso     Nmo     Nalpha   Nbeta   Ndocc  Nsocc
   -------------------------------------------------------
     A1        26      26       5       5       5       0
     A2         6       6       0       0       0       0
     B1        14      14       2       1       1       1
     B2        14      14       1       1       1       0
   -------------------------------------------------------
    Total      60      60       8       7       7       1
   -------------------------------------------------------

  ==> Iterations <==

                           Total Energy        Delta E     RMS |[F,P]|

   @DF-UKS iter   0:  -113.09234175959858   -1.13092e+02   2.51155e-11 
   @DF-UKS iter   1:  -113.09234175959853    5.68434e-14   1.91560e-11 DIIS
  Energy and wave function converged.


  ==> Post-Iterations <==

   Electrons on quadrature grid:
      Nalpha   =    8.0000005117 ; deviation = 5.117e-07
      Nbeta    =    7.0000015054 ; deviation = 1.505e-06
      Ntotal   =   15.0000020171 ; deviation = 2.017e-06 

   @Spin Contamination Metric:   8.108091842E-01
   @S^2 Expected:                7.500000000E-01
   @S^2 Observed:                1.560809184E+00
   @S   Expected:                5.000000000E-01
   @S   Observed:                5.000000000E-01

    Orbital Energies [Eh]
    ---------------------

    Alpha Occupied:                                                       

       1A1   -18.852405     2A1   -10.003263     3A1    -0.554267  
       4A1    -0.295065     1B1    -0.018321     5A1    -0.016635  
       1B2     0.015973     2B1     0.040071  

    Alpha Virtual:                                                        

       2B2     0.144596     6A1     0.206806     7A1     0.534265  
       3B1     0.535362     3B2     0.536859     8A1     0.628065  
       4B1     0.844677     4B2     0.861025     9A1     0.861742  
       1A2     0.913970    10A1     0.914105     5B1     1.005662  
       5B2     1.010511    11A1     1.084896    12A1     1.451138  
       2A2     1.787457    13A1     1.791525     6B1     1.841732  
       6B2     1.847427    14A1     1.884924     7B1     2.197671  
       7B2     2.200125    15A1     2.493893     8B1     2.920938  
       8B2     2.920947     3A2     2.930928    16A1     2.931079  
       9B2     2.983830     9B1     2.985736    17A1     3.076278  
       4A2     3.176119    18A1     3.176438    10B1     3.265171  
      10B2     3.266430    19A1     3.456005    11B1     3.922197  
      11B2     3.951351    20A1     4.076875    21A1     4.142027  
       5A2     5.445944    22A1     5.449589    12B1     5.453050  
      12B2     5.454304    13B1     5.477394    13B2     5.480938  
      23A1     5.554262     6A2     6.520496    24A1     6.530267  
      14B1     6.585684    14B2     6.607196    25A1     6.772599  
      26A1     8.199998  

    Beta Occupied:                                                        

       1A1   -18.877627     2A1    -9.976905     3A1    -0.627673  
       4A1    -0.202157     1B2    -0.084383     5A1    -0.040178  
       1B1    -0.022299  

    Beta Virtual:                                                         

       2B2     0.187746     2B1     0.198010     6A1     0.228964  
       7A1     0.557482     3B2     0.592630     3B1     0.600306  
       8A1     0.667893     4B2     0.822619     9A1     0.848021  
       4B1     0.851131     1A2     0.983913    10A1     0.983916  
       5B2     1.023210     5B1     1.035746    11A1     1.097246  
      12A1     1.431878     2A2     1.744753    13A1     1.745086  
       6B2     1.803985     6B1     1.836744    14A1     1.884720  
       7B2     2.271709     7B1     2.280938    15A1     2.521125  
      16A1     3.000896     3A2     3.000983     8B2     3.011175  
       8B1     3.011224     9B2     3.036509     9B1     3.044966  
      17A1     3.117230    18A1     3.291429     4A2     3.291469  
      10B2     3.332072    10B1     3.341473    19A1     3.483373  
      11B2     3.850087    11B1     3.905350    20A1     4.116654  
      21A1     4.133449    12B2     5.389210    12B1     5.393943  
      22A1     5.394638     5A2     5.400302    13B2     5.422950  
      13B1     5.462161    23A1     5.520544    24A1     6.442301  
       6A2     6.444339    14B2     6.507497    14B1     6.559714  
      25A1     6.723437    26A1     8.152502  

    Final Occupation by Irrep:
             A1    A2    B1    B2 
    DOCC [     5,    0,    1,    1 ]
    SOCC [     0,    0,    1,    0 ]
    NA   [     5,    0,    2,    1 ]
    NB   [     5,    0,    1,    1 ]

  @DF-UKS Final Energy:  -113.09234175959853

   => Energetics <=

    Nuclear Repulsion Energy =             12.3102698619871749
    One-Electron Energy =                -183.1707841168198456
    Two-Electron Energy =                  69.0469849454534881
    DFT Exchange-Correlation Energy =     -11.2788124502193359
    Empirical Dispersion Energy =           0.0000000000000000
    VV10 Nonlocal Energy =                  0.0000000000000000
    Total Energy =                       -113.0923417595985256

  UHF NO Occupations:
  HONO-2 :    5 A1 1.9714525
  HONO-1 :    1 B2 1.4984035
  HONO-0 :    2 B1 1.0000000
  LUNO+0 :    2 B2 0.5015965
  LUNO+1 :    6 A1 0.0285475
  LUNO+2 :    7 A1 0.0009976
  LUNO+3 :    8 A1 0.0003303


Computation Completed


Properties will be evaluated at   0.000000,   0.000000,   0.000000 [a0]

Properties computed using the B3LYP density matrix


 Multipole Moments:

 ------------------------------------------------------------------------------------
     Multipole            Electronic (a.u.)      Nuclear  (a.u.)        Total (a.u.)
 ------------------------------------------------------------------------------------

 L = 1.  Multiply by 2.5417464519 to convert [e a0] to [Debye]
 Dipole X            :          0.0000000            0.0000000            0.0000000
 Dipole Y            :          0.0000000            0.0000000            0.0000000
 Dipole Z            :         -0.2910555           -0.0042498           -0.2953053
 Magnitude           :                                                    0.2953053

 L = 2.  Multiply by 1.3450342976 to convert [e a0^2] to [Debye ang]
 Quadrupole XX       :        -11.2113111            0.0000000          -11.2113111
 Quadrupole XY       :          0.0000000            0.0000000            0.0000000
 Quadrupole XZ       :          0.0000000            0.0000000            0.0000000
 Quadrupole YY       :        -10.2589087            0.0000000          -10.2589087
 Quadrupole YZ       :          0.0000000            0.0000000            0.0000000
 Quadrupole ZZ       :        -67.2886506           52.1267370          -15.1619135
 Traceless XX        :         18.3749790          -17.3755790            0.9994000
 Traceless YY        :         19.3273814          -17.3755790            1.9518024
 Traceless ZZ        :        -37.7023604           34.7511580           -2.9512024

 ------------------------------------------------------------------------------------
  ==> Computing MBIS Charges <==

  Electron Count from Grid (Expected Number): 15.00000 (15.00000)
  Difference:  0.00000

  MBIS Charges: (a.u.)
   Center  Symbol  Z      Pop.       Charge
      1       O    8    8.518145   -0.518145
      2       C    6    6.481857   -0.481857

  MBIS Dipoles: [e a0]
   Center  Symbol  Z        X           Y           Z
      1       O    8   -0.000000   -0.000000    0.064098
      2       C    6   -0.000000    0.000000   -0.151936

  MBIS Quadrupoles: [e a0^2]
   Center  Symbol  Z      XX        XY        XZ        YY        YZ        ZZ
      1       O    8   -4.9283   -0.0000   -0.0000   -4.2342   -0.0000   -4.5659
      2       C    6   -6.2830    0.0000    0.0000   -6.0247    0.0000   -5.8659

  MBIS Octupoles: [e a0^3]
   Center  Symbol  Z      XXX       XXY       XXZ       XYY       XYZ       XZZ       YYY       YYZ       YZZ       ZZZ
      1       O    8   -0.0000   -0.0000    0.0755   -0.0000    0.0000   -0.0000   -0.0000   -0.0482    0.0000    0.0315
      2       C    6   -0.0000   -0.0000   -0.1180   -0.0000    0.0000   -0.0000    0.0000   -0.1241    0.0000    0.5634

  MBIS Radial Moments:
   Center  Symbol  Z      [a0^2]      [a0^3]      [a0^4]      
      1       O    8   13.728302   27.579009   66.096758
      2       C    6   18.173654   49.140027   156.683765

  MBIS Valence Widths: [a0]
   Center  Symbol  Z     Width
      1       O    8    0.409444
      2       C    6    0.568280

*** tstop() called on Mac.lan at Wed Aug 27 10:08:18 2025
Module time:
	user time   =      20.35 seconds =       0.34 minutes
	system time =       2.06 seconds =       0.03 minutes
	total time  =          3 seconds =       0.05 minutes
Total time:
	user time   =      90.29 seconds =       1.50 minutes
	system time =       5.14 seconds =       0.09 minutes
	total time  =         10 seconds =       0.17 minutes

    Psi4 stopped on: Wednesday, 27 August 2025 10:08AM
    Psi4 wall time for execution: 0:00:09.55

*** Psi4 exiting successfully. Buy a developer a beer!
