
    -----------------------------------------------------------------------
          Psi4: An Open-Source Ab Initio Electronic Structure Package
                               Psi4 1.10 release

                         Git: Rev {} zzzzzzz 


    D. G. A. Smith, L. A. Burns, A. C. Simmonett, R. M. Parrish,
    M. C. Schieber, R. Galvelis, P. Kraus, H. Kruse, R. Di Remigio,
    A. Alenaizan, A. M. James, S. Lehtola, J. P. Misiewicz, M. Scheurer,
    R. A. Shaw, J. B. Schriber, Y. Xie, Z. L. Glick, D. A. Sirianni,
    J. S. O'Brien, J. M. Waldrop, A. Kumar, E. G. Hohenstein,
    B. P. Pritchard, B. R. Brooks, H. F. Schaefer III, A. Yu. Sokolov,
    K. Patkowski, A. E. DePrince III, U. Bozkaya, R. A. King,
    F. A. Evangelista, J. M. Turney, T. D. Crawford, C. D. Sherrill,
    J. Chem. Phys. 152(18) 184108 (2020). https://doi.org/10.1063/5.0006002

                            Additional Code Authors
    E. T. Seidl, C. L. Janssen, E. F. Valeev, M. L. Leininger,
    J. F. Gonthier, R. M. Richard, H. R. McAlexander, M. Saitow, X. Wang,
    P. Verma, M. H. Lechner, A. Jiang, S. Behnle, A. G. Heide,
    M. F. Herbst, D. L. Poole, T. Győri, E. C. Mitchell, J. P. Pederson,
    and A. M. Wallace

             Previous Authors, Complete List of Code Contributors,
                       and Citations for Specific Modules
    https://github.com/psi4/psi4/blob/master/codemeta.json
    https://github.com/psi4/psi4/graphs/contributors
    https://psicode.org/psi4manual/master/introduction.html#citing-psifour

    -----------------------------------------------------------------------


    Psi4 started on: Tuesday, 23 December 2025 01:37PM

    Process ID: 494436
    Host:       cics-quant-001
    PSIDATADIR: /home/jrodriguesro/psi4conda/share/psi4
    Memory:     500.0 MiB
    Threads:    6
    Addons:     adcc, a̶m̶b̶i̶t̶, b̶s̶e̶, c̶c̶t̶3̶, c̶f̶o̶u̶r̶, c̶h̶e̶m̶p̶s̶2̶, c̶p̶p̶e̶, ddx, dftd3, dftd4,
                dkh, ecpint, einsums, f̶o̶r̶t̶e̶, g̶a̶u̶x̶c̶, gcp, g̶d̶m̶a̶, geometric,
                g̶p̶u̶_̶d̶f̶c̶c̶, i̶n̶t̶e̶g̶r̶a̶t̶o̶r̶x̶x̶, i̶p̶i̶, libefp, m̶d̶i̶, m̶p̶2̶d̶,
                m̶r̶c̶c̶, ooo, o̶p̶e̶n̶f̶e̶r̶m̶i̶o̶n̶p̶s̶i̶4̶, pcmsolver, p̶s̶i̶4̶f̶o̶c̶k̶c̶i̶,
                p̶s̶i̶x̶a̶s̶, r̶e̶s̶p̶, s̶i̶m̶i̶n̶t̶, s̶n̶s̶m̶p̶2̶, v̶2̶r̶d̶m̶_̶c̶a̶s̶s̶c̶f̶

  ==> Input File <==

--------------------------------------------------------------------------
memory 8 Gb

molecule { 
-1 2
C           0.000000           0.000000           0.000000
C           0.000000           0.000000           0.420548
}

set { 
basis              cc-pvtz
reference          uks
maxiter            500
DAMPING_PERCENTAGE 1
E_CONVERGENCE      1.0E-8
D_CONVERGENCE      1.0E-8
DIIS_MAX_VECS      400
MBIS_MAXITER       8000
guess              read
}

E, wfn = energy('b3lyp', restart_file='last_wfn', return_wfn=True)
properties('b3lyp','MBIS_CHARGES', wfn=wfn)
wfn.to_file('last_wfn')
--------------------------------------------------------------------------

  Memory set to   7.451 GiB by Python driver.

Scratch directory: /tmp/
 Found user provided orbital data. Setting orbital guess to READ 
 Copying restart file <last_wfn.npy> to </tmp/scan_CC_2.default.494436.180.npy> for internal processing
   => Libint2 <=

    Primary   basis highest AM E, G, H:  6, 6, 3
    Auxiliary basis highest AM E, G, H:  7, 7, 4
    Onebody   basis highest AM E, G, H:  -, -, -
    Solid Harmonics ordering:            Gaussian

*** tstart() called on cics-quant-001
*** at Tue Dec 23 13:37:34 2025

   => Loading Basis Set <=

    Name: CC-PVTZ
    Role: ORBITAL
    Keyword: BASIS
    atoms 1-2 entry C          line   186 file /home/jrodriguesro/psi4conda/share/psi4/basis/cc-pvtz.gbs 


         ---------------------------------------------------------
                                   SCF
               by Justin Turney, Rob Parrish, Andy Simmonett
                          and Daniel G. A. Smith
                              UKS Reference
                        6 Threads,   7629 MiB Core
         ---------------------------------------------------------

  ==> Geometry <==

    Molecular point group: d2h
    Full point group: D_inf_h

    Geometry (in Angstrom), charge = -1, multiplicity = 2:

       Center              X                  Y                   Z               Mass       
    ------------   -----------------  -----------------  -----------------  -----------------
         C            0.000000000000     0.000000000000    -0.210274000000    12.000000000000
         C            0.000000000000     0.000000000000     0.210274000000    12.000000000000

  Running in d2h symmetry.

  Rotational constants: A = ************  B =     15.88598  C =     15.88598 [cm^-1]
  Rotational constants: A = ************  B = 476249.79864  C = 476249.79864 [MHz]
  Nuclear repulsion =   45.298942294625121

  Charge       = -1
  Multiplicity = 2
  Electrons    = 13
  Nalpha       = 7
  Nbeta        = 6

  ==> Algorithm <==

  SCF Algorithm Type is DF.
  DIIS enabled.
  MOM disabled.
  Fractional occupation disabled.
  Guess Type is READ.
  Energy threshold   = 1.00e-08
  Density threshold  = 1.00e-08
  Integral threshold = 1.00e-12

  ==> Primary Basis <==

  Basis Set: CC-PVTZ
    Blend: CC-PVTZ
    Number of shells: 20
    Number of basis functions: 60
    Number of Cartesian functions: 70
    Spherical Harmonics?: true
    Max angular momentum: 3

  ==> DFT Potential <==

   => LibXC <=

    Version 7.0.0
    S. Lehtola, C. Steigemann, M. J.T. Oliveira, and M. A.L. Marques.,  SoftwareX 7, 1–5 (2018) (10.1016/j.softx.2017.11.002)

   => Composite Functional: B3LYP <= 

    B3LYP Hyb-GGA Exchange-Correlation Functional

    P. J. Stephens, F. J. Devlin, C. F. Chabalowski, and M. J. Frisch.,  J. Phys. Chem. 98, 11623 (1994) (10.1021/j100096a001)

    Deriv               =              1
    GGA                 =           TRUE
    Meta                =          FALSE

    Exchange Hybrid     =           TRUE
    MP2 Hybrid          =          FALSE

   => Exchange Functionals <=

    0.0800   Slater exchange
    0.7200         Becke 88

   => Exact (HF) Exchange <=

    0.2000               HF 

   => Correlation Functionals <=

    0.1900   Vosko, Wilk & Nusair (VWN5_RPA)
    0.8100   Lee, Yang & Parr

   => LibXC Density Thresholds  <==

    XC_HYB_GGA_XC_B3LYP:  1.00E-15 

   => Molecular Quadrature <=

    Radial Scheme          =       TREUTLER
    Pruning Scheme         =           NONE
    Nuclear Scheme         =       TREUTLER

    Blocking Scheme        =         OCTREE
    BS radius alpha        =              1
    Pruning alpha          =              1
    Radial Points          =             75
    Spherical Points       =            302
    Total Points           =          42612
    Total Blocks           =            382
    Max Points             =            255
    Max Functions          =             60
    Weights Tolerance      =       1.00E-15

   => Loading Basis Set <=

    Name: (CC-PVTZ AUX)
    Role: JKFIT
    Keyword: DF_BASIS_SCF
    atoms 1-2 entry C          line   125 file /home/jrodriguesro/psi4conda/share/psi4/basis/cc-pvtz-jkfit.gbs 

   => Loading Basis Set <=

    Name: CC-PVTZ
    Role: ORBITAL
    Keyword: BASIS
    atoms 1-2 entry C          line   186 file /home/jrodriguesro/psi4conda/share/psi4/basis/cc-pvtz.gbs 

  Reading orbitals from file /tmp/scan_CC_2.default.494436.180.npy, no projection.

  ==> Integral Setup <==

  DFHelper Memory: AOs need 0.005 GiB; user supplied 5.515 GiB. 
  SCF_SUBTYPE=INCORE selected. In-core MEM_DF algorithm will be used.
  Using in-core AOs.

  ==> MemDFJK: Density-Fitted J/K Matrices <==

    J tasked:                   Yes
    K tasked:                   Yes
    wK tasked:                   No
    OpenMP threads:               6
    Memory [MiB]:              5647
    Algorithm:                 Core
    Schwarz Cutoff:           1E-12
    Mask sparsity (%):       0.0000
    Fitting Condition:        1E-10

   => Auxiliary Basis Set <=

  Basis Set: (CC-PVTZ AUX)
    Blend: CC-PVTZ-JKFIT
    Number of shells: 50
    Number of basis functions: 158
    Number of Cartesian functions: 192
    Spherical Harmonics?: true
    Max angular momentum: 4

  Cached 100.0% of DFT collocation blocks in 0.073 [GiB].

  Minimum eigenvalue in the overlap matrix is 4.4279192819E-04.
  Reciprocal condition number of the overlap matrix is 1.0534205150E-04.
    Using symmetric orthogonalization.

  ==> Pre-Iterations <==

  SCF Guess: Orbitals guess was supplied from a previous computation.

   -------------------------------------------------------
    Irrep   Nso     Nmo     Nalpha   Nbeta   Ndocc  Nsocc
   -------------------------------------------------------
     Ag        13      13       3       2       2       1
     B1g        3       3       0       0       0       0
     B2g        7       7       0       0       0       0
     B3g        7       7       0       0       0       0
     Au         3       3       0       0       0       0
     B1u       13      13       2       2       2       0
     B2u        7       7       1       1       1       0
     B3u        7       7       1       1       1       0
   -------------------------------------------------------
    Total      60      60       7       6       6       1
   -------------------------------------------------------

  ==> Iterations <==

                           Total Energy        Delta E     RMS |[F,P]|

   @DF-UKS iter   0:   -68.32415613194955   -6.83242e+01   3.00842e-02 
   @DF-UKS iter   1:   -68.87437610293941   -5.50220e-01   7.65553e-03 DIIS/ADIIS
   @DF-UKS iter   2:   -68.88750311771088   -1.31270e-02   7.32042e-03 DIIS/ADIIS/DAMP=1%
   @DF-UKS iter   3:   -68.90854248618568   -2.10394e-02   4.52943e-04 DIIS/ADIIS/DAMP=1%
   @DF-UKS iter   4:   -68.90312313342397    5.41935e-03   6.23365e-05 DIIS/DAMP=1%
   @DF-UKS iter   5:   -68.90284684048598    2.76293e-04   1.11636e-05 DIIS/DAMP=1%
   @DF-UKS iter   6:   -68.90279816292795    4.86776e-05   2.25202e-06 DIIS/DAMP=1%
   @DF-UKS iter   7:   -68.90279509647880    3.06645e-06   3.05541e-07 DIIS/DAMP=1%
   @DF-UKS iter   8:   -68.90279683832890   -1.74185e-06   1.99255e-08 DIIS/DAMP=1%
   @DF-UKS iter   9:   -68.90279664722746    1.91101e-07   7.93295e-10 DIIS/DAMP=1%
   @DF-UKS iter  10:   -68.90279664952718   -2.29971e-09   1.09802e-10 DIIS/DAMP=1%
  Energy and wave function converged.


  ==> Post-Iterations <==

   Electrons on quadrature grid:
      Nalpha   =    6.9999998758 ; deviation = -1.242e-07
      Nbeta    =    5.9999998767 ; deviation = -1.233e-07
      Ntotal   =   12.9999997525 ; deviation = -2.475e-07 

   @Spin Contamination Metric:   6.056013808E-03
   @S^2 Expected:                7.500000000E-01
   @S^2 Observed:                7.560560138E-01
   @S   Expected:                5.000000000E-01
   @S   Observed:                5.000000000E-01

    Orbital Energies [Eh]
    ---------------------

    Alpha Occupied:                                                       

       1Ag   -12.072686     1B1u  -10.112025     1B2u   -0.644647  
       1B3u   -0.644647     2Ag    -0.495219     2B1u    0.022668  
       3Ag     0.303223  

    Alpha Virtual:                                                        

       3B1u    0.370841     2B2u    0.378276     2B3u    0.378276  
       1B3g    0.415643     1B2g    0.415643     4Ag     0.589542  
       5Ag     0.726048     1B1g    0.851788     6Ag     0.851788  
       2B3g    0.878560     2B2g    0.878560     4B1u    0.980233  
       3B2u    1.228454     3B3u    1.228454     5B1u    1.235985  
       1Au     1.235985     6B1u    1.244575     4B2u    1.544570  
       4B3u    1.544570     7Ag     1.612927     3B3g    1.680898  
       3B2g    1.680898     8Ag     2.382789     9Ag     2.673672  
       2B1g    2.673672     7B1u    2.725462     5B3u    2.733223  
       5B2u    2.733223     8B1u    3.022027     9B1u    3.055419  
       2Au     3.055420     6B2u    3.099265     6B3u    3.099265  
       4B3g    3.267559     4B2g    3.267559    10Ag     3.632008  
       5B2g    3.668144     5B3g    3.668144     3B1g    3.680205  
      11Ag     3.680205    12Ag     3.706767     6B3g    3.722609  
       6B2g    3.722609    10B1u    5.668159    13Ag     5.851490  
       3Au     5.900229    11B1u    5.900229     7B3u    6.280420  
       7B2u    6.280420     7B3g    8.028848     7B2g    8.028848  
      12B1u    9.618962    13B1u   29.224229  

    Beta Occupied:                                                        

       1Ag   -12.070277     1B1u  -10.109415     1B2u   -0.636660  
       1B3u   -0.636660     2Ag    -0.490940     2B1u    0.035288  

    Beta Virtual:                                                         

       2B2u    0.382558     2B3u    0.382558     3Ag     0.397278  
       3B1u    0.404192     1B3g    0.435420     1B2g    0.435420  
       4Ag     0.587920     5Ag     0.742649     6Ag     0.851511  
       1B1g    0.851512     2B3g    0.882466     2B2g    0.882466  
       4B1u    0.991136     1Au     1.239387     5B1u    1.239387  
       3B2u    1.243512     3B3u    1.243512     6B1u    1.274279  
       4B2u    1.551680     4B3u    1.551680     7Ag     1.627054  
       3B3g    1.692309     3B2g    1.692309     8Ag     2.389073  
       9Ag     2.681312     2B1g    2.681313     7B1u    2.732711  
       5B3u    2.736659     5B2u    2.736659     8B1u    3.025706  
       2Au     3.054128     9B1u    3.054128     6B2u    3.101800  
       6B3u    3.101800     4B3g    3.271603     4B2g    3.271603  
      10Ag     3.637568     5B2g    3.665402     5B3g    3.665402  
       3B1g    3.678579    11Ag     3.678579    12Ag     3.707386  
       6B3g    3.723060     6B2g    3.723060    10B1u    5.674433  
      13Ag     5.856498     3Au     5.902073    11B1u    5.902073  
       7B3u    6.287040     7B2u    6.287040     7B3g    8.029613  
       7B2g    8.029613    12B1u    9.618991    13B1u   29.227309  

    Final Occupation by Irrep:
             Ag   B1g   B2g   B3g    Au   B1u   B2u   B3u 
    DOCC [     2,    0,    0,    0,    0,    2,    1,    1 ]
    SOCC [     1,    0,    0,    0,    0,    0,    0,    0 ]
    NA   [     3,    0,    0,    0,    0,    2,    1,    1 ]
    NB   [     2,    0,    0,    0,    0,    2,    1,    1 ]

  @DF-UKS Final Energy:   -68.90279664952718

   => Energetics <=

    Nuclear Repulsion Energy =             45.2989422946251210
    One-Electron Energy =                -173.8619681647066955
    Two-Electron Energy =                  69.3986917073952867
    DFT Exchange-Correlation Energy =      -9.7384624868409020
    Empirical Dispersion Energy =           0.0000000000000000
    VV10 Nonlocal Energy =                  0.0000000000000000
    Total Energy =                        -68.9027966495271755

  UHF NO Occupations:
  HONO-2 :    2 Ag 1.9999466
  HONO-1 :    2B1u 1.9970295
  HONO-0 :    3 Ag 1.0000000
  LUNO+0 :    3B1u 0.0029705
  LUNO+1 :    4 Ag 0.0000534
  LUNO+2 :    2B3u 0.0000042
  LUNO+3 :    2B2u 0.0000042


Computation Completed


Properties will be evaluated at   0.000000,   0.000000,   0.000000 [a0]

Properties computed using the SCF density matrix


 Multipole Moments:

 ------------------------------------------------------------------------------------
     Multipole            Electronic (a.u.)      Nuclear  (a.u.)        Total (a.u.)
 ------------------------------------------------------------------------------------

 L = 1.  Multiply by 2.5417464519 to convert [e a0] to [Debye]
 Dipole X            :          0.0000000            0.0000000            0.0000000
 Dipole Y            :          0.0000000            0.0000000            0.0000000
 Dipole Z            :          0.0000000            0.0000000            0.0000000
 Magnitude           :                                                    0.0000000

 ------------------------------------------------------------------------------------

*** tstop() called on cics-quant-001 at Tue Dec 23 13:37:34 2025
Module time:
	user time   =       1.31 seconds =       0.02 minutes
	system time =       0.05 seconds =       0.00 minutes
	total time  =          0 seconds =       0.00 minutes
Total time:
	user time   =       1.31 seconds =       0.02 minutes
	system time =       0.05 seconds =       0.00 minutes
	total time  =          0 seconds =       0.00 minutes

*** tstart() called on cics-quant-001
*** at Tue Dec 23 13:37:34 2025

   => Libint2 <=

    Primary   basis highest AM E, G, H:  6, 6, 3
    Auxiliary basis highest AM E, G, H:  7, 7, 4
    Onebody   basis highest AM E, G, H:  -, -, -
    Solid Harmonics ordering:            Gaussian
   => Loading Basis Set <=

    Name: CC-PVTZ
    Role: ORBITAL
    Keyword: BASIS
    atoms 1-2 entry C          line   186 file /home/jrodriguesro/psi4conda/share/psi4/basis/cc-pvtz.gbs 


         ---------------------------------------------------------
                                   SCF
               by Justin Turney, Rob Parrish, Andy Simmonett
                          and Daniel G. A. Smith
                              UKS Reference
                        6 Threads,   7629 MiB Core
         ---------------------------------------------------------

  ==> Geometry <==

    Molecular point group: d2h
    Full point group: D_inf_h

    Geometry (in Angstrom), charge = -1, multiplicity = 2:

       Center              X                  Y                   Z               Mass       
    ------------   -----------------  -----------------  -----------------  -----------------
         C            0.000000000000     0.000000000000    -0.210274000000    12.000000000000
         C            0.000000000000     0.000000000000     0.210274000000    12.000000000000

  Running in d2h symmetry.

  Rotational constants: A = ************  B =     15.88598  C =     15.88598 [cm^-1]
  Rotational constants: A = ************  B = 476249.79864  C = 476249.79864 [MHz]
  Nuclear repulsion =   45.298942294625121

  Charge       = -1
  Multiplicity = 2
  Electrons    = 13
  Nalpha       = 7
  Nbeta        = 6

  ==> Algorithm <==

  SCF Algorithm Type is DF.
  DIIS enabled.
  MOM disabled.
  Fractional occupation disabled.
  Guess Type is READ.
  Energy threshold   = 1.00e-08
  Density threshold  = 1.00e-08
  Integral threshold = 1.00e-12

  ==> Primary Basis <==

  Basis Set: CC-PVTZ
    Blend: CC-PVTZ
    Number of shells: 20
    Number of basis functions: 60
    Number of Cartesian functions: 70
    Spherical Harmonics?: true
    Max angular momentum: 3

  ==> DFT Potential <==

   => LibXC <=

    Version 7.0.0
    S. Lehtola, C. Steigemann, M. J.T. Oliveira, and M. A.L. Marques.,  SoftwareX 7, 1–5 (2018) (10.1016/j.softx.2017.11.002)

   => Composite Functional: B3LYP <= 

    B3LYP Hyb-GGA Exchange-Correlation Functional

    P. J. Stephens, F. J. Devlin, C. F. Chabalowski, and M. J. Frisch.,  J. Phys. Chem. 98, 11623 (1994) (10.1021/j100096a001)

    Deriv               =              1
    GGA                 =           TRUE
    Meta                =          FALSE

    Exchange Hybrid     =           TRUE
    MP2 Hybrid          =          FALSE

   => Exchange Functionals <=

    0.0800   Slater exchange
    0.7200         Becke 88

   => Exact (HF) Exchange <=

    0.2000               HF 

   => Correlation Functionals <=

    0.1900   Vosko, Wilk & Nusair (VWN5_RPA)
    0.8100   Lee, Yang & Parr

   => LibXC Density Thresholds  <==

    XC_HYB_GGA_XC_B3LYP:  1.00E-15 

   => Molecular Quadrature <=

    Radial Scheme          =       TREUTLER
    Pruning Scheme         =           NONE
    Nuclear Scheme         =       TREUTLER

    Blocking Scheme        =         OCTREE
    BS radius alpha        =              1
    Pruning alpha          =              1
    Radial Points          =             75
    Spherical Points       =            302
    Total Points           =          42612
    Total Blocks           =            382
    Max Points             =            255
    Max Functions          =             60
    Weights Tolerance      =       1.00E-15

   => Loading Basis Set <=

    Name: (CC-PVTZ AUX)
    Role: JKFIT
    Keyword: DF_BASIS_SCF
    atoms 1-2 entry C          line   125 file /home/jrodriguesro/psi4conda/share/psi4/basis/cc-pvtz-jkfit.gbs 

   => Loading Basis Set <=

    Name: CC-PVTZ
    Role: ORBITAL
    Keyword: BASIS
    atoms 1-2 entry C          line   186 file /home/jrodriguesro/psi4conda/share/psi4/basis/cc-pvtz.gbs 

  Reading orbitals from file /tmp/scan_CC_2.default.494436.180.npy, no projection.

  ==> Integral Setup <==

  DFHelper Memory: AOs need 0.005 GiB; user supplied 5.515 GiB. 
  SCF_SUBTYPE=INCORE selected. In-core MEM_DF algorithm will be used.
  Using in-core AOs.

  ==> MemDFJK: Density-Fitted J/K Matrices <==

    J tasked:                   Yes
    K tasked:                   Yes
    wK tasked:                   No
    OpenMP threads:               6
    Memory [MiB]:              5647
    Algorithm:                 Core
    Schwarz Cutoff:           1E-12
    Mask sparsity (%):       0.0000
    Fitting Condition:        1E-10

   => Auxiliary Basis Set <=

  Basis Set: (CC-PVTZ AUX)
    Blend: CC-PVTZ-JKFIT
    Number of shells: 50
    Number of basis functions: 158
    Number of Cartesian functions: 192
    Spherical Harmonics?: true
    Max angular momentum: 4

  Cached 100.0% of DFT collocation blocks in 0.073 [GiB].

  Minimum eigenvalue in the overlap matrix is 4.4279192819E-04.
  Reciprocal condition number of the overlap matrix is 1.0534205150E-04.
    Using symmetric orthogonalization.

  ==> Pre-Iterations <==

  SCF Guess: Orbitals guess was supplied from a previous computation.

   -------------------------------------------------------
    Irrep   Nso     Nmo     Nalpha   Nbeta   Ndocc  Nsocc
   -------------------------------------------------------
     Ag        13      13       3       2       2       1
     B1g        3       3       0       0       0       0
     B2g        7       7       0       0       0       0
     B3g        7       7       0       0       0       0
     Au         3       3       0       0       0       0
     B1u       13      13       2       2       2       0
     B2u        7       7       1       1       1       0
     B3u        7       7       1       1       1       0
   -------------------------------------------------------
    Total      60      60       7       6       6       1
   -------------------------------------------------------

  ==> Iterations <==

                           Total Energy        Delta E     RMS |[F,P]|

   @DF-UKS iter   0:   -68.90279664931845   -6.89028e+01   4.93496e-12 
   @DF-UKS iter   1:   -68.90279664931839    5.68434e-14   1.53259e-12 DIIS
  Energy and wave function converged.


  ==> Post-Iterations <==

   Electrons on quadrature grid:
      Nalpha   =    6.9999998758 ; deviation = -1.242e-07
      Nbeta    =    5.9999998767 ; deviation = -1.233e-07
      Ntotal   =   12.9999997525 ; deviation = -2.475e-07 

   @Spin Contamination Metric:   6.056013798E-03
   @S^2 Expected:                7.500000000E-01
   @S^2 Observed:                7.560560138E-01
   @S   Expected:                5.000000000E-01
   @S   Observed:                5.000000000E-01

    Orbital Energies [Eh]
    ---------------------

    Alpha Occupied:                                                       

       1Ag   -12.072686     1B1u  -10.112025     1B2u   -0.644647  
       1B3u   -0.644647     2Ag    -0.495219     2B1u    0.022668  
       3Ag     0.303223  

    Alpha Virtual:                                                        

       3B1u    0.370841     2B2u    0.378276     2B3u    0.378276  
       1B3g    0.415643     1B2g    0.415643     4Ag     0.589542  
       5Ag     0.726048     1B1g    0.851788     6Ag     0.851788  
       2B3g    0.878560     2B2g    0.878560     4B1u    0.980233  
       3B2u    1.228454     3B3u    1.228454     5B1u    1.235985  
       1Au     1.235985     6B1u    1.244575     4B2u    1.544570  
       4B3u    1.544570     7Ag     1.612927     3B3g    1.680898  
       3B2g    1.680898     8Ag     2.382789     9Ag     2.673672  
       2B1g    2.673672     7B1u    2.725462     5B3u    2.733223  
       5B2u    2.733223     8B1u    3.022027     9B1u    3.055419  
       2Au     3.055420     6B2u    3.099265     6B3u    3.099265  
       4B3g    3.267559     4B2g    3.267559    10Ag     3.632008  
       5B2g    3.668144     5B3g    3.668144     3B1g    3.680205  
      11Ag     3.680205    12Ag     3.706767     6B3g    3.722609  
       6B2g    3.722609    10B1u    5.668159    13Ag     5.851490  
       3Au     5.900229    11B1u    5.900229     7B3u    6.280420  
       7B2u    6.280420     7B3g    8.028848     7B2g    8.028848  
      12B1u    9.618962    13B1u   29.224229  

    Beta Occupied:                                                        

       1Ag   -12.070277     1B1u  -10.109415     1B2u   -0.636660  
       1B3u   -0.636660     2Ag    -0.490940     2B1u    0.035288  

    Beta Virtual:                                                         

       2B2u    0.382558     2B3u    0.382558     3Ag     0.397278  
       3B1u    0.404192     1B3g    0.435420     1B2g    0.435420  
       4Ag     0.587920     5Ag     0.742649     6Ag     0.851511  
       1B1g    0.851512     2B3g    0.882466     2B2g    0.882466  
       4B1u    0.991136     1Au     1.239387     5B1u    1.239387  
       3B2u    1.243512     3B3u    1.243512     6B1u    1.274279  
       4B2u    1.551680     4B3u    1.551680     7Ag     1.627054  
       3B3g    1.692309     3B2g    1.692309     8Ag     2.389073  
       9Ag     2.681312     2B1g    2.681313     7B1u    2.732711  
       5B3u    2.736659     5B2u    2.736659     8B1u    3.025706  
       2Au     3.054128     9B1u    3.054128     6B2u    3.101800  
       6B3u    3.101800     4B3g    3.271603     4B2g    3.271603  
      10Ag     3.637568     5B2g    3.665402     5B3g    3.665402  
       3B1g    3.678579    11Ag     3.678579    12Ag     3.707386  
       6B3g    3.723060     6B2g    3.723060    10B1u    5.674433  
      13Ag     5.856498     3Au     5.902073    11B1u    5.902073  
       7B3u    6.287040     7B2u    6.287040     7B3g    8.029613  
       7B2g    8.029613    12B1u    9.618991    13B1u   29.227309  

    Final Occupation by Irrep:
             Ag   B1g   B2g   B3g    Au   B1u   B2u   B3u 
    DOCC [     2,    0,    0,    0,    0,    2,    1,    1 ]
    SOCC [     1,    0,    0,    0,    0,    0,    0,    0 ]
    NA   [     3,    0,    0,    0,    0,    2,    1,    1 ]
    NB   [     2,    0,    0,    0,    0,    2,    1,    1 ]

  @DF-UKS Final Energy:   -68.90279664931839

   => Energetics <=

    Nuclear Repulsion Energy =             45.2989422946251210
    One-Electron Energy =                -173.8619681769061458
    Two-Electron Energy =                  69.3986917210359593
    DFT Exchange-Correlation Energy =      -9.7384624880733526
    Empirical Dispersion Energy =           0.0000000000000000
    VV10 Nonlocal Energy =                  0.0000000000000000
    Total Energy =                        -68.9027966493184039

  UHF NO Occupations:
  HONO-2 :    2 Ag 1.9999466
  HONO-1 :    2B1u 1.9970295
  HONO-0 :    3 Ag 1.0000000
  LUNO+0 :    3B1u 0.0029705
  LUNO+1 :    4 Ag 0.0000534
  LUNO+2 :    2B2u 0.0000042
  LUNO+3 :    2B3u 0.0000042


Computation Completed


Properties will be evaluated at   0.000000,   0.000000,   0.000000 [a0]

Properties computed using the B3LYP density matrix


 Multipole Moments:

 ------------------------------------------------------------------------------------
     Multipole            Electronic (a.u.)      Nuclear  (a.u.)        Total (a.u.)
 ------------------------------------------------------------------------------------

 L = 1.  Multiply by 2.5417464519 to convert [e a0] to [Debye]
 Dipole X            :          0.0000000            0.0000000            0.0000000
 Dipole Y            :          0.0000000            0.0000000            0.0000000
 Dipole Z            :          0.0000000            0.0000000            0.0000000
 Magnitude           :                                                    0.0000000

 L = 2.  Multiply by 1.3450342976 to convert [e a0^2] to [Debye ang]
 Quadrupole XX       :         -8.3914226            0.0000000           -8.3914226
 Quadrupole XY       :          0.0000000            0.0000000            0.0000000
 Quadrupole XZ       :          0.0000000            0.0000000            0.0000000
 Quadrupole YY       :         -8.3914226            0.0000000           -8.3914226
 Quadrupole YZ       :          0.0000000            0.0000000            0.0000000
 Quadrupole ZZ       :        -22.0995995            1.8947422          -20.2048573
 Traceless XX        :          4.5693923           -0.6315807            3.9378116
 Traceless YY        :          4.5693923           -0.6315807            3.9378116
 Traceless ZZ        :         -9.1387846            1.2631615           -7.8756231

 ------------------------------------------------------------------------------------
  ==> Computing MBIS Charges <==

  Electron Count from Grid (Expected Number): 13.00000 (13.00000)
  Difference:  0.00000

  MBIS Charges: (a.u.)
   Center  Symbol  Z      Pop.       Charge
      1       C    6    6.500001   -0.500001
      2       C    6    6.500001   -0.500001

  MBIS Dipoles: [e a0]
   Center  Symbol  Z        X           Y           Z
      1       C    6   -0.000000   -0.000000    0.598452
      2       C    6   -0.000000   -0.000000   -0.598452

  MBIS Quadrupoles: [e a0^2]
   Center  Symbol  Z      XX        XY        XZ        YY        YZ        ZZ
      1       C    6   -4.1957    0.0000   -0.0000   -4.1957    0.0000   -9.5479
      2       C    6   -4.1957    0.0000    0.0000   -4.1957   -0.0000   -9.5479

  MBIS Octupoles: [e a0^3]
   Center  Symbol  Z      XXX       XXY       XXZ       XYY       XYZ       XZZ       YYY       YYZ       YZZ       ZZZ
      1       C    6   -0.0000   -0.0000    1.5731   -0.0000   -0.0000   -0.0000   -0.0000    1.5731   -0.0000    6.4877
      2       C    6   -0.0000   -0.0000   -1.5731   -0.0000    0.0000   -0.0000   -0.0000   -1.5731   -0.0000   -6.4877

  MBIS Radial Moments:
   Center  Symbol  Z      [a0^2]      [a0^3]      [a0^4]      
      1       C    6   17.939302   55.988931   212.883982
      2       C    6   17.939302   55.988931   212.883982

  MBIS Valence Widths: [a0]
   Center  Symbol  Z     Width
      1       C    6    0.540436
      2       C    6    0.540436


  MBIS Valence Charges: (a.u.)
   Center  Symbol  Z     Charge
      1       C    6   -4.645430
      2       C    6   -4.645430

*** tstop() called on cics-quant-001 at Tue Dec 23 13:37:35 2025
Module time:
	user time   =       0.82 seconds =       0.01 minutes
	system time =       0.05 seconds =       0.00 minutes
	total time  =          1 seconds =       0.02 minutes
Total time:
	user time   =       2.15 seconds =       0.04 minutes
	system time =       0.10 seconds =       0.00 minutes
	total time  =          1 seconds =       0.02 minutes

    Psi4 stopped on: Tuesday, 23 December 2025 01:37PM
    Psi4 wall time for execution: 0:00:00.81

*** Psi4 exiting successfully. Buy a developer a beer!
